
#------------------------------------------------------------------------------#
# simulation settings
#------------------------------------------------------------------------------#

##### simulation variables

variable        seed 	equal  20902
variable        T       equal  300	    #K
variable        p       equal  0.0 	#bar
variable        damp_T  equal  100 		  	#K
variable        damp_P  equal  1000.0	  	#bar
variable        dT      equal  1.0 		 	#fs
variable        kb      equal  0.0019872041

## system setup ##

units           real
atom_style      full
boundary        p p p

pair_style      lj/cut/coul/long 12.500
bond_style      harmonic
angle_style     hybrid cosine/periodic fourier
dihedral_style  harmonic
improper_style  fourier
kspace_style 	ewald 0.000001

dielectric 	 	1.0
pair_modify 	tail yes mix arithmetic
special_bonds 	lj/coul 0.0 0.0 1.0

read_data 	 	../data.emin_sod-4c_Zn-2c_mim_fe
Reading data file ...
  triclinic box = (4.5054746 4.3760097 4.4164229) to (20.786525 20.913779 20.965143) with tilt (-0.95270579 -0.51398262 -1.0127119)
  1 by 2 by 2 MPI processor grid
  reading atoms ...
  276 atoms
  reading velocities ...
  276 velocities
  scanning bonds ...
  3 = max bonds/atom
  scanning angles ...
  6 = max angles/atom
  scanning dihedrals ...
  10 = max dihedrals/atom
  scanning impropers ...
  4 = max impropers/atom
  reading bonds ...
  312 bonds
  reading angles ...
  576 angles
  reading dihedrals ...
  624 dihedrals
  reading impropers ...
  360 impropers
Finding 1-2 1-3 1-4 neighbors ...
  special bond factors lj:    0        0        1       
  special bond factors coul:  0        0        1       
     4 = max # of 1-2 neighbors
     8 = max # of 1-3 neighbors
    12 = max # of special neighbors
  special bonds CPU = 0.000 seconds
  read_data CPU = 0.003 seconds
include 	 	../non_bonded_sod-4c_Zn-2c_mim.param
### Parameters for Equilibration ###

### Parameters for MOF ###

mass 1 65.380000000
mass 2 14.006700000
mass 3 12.010700000
mass 4 1.007940000
mass 5 12.010700000


bond_coeff 1 165.837318 1.881712
bond_coeff 2 663.718927 1.345073
bond_coeff 3 369.943935 1.486000
bond_coeff 4 462.655054 1.379256
bond_coeff 5 357.440381 1.081418
bond_coeff 6 331.069389 1.109401

angle_coeff 1 fourier 197.524216 0.343737 0.374972 0.281246
angle_coeff 2 cosine/periodic 45.889625 -1 3
angle_coeff 3 cosine/periodic 120.000516 -1 3
angle_coeff 4 cosine/periodic 212.442573 -1 3
angle_coeff 5 cosine/periodic 136.548728 -1 3
angle_coeff 6 cosine/periodic 153.699352 -1 3
angle_coeff 7 cosine/periodic 79.786967 -1 3
angle_coeff 8 cosine/periodic 57.289016 -1 3
angle_coeff 9 fourier 121.777217 0.343737 0.374972 0.281246
angle_coeff 10 fourier 75.498766 0.343737 0.374972 0.281246

dihedral_coeff 1 3.368555 -1 2
dihedral_coeff 2 0.166667 1 3

improper_coeff 1 2.000000 1.000000 -1.000000 0.000000 0

pair_coeff 1 1 0.124 2.46155
pair_coeff 1 2 0.0924986 2.86112
pair_coeff 1 3 0.114105 2.9462
pair_coeff 1 4 0.0738647 2.51634
pair_coeff 1 5 0.114105 2.9462
pair_coeff 2 2 0.069 3.26069
pair_coeff 2 3 0.0851176 3.34577
pair_coeff 2 4 0.0550999 2.91591
pair_coeff 2 5 0.0851176 3.34577
pair_coeff 3 3 0.105 3.43085
pair_coeff 3 4 0.0679706 3.00099
pair_coeff 3 5 0.105 3.43085
pair_coeff 4 4 0.044 2.57113
pair_coeff 4 5 0.0679706 3.00099
pair_coeff 5 5 0.105 3.43085

group			fram type < 6
276 atoms in group fram

fix				SPRING fram spring/self 10 	# harmonic restraint to framework


#------------------------------------------------------------------------------#
# equilibration
#------------------------------------------------------------------------------#

reset_timestep	0

variable 		delta equal ${lambda}
variable 		delta equal 1e-08
fix 			ADAPT all adapt 0 atom charge v_delta scale yes

thermo_style	custom step etotal ke pe temp press density vol evdwl etail ecoul elong epair
thermo 			5000
velocity 		all create ${T} ${seed}
velocity 		all create 300 ${seed}
velocity 		all create 300 20902

fix				f1 all nve
fix 			f2 all langevin ${T} ${T} ${damp_T} ${seed} zero yes
fix 			f2 all langevin 300 ${T} ${damp_T} ${seed} zero yes
fix 			f2 all langevin 300 300 ${damp_T} ${seed} zero yes
fix 			f2 all langevin 300 300 100 ${seed} zero yes
fix 			f2 all langevin 300 300 100 20902 zero yes
compute 		c1 all temp/com
fix_modify		f2 temp c1

run				200000
Ewald initialization ...
  using 12-bit tables for long-range coulomb (../kspace.cpp:342)
  G vector (1/distance) = 0.24281392
  estimated absolute RMS force accuracy = 0.00037231444
  estimated relative force accuracy = 1.1212139e-06
  KSpace vectors: actual max1d max3d = 131 4 364
                  kxmax kymax kzmax  = 4 4 4
Generated 0 of 10 mixed pair_coeff terms from arithmetic mixing rule
Neighbor list info ...
  update every 1 steps, delay 10 steps, check yes
  max neighbors/atom: 2000, page size: 100000
  master list distance cutoff = 14.5
  ghost atom cutoff = 14.5
  binsize = 7.25, bins = 3 3 3
  1 neighbor lists, perpetual/occasional/extra = 1 0 0
  (1) pair lj/cut/coul/long, perpetual
      attributes: half, newton on
      pair build: half/bin/newton/tri
      stencil: half/bin/3d/tri
      bin: standard
WARNING: Inconsistent image flags (../domain.cpp:819)
Per MPI rank memory allocation (min/avg/max) = 16.18 | 16.18 | 16.18 Mbytes
   Step         TotEng         KinEng         PotEng          Temp          Press         Density         Volume         E_vdwl         E_tail         E_coul         E_long         E_pair    
         0   1177.4706      245.91683      931.55372      300            10489.585      1.0177122      4455.7805     -161.77947     -4.6924513     -6.8098253e-14 -8.9349675e-14 -161.77947    
      5000   1410.1048      263.47778      1146.627       321.42304      7651.6114      1.0177122      4455.7805     -156.28344     -4.6924513     -6.7441181e-14 -8.9342934e-14 -156.28344    
     10000   1404.3692      253.61289      1150.7563      309.38861      5678.0863      1.0177122      4455.7805     -154.22045     -4.6924513     -6.7755722e-14 -8.934968e-14  -154.22045    
     15000   1380.5196      241.80251      1138.7171      294.98085      8689.1897      1.0177122      4455.7805     -158.81714     -4.6924513     -6.7415227e-14 -8.9343986e-14 -158.81714    
     20000   1372.4865      227.09131      1145.3952      277.03428      7841.673       1.0177122      4455.7805     -149.93841     -4.6924513     -6.7571329e-14 -8.9351057e-14 -149.93841    
     25000   1432.58        270.92952      1161.6505      330.5136       7746.029       1.0177122      4455.7805     -148.76831     -4.6924513     -6.7474984e-14 -8.9347064e-14 -148.76831    
     30000   1426.0523      262.87951      1163.1728      320.69319      10358.712      1.0177122      4455.7805     -153.32744     -4.6924513     -6.7834575e-14 -8.9348688e-14 -153.32744    
     35000   1407.911       244.4437       1163.4672      298.2029       4331.1328      1.0177122      4455.7805     -153.05024     -4.6924513     -6.7459708e-14 -8.9349528e-14 -153.05024    
     40000   1400.5762      254.79425      1145.782       310.82979      3776.7272      1.0177122      4455.7805     -150.23245     -4.6924513     -6.7686952e-14 -8.9346759e-14 -150.23245    
     45000   1401.9529      250.69756      1151.2554      305.83214      5699.5673      1.0177122      4455.7805     -150.23659     -4.6924513     -6.7169586e-14 -8.9347839e-14 -150.23659    
     50000   1417.588       254.1323       1163.4557      310.02226      1109.8113      1.0177122      4455.7805     -142.17588     -4.6924513     -6.7388321e-14 -8.9348766e-14 -142.17588    
     55000   1388.0098      243.13954      1144.8702      296.61191      10250.36       1.0177122      4455.7805     -156.60536     -4.6924513     -6.7425929e-14 -8.9351819e-14 -156.60536    
     60000   1415.03        244.71565      1170.3143      298.53465      11120.535      1.0177122      4455.7805     -153.86123     -4.6924513     -6.7852691e-14 -8.934934e-14  -153.86123    
     65000   1398.0759      243.34479      1154.7311      296.86231      6352.9041      1.0177122      4455.7805     -152.92768     -4.6924513     -6.7856794e-14 -8.9349014e-14 -152.92768    
     70000   1411.022       254.14316      1156.8788      310.0355       4186.6208      1.0177122      4455.7805     -150.44929     -4.6924513     -6.7387065e-14 -8.9350194e-14 -150.44929    
     75000   1404.1786      250.69016      1153.4885      305.82311      3943.9468      1.0177122      4455.7805     -151.06504     -4.6924513     -6.7421444e-14 -8.9348898e-14 -151.06504    
     80000   1395.4974      235.35618      1160.1413      287.1168       8141.2882      1.0177122      4455.7805     -153.85026     -4.6924513     -6.7509739e-14 -8.9346822e-14 -153.85026    
     85000   1421.027       263.1874       1157.8396      321.0688       5770.7794      1.0177122      4455.7805     -157.28674     -4.6924513     -6.7446198e-14 -8.9350133e-14 -157.28674    
     90000   1389.9335      244.30446      1145.629       298.03303      5022.6149      1.0177122      4455.7805     -154.6659      -4.6924513     -6.7533566e-14 -8.9348376e-14 -154.6659     
     95000   1409.5949      245.44889      1164.1461      299.42915      5790.3965      1.0177122      4455.7805     -150.10415     -4.6924513     -6.746646e-14  -8.9345676e-14 -150.10415    
    100000   1417.3166      258.61521      1158.7014      315.49107      8059.5668      1.0177122      4455.7805     -145.61761     -4.6924513     -6.7499553e-14 -8.9347535e-14 -145.61761    
    105000   1422.8496      250.25385      1172.5958      305.29084      8573.6812      1.0177122      4455.7805     -150.55296     -4.6924513     -6.7535587e-14 -8.9346859e-14 -150.55296    
    110000   1401.8018      253.59917      1148.2026      309.37188      6009.9889      1.0177122      4455.7805     -155.89616     -4.6924513     -6.7724038e-14 -8.9350769e-14 -155.89616    
    115000   1418.0349      260.40337      1157.6315      317.67248      6013.0905      1.0177122      4455.7805     -147.56664     -4.6924513     -6.7616774e-14 -8.9348729e-14 -147.56664    
    120000   1407.7602      268.80404      1138.9561      327.92068      8295.7617      1.0177122      4455.7805     -155.83717     -4.6924513     -6.7293432e-14 -8.9347326e-14 -155.83717    
    125000   1399.3437      251.51639      1147.8273      306.83104      8451.2302      1.0177122      4455.7805     -153.64953     -4.6924513     -6.7384081e-14 -8.9347287e-14 -153.64953    
    130000   1428.8412      267.07184      1161.7694      325.80751      8356.2731      1.0177122      4455.7805     -153.73712     -4.6924513     -6.7629679e-14 -8.9345828e-14 -153.73712    
    135000   1413.7188      259.48903      1154.2298      316.55706      7844.1531      1.0177122      4455.7805     -150.09756     -4.6924513     -6.7729057e-14 -8.9342708e-14 -150.09756    
    140000   1413.2354      248.74322      1164.4922      303.44798      5838.1411      1.0177122      4455.7805     -152.12952     -4.6924513     -6.7467819e-14 -8.9347888e-14 -152.12952    
    145000   1408.5618      247.55903      1161.0028      302.00336      4490.3443      1.0177122      4455.7805     -150.24955     -4.6924513     -6.7500516e-14 -8.934751e-14  -150.24955    
    150000   1395.3642      255.03799      1140.3263      311.12713      6540.9218      1.0177122      4455.7805     -142.38579     -4.6924513     -6.7762445e-14 -8.9344834e-14 -142.38579    
    155000   1368.1843      228.7983       1139.386       279.11668      4221.6933      1.0177122      4455.7805     -150.79093     -4.6924513     -6.7387307e-14 -8.9349969e-14 -150.79093    
    160000   1411.0492      243.73447      1167.3147      297.33769      9213.4037      1.0177122      4455.7805     -144.41372     -4.6924513     -6.7510268e-14 -8.9346529e-14 -144.41372    
    165000   1410.0514      259.64743      1150.404       316.75029      7316.3734      1.0177122      4455.7805     -147.39346     -4.6924513     -6.7591494e-14 -8.9350735e-14 -147.39346    
    170000   1417.254       258.77215      1158.4819      315.68253      5545.7524      1.0177122      4455.7805     -155.00677     -4.6924513     -6.745618e-14  -8.934994e-14  -155.00677    
    175000   1415.7987      251.17418      1164.6245      306.41358      4390.5766      1.0177122      4455.7805     -159.20473     -4.6924513     -6.747346e-14  -8.9346551e-14 -159.20473    
    180000   1436.27        262.14641      1174.1236      319.79886      4900.0288      1.0177122      4455.7805     -152.80474     -4.6924513     -6.7516918e-14 -8.9347668e-14 -152.80474    
    185000   1381.7656      230.10126      1151.6644      280.70619      6206.302       1.0177122      4455.7805     -149.80767     -4.6924513     -6.7756516e-14 -8.9350093e-14 -149.80767    
    190000   1432.2982      269.10488      1163.1933      328.28768      5001.7302      1.0177122      4455.7805     -141.96259     -4.6924513     -6.7412342e-14 -8.934166e-14  -141.96259    
    195000   1413.9201      248.06145      1165.8587      302.61628      6018.377       1.0177122      4455.7805     -152.20888     -4.6924513     -6.7634027e-14 -8.9348433e-14 -152.20888    
    200000   1411.1293      237.84623      1173.2831      290.15448      5801.7574      1.0177122      4455.7805     -141.70208     -4.6924513     -6.7525888e-14 -8.9350122e-14 -141.70208    
Loop time of 31.1841 on 4 procs for 200000 steps with 276 atoms

Performance: 554.128 ns/day, 0.043 hours/ns, 6413.518 timesteps/s
99.7% CPU use with 4 MPI tasks x no OpenMP threads

MPI task timing breakdown:
Section |  min time  |  avg time  |  max time  |%varavg| %total
---------------------------------------------------------------
Pair    | 20.317     | 21.892     | 23.304     |  29.4 | 70.20
Bond    | 1.0159     | 1.0802     | 1.1441     |   4.4 |  3.46
Kspace  | 0.84649    | 2.3432     | 3.9529     |  91.7 |  7.51
Neigh   | 0          | 0          | 0          |   0.0 |  0.00
Comm    | 4.8904     | 4.9329     | 4.9671     |   1.3 | 15.82
Output  | 0.00043858 | 0.00046205 | 0.00052829 |   0.0 |  0.00
Modify  | 0.7056     | 0.72033    | 0.73151    |   1.2 |  2.31
Other   |            | 0.2152     |            |       |  0.69

Nlocal:             69 ave          73 max          64 min
Histogram: 1 0 1 0 0 0 0 0 0 2
Nghost:           3704 ave        3726 max        3681 min
Histogram: 1 1 0 0 0 0 0 0 0 2
Neighs:        27322.2 ave       29179 max       24979 min
Histogram: 1 0 1 0 0 0 0 0 0 2

Total # of neighbors = 109289
Ave neighs/atom = 395.97464
Ave special neighs/atom = 6.4347826
Neighbor list builds = 0
Dangerous builds = 0
unfix			ADAPT

#------------------------------------------------------------------------------#
# sampling
#------------------------------------------------------------------------------#

reset_timestep	0

variable		elec equal 2*(elong+ecoul)
variable		dudlam equal v_elec/${lambda}
variable		dudlam equal v_elec/1e-08
fix				ELEC all ave/time 250 1 250 v_dudlam file q_${lambda}.lmp
fix				ELEC all ave/time 250 1 250 v_dudlam file q_1e-08.lmp

thermo_style	custom step etotal ke pe temp press density vol evdwl etail ecoul elong epair v_elec
thermo			250

run 			500000
Ewald initialization ...
  using 12-bit tables for long-range coulomb (../kspace.cpp:342)
  G vector (1/distance) = 0.2041222
  estimated absolute RMS force accuracy = 2.2911025e-16
  estimated relative force accuracy = 6.8995872e-19
  KSpace vectors: actual max1d max3d = 2 1 13
                  kxmax kymax kzmax  = 1 1 1
Generated 0 of 10 mixed pair_coeff terms from arithmetic mixing rule
WARNING: Inconsistent image flags (../domain.cpp:819)
Per MPI rank memory allocation (min/avg/max) = 16.18 | 16.18 | 16.18 Mbytes
   Step         TotEng         KinEng         PotEng          Temp          Press         Density         Volume         E_vdwl         E_tail         E_coul         E_long         E_pair         v_elec    
         0   1411.1293      237.84623      1173.2831      290.15448      5801.7574      1.0177122      4455.7805     -141.70208     -4.6924513     -8.166424e-14  -7.5112556e-14 -141.70208     -3.1355359e-13
       250   1413.5704      267.72062      1145.8497      326.59899      4780.9252      1.0177122      4455.7805     -152.89998     -4.6924513     -8.173441e-14  -7.5112019e-14 -152.89998     -3.1369286e-13
       500   1430.2356      253.01926      1177.2163      308.66444      5161.2971      1.0177122      4455.7805     -145.81245     -4.6924513     -8.1458202e-14 -7.5109296e-14 -145.81245     -3.13135e-13  
       750   1412.1096      240.02756      1172.082       292.81553      2967.1753      1.0177122      4455.7805     -148.19563     -4.6924513     -8.1645076e-14 -7.5107915e-14 -148.19563     -3.1350598e-13
      1000   1389.1482      240.37997      1148.7682      293.24545      8550.628       1.0177122      4455.7805     -148.42652     -4.6924513     -8.2054321e-14 -7.5111323e-14 -148.42652     -3.1433129e-13
      1250   1400.1112      232.66807      1167.4431      283.83751      4592.7618      1.0177122      4455.7805     -150.67049     -4.6924513     -8.1550451e-14 -7.5111024e-14 -150.67049     -3.1332295e-13
      1500   1381.2209      242.08108      1139.1399      295.32068      5815.526       1.0177122      4455.7805     -154.7304      -4.6924513     -8.1642655e-14 -7.5110962e-14 -154.7304      -3.1350724e-13
      1750   1396.5         241.00498      1155.495       294.00792      4369.0877      1.0177122      4455.7805     -153.46377     -4.6924513     -8.1422045e-14 -7.5113424e-14 -153.46377     -3.1307094e-13
      2000   1421.1652      241.25309      1179.9121      294.31059      8591.4686      1.0177122      4455.7805     -148.91828     -4.6924513     -8.1531514e-14 -7.5108974e-14 -148.91828     -3.1328098e-13
      2250   1386.6666      241.25646      1145.4102      294.3147       3169.6587      1.0177122      4455.7805     -143.30824     -4.6924513     -8.1570094e-14 -7.5111268e-14 -143.30824     -3.1336272e-13
      2500   1388.6428      249.88614      1138.7567      304.84226      8451.3199      1.0177122      4455.7805     -153.62436     -4.6924513     -8.1482736e-14 -7.5112377e-14 -153.62436     -3.1319022e-13
      2750   1390.9806      241.11786      1149.8628      294.14562      6175.6788      1.0177122      4455.7805     -151.11221     -4.6924513     -8.1859179e-14 -7.5112542e-14 -151.11221     -3.1394344e-13
      3000   1390.3683      240.75895      1149.6093      293.70778      7031.4523      1.0177122      4455.7805     -156.8594      -4.6924513     -8.1923312e-14 -7.5106983e-14 -156.8594      -3.1406059e-13
      3250   1399.1537      250.67326      1148.4805      305.80249      5322.3347      1.0177122      4455.7805     -155.2144      -4.6924513     -8.1897362e-14 -7.511269e-14  -155.2144      -3.140201e-13 
      3500   1413.1871      255.02447      1158.1626      311.11064      9496.7295      1.0177122      4455.7805     -157.8112      -4.6924513     -8.1780618e-14 -7.5110606e-14 -157.8112      -3.1378245e-13
      3750   1416.847       258.42248      1158.4246      315.25595      3652.0931      1.0177122      4455.7805     -152.12361     -4.6924513     -8.1467448e-14 -7.5112609e-14 -152.12361     -3.1316011e-13
      4000   1414.3782      248.02132      1166.3569      302.56732      4548.1697      1.0177122      4455.7805     -161.95584     -4.6924513     -8.1504203e-14 -7.5112129e-14 -161.95584     -3.1323267e-13
      4250   1396.4705      235.19233      1161.2782      286.91692      7460.2065      1.0177122      4455.7805     -147.46868     -4.6924513     -8.1761698e-14 -7.511152e-14  -147.46868     -3.1374644e-13
      4500   1432.6169      272.04362      1160.5733      331.87271      9126.3663      1.0177122      4455.7805     -152.14043     -4.6924513     -8.176378e-14  -7.5109924e-14 -152.14043     -3.1374741e-13
      4750   1419.6912      257.77096      1161.9203      314.46115      7165.5257      1.0177122      4455.7805     -151.62789     -4.6924513     -8.170121e-14  -7.5112974e-14 -151.62789     -3.1362837e-13
      5000   1435.4559      264.66006      1170.7958      322.86533      10973.566      1.0177122      4455.7805     -150.05311     -4.6924513     -8.1798101e-14 -7.5110944e-14 -150.05311     -3.1381809e-13
      5250   1419.809       259.56186      1160.2471      316.64591      6815.3482      1.0177122      4455.7805     -142.50164     -4.6924513     -8.1667192e-14 -7.5111196e-14 -142.50164     -3.1355678e-13
      5500   1407.1552      245.78648      1161.3687      299.84099      5017.4586      1.0177122      4455.7805     -151.59852     -4.6924513     -8.1695166e-14 -7.5113243e-14 -151.59852     -3.1361682e-13
      5750   1397.9146      245.64913      1152.2654      299.67343      4238.9654      1.0177122      4455.7805     -155.56509     -4.6924513     -8.147486e-14  -7.5111105e-14 -155.56509     -3.1317193e-13
      6000   1403.1679      251.84949      1151.3184      307.2374       12452.209      1.0177122      4455.7805     -154.56847     -4.6924513     -8.1849129e-14 -7.5107439e-14 -154.56847     -3.1391313e-13
      6250   1424.2448      264.73839      1159.5064      322.96089      3070.0261      1.0177122      4455.7805     -153.80922     -4.6924513     -8.1620278e-14 -7.5107383e-14 -153.80922     -3.1345532e-13
      6500   1430.0833      265.7193       1164.364       324.15752      7196.8757      1.0177122      4455.7805     -148.54665     -4.6924513     -8.1933129e-14 -7.5110853e-14 -148.54665     -3.1408796e-13
      6750   1405.5388      251.86768      1153.6711      307.25959      5357.1509      1.0177122      4455.7805     -157.23068     -4.6924513     -8.1789766e-14 -7.5110551e-14 -157.23068     -3.1380063e-13
      7000   1406.2962      250.52763      1155.7686      305.62483      8434.3361      1.0177122      4455.7805     -149.13254     -4.6924513     -8.1796304e-14 -7.5113128e-14 -149.13254     -3.1381886e-13
      7250   1435.7132      259.84903      1175.8641      316.99624      7430.5834      1.0177122      4455.7805     -152.23051     -4.6924513     -8.1896113e-14 -7.511159e-14  -152.23051     -3.1401541e-13
      7500   1418.8745      260.96859      1157.9059      318.36201      5628.6528      1.0177122      4455.7805     -148.161       -4.6924513     -8.1463067e-14 -7.5112517e-14 -148.161       -3.1315117e-13
      7750   1419.5639      255.74714      1163.8168      311.99224      8054.7097      1.0177122      4455.7805     -151.48364     -4.6924513     -8.1774734e-14 -7.5110637e-14 -151.48364     -3.1377074e-13
      8000   1420.2385      263.68628      1156.5522      321.67739      9471.547       1.0177122      4455.7805     -148.68888     -4.6924513     -8.2091744e-14 -7.5110244e-14 -148.68888     -3.1440398e-13
      8250   1386.8909      250.48367      1136.4073      305.5712       3934.44        1.0177122      4455.7805     -153.6132      -4.6924513     -8.183213e-14  -7.5111865e-14 -153.6132      -3.1388799e-13
      8500   1399.313       254.53583      1144.7772      310.51454      8630.1126      1.0177122      4455.7805     -155.25587     -4.6924513     -8.1773457e-14 -7.5111929e-14 -155.25587     -3.1377077e-13
      8750   1406.2684      243.9921       1162.2764      297.65197      3596.8933      1.0177122      4455.7805     -152.91962     -4.6924513     -8.1835227e-14 -7.5110533e-14 -152.91962     -3.1389152e-13
      9000   1416.536       254.92641      1161.6096      310.99101      9396.9512      1.0177122      4455.7805     -149.74635     -4.6924513     -8.1836612e-14 -7.5108632e-14 -149.74635     -3.1389049e-13
      9250   1436.692       269.76504      1166.9269      329.09303      5116.1305      1.0177122      4455.7805     -152.62051     -4.6924513     -8.1985342e-14 -7.5111018e-14 -152.62051     -3.1419272e-13
      9500   1420.9203      264.10513      1156.8152      322.18836      9356.2828      1.0177122      4455.7805     -154.43965     -4.6924513     -8.1823261e-14 -7.5112019e-14 -154.43965     -3.1387056e-13
      9750   1380.6306      250.58799      1130.0426      305.69847      1469.8522      1.0177122      4455.7805     -154.20998     -4.6924513     -8.136316e-14  -7.5112425e-14 -154.20998     -3.1295117e-13
     10000   1408.817       239.17726      1169.6397      291.77823      12769.731      1.0177122      4455.7805     -141.68547     -4.6924513     -8.1877226e-14 -7.5112074e-14 -141.68547     -3.139786e-13 
     10250   1422.515       254.27506      1168.2399      310.19642      7578.3137      1.0177122      4455.7805     -150.89135     -4.6924513     -8.1988579e-14 -7.5113119e-14 -150.89135     -3.1420339e-13
     10500   1396.3516      245.67339      1150.6782      299.70303      4447.1808      1.0177122      4455.7805     -154.94079     -4.6924513     -8.1435299e-14 -7.5111471e-14 -154.94079     -3.1309354e-13
     10750   1402.5705      257.69252      1144.8779      314.36546      12457.5        1.0177122      4455.7805     -148.90804     -4.6924513     -8.1799078e-14 -7.5112734e-14 -148.90804     -3.1382362e-13
     11000   1412.4798      258.72316      1153.7566      315.62276      5906.1333      1.0177122      4455.7805     -152.6445      -4.6924513     -8.168169e-14  -7.5112708e-14 -152.6445      -3.135888e-13 
     11250   1406.8265      252.23608      1154.5904      307.70901      5197.1534      1.0177122      4455.7805     -151.86324     -4.6924513     -8.1411178e-14 -7.5105721e-14 -151.86324     -3.130338e-13 
     11500   1404.2706      251.88396      1152.3866      307.27945      8430.1865      1.0177122      4455.7805     -154.04937     -4.6924513     -8.1680762e-14 -7.5110382e-14 -154.04937     -3.1358229e-13
     11750   1396.773       251.43774      1145.3352      306.7351       6546.5681      1.0177122      4455.7805     -151.64407     -4.6924513     -8.1809142e-14 -7.5112819e-14 -151.64407     -3.1384392e-13
     12000   1421.2441      255.18787      1166.0562      311.30997      6999.4569      1.0177122      4455.7805     -149.91808     -4.6924513     -8.1772892e-14 -7.5113691e-14 -149.91808     -3.1377317e-13
     12250   1392.3823      251.5514       1140.8309      306.87375      2644.0727      1.0177122      4455.7805     -150.31117     -4.6924513     -8.153042e-14  -7.5111799e-14 -150.31117     -3.1328444e-13
     12500   1380.6139      247.55208      1133.0618      301.99489      6786.1675      1.0177122      4455.7805     -154.89339     -4.6924513     -8.1580517e-14 -7.5113396e-14 -154.89339     -3.1338783e-13
     12750   1413.4659      258.0905       1155.3754      314.85096      10846.892      1.0177122      4455.7805     -155.33577     -4.6924513     -8.1641284e-14 -7.5109199e-14 -155.33577     -3.1350097e-13
     13000   1397.1941      243.22291      1153.9712      296.71362      8594.5478      1.0177122      4455.7805     -155.75125     -4.6924513     -8.1722858e-14 -7.5110668e-14 -155.75125     -3.1366705e-13
     13250   1400.4541      278.5666       1121.8875      339.83027      8827.4052      1.0177122      4455.7805     -150.00377     -4.6924513     -8.1937714e-14 -7.5108653e-14 -150.00377     -3.1409274e-13
     13500   1399.4285      242.18213      1157.2464      295.44395      5347.4129      1.0177122      4455.7805     -144.19545     -4.6924513     -8.18953e-14   -7.5109479e-14 -144.19545     -3.1400956e-13
     13750   1402.5541      239.23904      1163.3151      291.8536       7938.2297      1.0177122      4455.7805     -158.93796     -4.6924513     -8.1719126e-14 -7.5111883e-14 -158.93796     -3.1366202e-13
     14000   1414.6839      244.73863      1169.9452      298.56269      3911.6523      1.0177122      4455.7805     -155.6003      -4.6924513     -8.1789799e-14 -7.5110265e-14 -155.6003      -3.1380013e-13
     14250   1378.3281      236.14474      1142.1833      288.07879      5946.1254      1.0177122      4455.7805     -156.17718     -4.6924513     -8.1435407e-14 -7.5111938e-14 -156.17718     -3.1309469e-13
     14500   1377.0674      256.19003      1120.8774      312.53253      8441.1859      1.0177122      4455.7805     -157.72869     -4.6924513     -8.1500315e-14 -7.5111249e-14 -157.72869     -3.1322313e-13
     14750   1409.2731      239.57759      1169.6955      292.26661      3174.7465      1.0177122      4455.7805     -146.86816     -4.6924513     -8.1782284e-14 -7.510969e-14  -146.86816     -3.1378395e-13
     15000   1424.0458      265.94992      1158.0959      324.43886      8027.4146      1.0177122      4455.7805     -145.0981      -4.6924513     -8.1824621e-14 -7.5110265e-14 -145.0981      -3.1386977e-13
     15250   1405.4134      239.71801      1165.6954      292.4379       9124.6203      1.0177122      4455.7805     -149.34398     -4.6924513     -8.1706066e-14 -7.5112871e-14 -149.34398     -3.1363787e-13
     15500   1398.4568      245.29708      1153.1597      299.24395      4039.9232      1.0177122      4455.7805     -143.65389     -4.6924513     -8.152684e-14  -7.511008e-14  -143.65389     -3.1327384e-13
     15750   1385.5397      245.51066      1140.0291      299.5045       3093.0878      1.0177122      4455.7805     -150.39604     -4.6924513     -8.1558068e-14 -7.510815e-14  -150.39604     -3.1333244e-13
     16000   1379.6955      217.80492      1161.8906      265.70559      3710.8992      1.0177122      4455.7805     -145.78226     -4.6924513     -8.1491775e-14 -7.5111954e-14 -145.78226     -3.1320746e-13
     16250   1413.7233      234.86284      1178.8605      286.51496      8585.4941      1.0177122      4455.7805     -155.33668     -4.6924513     -8.147602e-14  -7.5110968e-14 -155.33668     -3.1317398e-13
     16500   1411.9154      253.6176       1158.2978      309.39436      7708.9446      1.0177122      4455.7805     -140.63668     -4.6924513     -8.2029598e-14 -7.5109527e-14 -140.63668     -3.1427825e-13
     16750   1422.6171      264.81249      1157.8046      323.05128      3471.4924      1.0177122      4455.7805     -147.14798     -4.6924513     -8.1600555e-14 -7.5105571e-14 -147.14798     -3.1341225e-13
     17000   1410.8421      250.88156      1159.9605      306.0566       10871.525      1.0177122      4455.7805     -145.85911     -4.6924513     -8.1787058e-14 -7.5110541e-14 -145.85911     -3.137952e-13 
     17250   1388.2269      240.87317      1147.3537      293.84711      3102.2308      1.0177122      4455.7805     -151.79671     -4.6924513     -8.1676713e-14 -7.5113099e-14 -151.79671     -3.1357962e-13
     17500   1392.8525      238.02093      1154.8316      290.36759      7178.1043      1.0177122      4455.7805     -155.61011     -4.6924513     -8.1795947e-14 -7.5111114e-14 -155.61011     -3.1381412e-13
     17750   1412.8344      275.85921      1136.9752      336.52745      9155.8342      1.0177122      4455.7805     -151.33659     -4.6924513     -8.1832428e-14 -7.5109204e-14 -151.33659     -3.1388327e-13
     18000   1413.9507      269.43462      1144.5161      328.68994      10156.812      1.0177122      4455.7805     -149.10268     -4.6924513     -8.1875322e-14 -7.5112543e-14 -149.10268     -3.1397573e-13
     18250   1407.3155      259.46611      1147.8494      316.52911      4588.8103      1.0177122      4455.7805     -154.97719     -4.6924513     -8.1842301e-14 -7.5110987e-14 -154.97719     -3.1390658e-13
     18500   1385.255       251.82342      1133.4315      307.2056       6705.8899      1.0177122      4455.7805     -155.80419     -4.6924513     -8.175661e-14  -7.5111571e-14 -155.80419     -3.1373636e-13
     18750   1379.7361      222.40652      1157.3296      271.3192       6762.3392      1.0177122      4455.7805     -148.61082     -4.6924513     -8.1564184e-14 -7.5110997e-14 -148.61082     -3.1335036e-13
     19000   1402.8921      254.24329      1148.6488      310.15766      7465.4653      1.0177122      4455.7805     -153.8091      -4.6924513     -8.1708199e-14 -7.5110511e-14 -153.8091      -3.1363742e-13
     19250   1398.6585      263.63719      1135.0213      321.61751      8848.3157      1.0177122      4455.7805     -155.25605     -4.6924513     -8.1667628e-14 -7.5112456e-14 -155.25605     -3.1356017e-13
     19500   1399.3932      253.29054      1146.1026      308.99537      6653.1544      1.0177122      4455.7805     -146.81086     -4.6924513     -8.1923273e-14 -7.5111386e-14 -146.81086     -3.1406932e-13
     19750   1381.2436      235.74642      1145.4972      287.59287      5627.9758      1.0177122      4455.7805     -144.96212     -4.6924513     -8.189769e-14  -7.5111601e-14 -144.96212     -3.1401858e-13
     20000   1431.3095      266.13486      1165.1747      324.66448      5516.2593      1.0177122      4455.7805     -149.82085     -4.6924513     -8.1625985e-14 -7.5111376e-14 -149.82085     -3.1347472e-13
     20250   1399.7649      252.82428      1146.9406      308.42657      8903.4547      1.0177122      4455.7805     -156.22373     -4.6924513     -8.1657207e-14 -7.5107963e-14 -156.22373     -3.1353034e-13
     20500   1375.9143      248.55417      1127.3601      303.21735      10155.314      1.0177122      4455.7805     -146.34629     -4.6924513     -8.2047651e-14 -7.5111696e-14 -146.34629     -3.1431869e-13
     20750   1397.1709      253.18877      1143.9822      308.87122      5730.3652      1.0177122      4455.7805     -159.49156     -4.6924513     -8.1875269e-14 -7.5111305e-14 -159.49156     -3.1397315e-13
     21000   1374.9121      245.00195      1129.9101      298.88392      7987.6598      1.0177122      4455.7805     -152.42916     -4.6924513     -8.1553566e-14 -7.5110106e-14 -152.42916     -3.1332734e-13
     21250   1418.4445      253.69065      1164.7538      309.48348      6182.8819      1.0177122      4455.7805     -150.19522     -4.6924513     -8.1661995e-14 -7.5110341e-14 -150.19522     -3.1354467e-13
     21500   1383.8849      239.14709      1144.7378      291.74143      7000.8492      1.0177122      4455.7805     -152.60689     -4.6924513     -8.1657526e-14 -7.5112353e-14 -152.60689     -3.1353976e-13
     21750   1419.5659      280.71159      1138.8543      342.44699      8770.7367      1.0177122      4455.7805     -154.30644     -4.6924513     -8.1582774e-14 -7.5109583e-14 -154.30644     -3.1338471e-13
     22000   1390.2461      227.23935      1163.0068      277.21488      945.1248       1.0177122      4455.7805     -154.6419      -4.6924513     -8.1590494e-14 -7.5109116e-14 -154.6419      -3.1339922e-13
     22250   1421.7284      274.07621      1147.6521      334.35233      4677.2462      1.0177122      4455.7805     -146.64315     -4.6924513     -8.1829977e-14 -7.5113513e-14 -146.64315     -3.1388698e-13
     22500   1420.6574      247.98119      1172.6762      302.51836      3490.2463      1.0177122      4455.7805     -153.85948     -4.6924513     -8.1603056e-14 -7.5110347e-14 -153.85948     -3.1342681e-13
     22750   1412.7849      259.84399      1152.9409      316.99009      7782.7206      1.0177122      4455.7805     -146.3163      -4.6924513     -8.1348567e-14 -7.511002e-14  -146.3163      -3.1291717e-13
     23000   1410.6575      258.04321      1152.6143      314.79328      10341.367      1.0177122      4455.7805     -145.91103     -4.6924513     -8.2138741e-14 -7.5111759e-14 -145.91103     -3.14501e-13  
     23250   1408.2608      260.52969      1147.7311      317.8266       5482.4272      1.0177122      4455.7805     -154.4718      -4.6924513     -8.1557283e-14 -7.5112624e-14 -154.4718      -3.1333981e-13
     23500   1401.8017      232.8981       1168.9036      284.11813      3530.5093      1.0177122      4455.7805     -152.40265     -4.6924513     -8.1829154e-14 -7.5109685e-14 -152.40265     -3.1387768e-13
     23750   1397.5513      244.61859      1152.9327      298.41624      8999.7363      1.0177122      4455.7805     -160.55234     -4.6924513     -8.1385834e-14 -7.5110853e-14 -160.55234     -3.1299337e-13
     24000   1408.0485      242.55693      1165.4916      295.90117      1076.606       1.0177122      4455.7805     -149.74092     -4.6924513     -8.1697777e-14 -7.511188e-14  -149.74092     -3.1361931e-13
     24250   1420.0392      270.85156      1149.1876      330.41849      9118.0784      1.0177122      4455.7805     -152.68262     -4.6924513     -8.1826314e-14 -7.5109302e-14 -152.68262     -3.1387123e-13
     24500   1427.9512      264.80395      1163.1472      323.04086      5710.7434      1.0177122      4455.7805     -154.20939     -4.6924513     -8.134213e-14  -7.5112434e-14 -154.20939     -3.1290913e-13
     24750   1405.0067      250.43165      1154.575       305.50775      10527.371      1.0177122      4455.7805     -153.24667     -4.6924513     -8.2225643e-14 -7.511185e-14  -153.24667     -3.1467499e-13
     25000   1384.1927      243.7748       1140.4179      297.38688      7822.4126      1.0177122      4455.7805     -150.02612     -4.6924513     -8.1985094e-14 -7.5110701e-14 -150.02612     -3.1419159e-13
     25250   1419.4775      263.02056      1156.4569      320.86526      4932.6602      1.0177122      4455.7805     -157.97289     -4.6924513     -8.1812169e-14 -7.5112952e-14 -157.97289     -3.1385024e-13
     25500   1391.6886      238.70782      1152.9808      291.20555      6192.6933      1.0177122      4455.7805     -157.00573     -4.6924513     -8.1526984e-14 -7.5111011e-14 -157.00573     -3.1327599e-13
     25750   1388.4421      247.1625       1141.2796      301.51962      8579.0914      1.0177122      4455.7805     -152.46636     -4.6924513     -8.1622407e-14 -7.5113436e-14 -152.46636     -3.1347168e-13
     26000   1382.409       245.32732      1137.0816      299.28085      4335.9141      1.0177122      4455.7805     -160.01507     -4.6924513     -8.1562006e-14 -7.5112289e-14 -160.01507     -3.1334859e-13
     26250   1403.1433      263.95603      1139.1872      322.00647      4797.5889      1.0177122      4455.7805     -154.61688     -4.6924513     -8.1593047e-14 -7.5110539e-14 -154.61688     -3.1340717e-13
     26500   1415.3724      257.87454      1157.4979      314.5875       3295.202       1.0177122      4455.7805     -151.34021     -4.6924513     -8.1321607e-14 -7.5109282e-14 -151.34021     -3.1286178e-13
     26750   1412.9612      257.06285      1155.8983      313.5973       6042.2302      1.0177122      4455.7805     -143.82529     -4.6924513     -8.1690975e-14 -7.511151e-14  -143.82529     -3.1360497e-13
     27000   1406.4502      236.34627      1170.1039      288.32464      5535.4889      1.0177122      4455.7805     -146.73962     -4.6924513     -8.1673841e-14 -7.5111325e-14 -146.73962     -3.1357033e-13
     27250   1421.4032      257.60876      1163.7945      314.26328      5505.247       1.0177122      4455.7805     -157.20752     -4.6924513     -8.1680378e-14 -7.5111696e-14 -157.20752     -3.1358415e-13
     27500   1393.1714      234.38396      1158.7874      285.93076      6864.5524      1.0177122      4455.7805     -152.61138     -4.6924513     -8.1712005e-14 -7.5112901e-14 -152.61138     -3.1364981e-13
     27750   1444.9968      258.48457      1186.5123      315.3317       6771.0966      1.0177122      4455.7805     -146.44704     -4.6924513     -8.1622214e-14 -7.5111889e-14 -146.44704     -3.1346821e-13
     28000   1397.6419      256.04718      1141.5947      312.35827      7204.4602      1.0177122      4455.7805     -155.42573     -4.6924513     -8.182498e-14  -7.5111913e-14 -155.42573     -3.1387379e-13
     28250   1406.7136      245.40649      1161.3071      299.37743      5194.7007      1.0177122      4455.7805     -155.38817     -4.6924513     -8.1943249e-14 -7.5112964e-14 -155.38817     -3.1411243e-13
     28500   1397.6993      246.63762      1151.0617      300.87931      2446.909       1.0177122      4455.7805     -155.56        -4.6924513     -8.151139e-14  -7.511136e-14  -155.56        -3.132455e-13 
     28750   1411.2308      265.68051      1145.5503      324.1102       10234.665      1.0177122      4455.7805     -153.4535      -4.6924513     -8.1948582e-14 -7.5110231e-14 -153.4535      -3.1411763e-13
     29000   1401.2308      243.51721      1157.7135      297.07264      1886.6312      1.0177122      4455.7805     -153.98488     -4.6924513     -8.1781636e-14 -7.5111945e-14 -153.98488     -3.1378716e-13
     29250   1392.6529      238.87736      1153.7755      291.41238      5677.5556      1.0177122      4455.7805     -153.60781     -4.6924513     -8.1863673e-14 -7.5112173e-14 -153.60781     -3.1395169e-13
     29500   1400.566       249.77868      1150.7873      304.71117      5721.96        1.0177122      4455.7805     -155.24342     -4.6924513     -8.1573461e-14 -7.5111585e-14 -155.24342     -3.1337009e-13
     29750   1410.4037      238.49317      1171.9105      290.9437       6603.6552      1.0177122      4455.7805     -152.84474     -4.6924513     -8.1699974e-14 -7.511224e-14  -152.84474     -3.1362443e-13
     30000   1370.0397      234.15987      1135.8799      285.65739      7471.1778      1.0177122      4455.7805     -152.724       -4.6924513     -8.1780026e-14 -7.5113085e-14 -152.724       -3.1378622e-13
     30250   1384.4492      221.62821      1162.821       270.36971      9175.9999      1.0177122      4455.7805     -158.78005     -4.6924513     -8.1894439e-14 -7.5111148e-14 -158.78005     -3.1401118e-13
     30500   1398.215       255.59507      1142.62        311.80672      6830.9643      1.0177122      4455.7805     -155.00653     -4.6924513     -8.1638201e-14 -7.5113586e-14 -155.00653     -3.1350357e-13
     30750   1393.5001      240.29041      1153.2096      293.1362       12157.29       1.0177122      4455.7805     -155.5513      -4.6924513     -8.167207e-14  -7.5111847e-14 -155.5513      -3.1356783e-13
     31000   1390.7752      248.05243      1142.7228      302.60527      5648.9324      1.0177122      4455.7805     -157.66851     -4.6924513     -8.1936951e-14 -7.5113281e-14 -157.66851     -3.1410046e-13
     31250   1405.0839      238.21961      1166.8643      290.60997      2057.3627      1.0177122      4455.7805     -151.52035     -4.6924513     -8.1726916e-14 -7.5112369e-14 -151.52035     -3.1367857e-13
     31500   1419.3724      268.99029      1150.3821      328.14788      210.12349      1.0177122      4455.7805     -153.26057     -4.6924513     -8.1592498e-14 -7.5112839e-14 -153.26057     -3.1341067e-13
     31750   1429.7348      247.92189      1181.8129      302.44603      11933.735      1.0177122      4455.7805     -149.23337     -4.6924513     -8.204687e-14  -7.5111969e-14 -149.23337     -3.1431768e-13
     32000   1396.7391      242.6993       1154.0398      296.07485      4419.5486      1.0177122      4455.7805     -155.12972     -4.6924513     -8.1689334e-14 -7.5111273e-14 -155.12972     -3.1360121e-13
     32250   1391.5391      255.81587      1135.7232      312.07609      5820.4356      1.0177122      4455.7805     -157.10589     -4.6924513     -8.1608527e-14 -7.5112791e-14 -157.10589     -3.1344264e-13
     32500   1444.2439      253.59566      1190.6482      309.3676       5468.0531      1.0177122      4455.7805     -155.96103     -4.6924513     -8.1587112e-14 -7.5109828e-14 -155.96103     -3.1339388e-13
     32750   1389.704       252.63086      1137.0732      308.19061      6329.9166      1.0177122      4455.7805     -155.88564     -4.6924513     -8.1560742e-14 -7.5111687e-14 -155.88564     -3.1334486e-13
     33000   1394.0163      254.15309      1139.8632      310.04762      9042.4656      1.0177122      4455.7805     -155.1439      -4.6924513     -8.1855788e-14 -7.5110394e-14 -155.1439      -3.1393236e-13
     33250   1426.3844      263.46902      1162.9154      321.41235      4933.3275      1.0177122      4455.7805     -155.74683     -4.6924513     -8.1827658e-14 -7.5110713e-14 -155.74683     -3.1387674e-13
     33500   1421.3032      252.11369      1169.1895      307.5597       5282.266       1.0177122      4455.7805     -146.42987     -4.6924513     -8.1814427e-14 -7.5112389e-14 -146.42987     -3.1385363e-13
     33750   1399.8236      253.36723      1146.4563      309.08893      8107.844       1.0177122      4455.7805     -151.4946      -4.6924513     -8.1642858e-14 -7.5111638e-14 -151.4946      -3.1350899e-13
     34000   1400.631       243.85913      1156.7719      297.48976      5931.566       1.0177122      4455.7805     -150.30737     -4.6924513     -8.1606704e-14 -7.511162e-14  -150.30737     -3.1343665e-13
     34250   1390.3281      255.94857      1134.3796      312.23797      8101.332       1.0177122      4455.7805     -152.5398      -4.6924513     -8.1795215e-14 -7.5109494e-14 -152.5398      -3.1380942e-13
     34500   1416.6998      262.63072      1154.0691      320.38969      4875.0025      1.0177122      4455.7805     -143.94436     -4.6924513     -8.1691144e-14 -7.5109202e-14 -143.94436     -3.1360069e-13
     34750   1429.4701      279.61491      1149.8552      341.10912      5567.3683      1.0177122      4455.7805     -147.34652     -4.6924513     -8.1624209e-14 -7.5111809e-14 -147.34652     -3.1347204e-13
     35000   1386.0247      244.80295      1141.2218      298.64115      8023.4127      1.0177122      4455.7805     -147.203       -4.6924513     -8.2023047e-14 -7.5110963e-14 -147.203       -3.1426802e-13
     35250   1419.1393      264.63615      1154.5032      322.83617      4051.5792      1.0177122      4455.7805     -152.66625     -4.6924513     -8.1848934e-14 -7.5110034e-14 -152.66625     -3.1391794e-13
     35500   1413.9009      260.44463      1153.4562      317.72282      5060.1389      1.0177122      4455.7805     -147.32074     -4.6924513     -8.1312659e-14 -7.5109697e-14 -147.32074     -3.1284471e-13
     35750   1408.9966      244.47525      1164.5213      298.24138      10812.63       1.0177122      4455.7805     -147.17758     -4.6924513     -8.1531446e-14 -7.5111226e-14 -147.17758     -3.1328534e-13
     36000   1416.9194      231.56232      1185.3571      282.48858      14319.887      1.0177122      4455.7805     -147.38806     -4.6924513     -8.2023094e-14 -7.5112608e-14 -147.38806     -3.1427141e-13
     36250   1433.9757      264.03572      1169.94        322.10368      2736.9155      1.0177122      4455.7805     -150.84209     -4.6924513     -8.1568913e-14 -7.5109954e-14 -150.84209     -3.1335773e-13
     36500   1425.6142      265.08701      1160.5272      323.38618      7319.5682      1.0177122      4455.7805     -145.14759     -4.6924513     -8.1889108e-14 -7.5112866e-14 -145.14759     -3.1400395e-13
     36750   1395.9332      242.90248      1153.0307      296.32272      4075.5694      1.0177122      4455.7805     -150.05768     -4.6924513     -8.1683875e-14 -7.5107385e-14 -150.05768     -3.1358252e-13
     37000   1395.7613      246.90617      1148.8552      301.20692      4706.2403      1.0177122      4455.7805     -155.51885     -4.6924513     -8.160334e-14  -7.5112368e-14 -155.51885     -3.1343142e-13
     37250   1384.1725      228.24327      1155.9292      278.43958      4621.9867      1.0177122      4455.7805     -145.60591     -4.6924513     -8.161428e-14  -7.5107932e-14 -145.60591     -3.1344443e-13
     37500   1413.5007      241.81729      1171.6834      294.99887      7406.0463      1.0177122      4455.7805     -148.1698      -4.6924513     -8.131142e-14  -7.5113404e-14 -148.1698      -3.1284965e-13
     37750   1430.4564      255.83144      1174.6249      312.09508      8662.6592      1.0177122      4455.7805     -145.39708     -4.6924513     -8.188207e-14  -7.5108864e-14 -145.39708     -3.1398187e-13
     38000   1403.9722      243.75802      1160.2142      297.36641      7909.7052      1.0177122      4455.7805     -159.55729     -4.6924513     -8.1795637e-14 -7.511036e-14  -159.55729     -3.1381199e-13
     38250   1392.494       234.64587      1157.8482      286.25028      5884.5797      1.0177122      4455.7805     -152.03954     -4.6924513     -8.176305e-14  -7.5109686e-14 -152.03954     -3.1374547e-13
     38500   1389.6206      233.28655      1156.334       284.59201      1683.2162      1.0177122      4455.7805     -153.0484      -4.6924513     -8.1335787e-14 -7.5106971e-14 -153.0484      -3.1288552e-13
     38750   1388.1004      253.4976       1134.6028      309.24797      6416.7408      1.0177122      4455.7805     -148.39449     -4.6924513     -8.1899937e-14 -7.5110119e-14 -148.39449     -3.1402011e-13
     39000   1409.2173      240.3625       1168.8548      293.22413      3167.3002      1.0177122      4455.7805     -158.32031     -4.6924513     -8.1574012e-14 -7.5113379e-14 -158.32031     -3.1337478e-13
     39250   1402.2264      245.83828      1156.3881      299.90418      9769.0123      1.0177122      4455.7805     -147.62997     -4.6924513     -8.1914557e-14 -7.5113874e-14 -147.62997     -3.1405686e-13
     39500   1424.0038      266.29676      1157.707       324.86198      3518.3448      1.0177122      4455.7805     -158.26913     -4.6924513     -8.1498094e-14 -7.511168e-14  -158.26913     -3.1321955e-13
     39750   1431.1215      259.05696      1172.0646      316.02997      6118.2024      1.0177122      4455.7805     -146.58314     -4.6924513     -8.1564942e-14 -7.5111815e-14 -146.58314     -3.1335351e-13
     40000   1427.7592      263.08489      1164.6744      320.94374      6759.4718      1.0177122      4455.7805     -150.95017     -4.6924513     -8.1712381e-14 -7.5111429e-14 -150.95017     -3.1364762e-13
     40250   1382.3447      231.49155      1150.8532      282.40225      3872.9713      1.0177122      4455.7805     -150.19756     -4.6924513     -8.1765382e-14 -7.5109992e-14 -150.19756     -3.1375075e-13
     40500   1410.587       272.72366      1137.8634      332.70232      6339.0295      1.0177122      4455.7805     -151.14364     -4.6924513     -8.1287636e-14 -7.5108711e-14 -151.14364     -3.1279269e-13
     40750   1404.7429      245.00016      1159.7427      298.88174      9771.2832      1.0177122      4455.7805     -150.8613      -4.6924513     -8.1663012e-14 -7.5110887e-14 -150.8613      -3.135478e-13 
     41000   1397.2634      258.30602      1138.9573      315.11388      5749.4587      1.0177122      4455.7805     -149.39437     -4.6924513     -8.1653404e-14 -7.5111063e-14 -149.39437     -3.1352893e-13
     41250   1396.0178      248.80588      1147.2119      303.52443      9542.4821      1.0177122      4455.7805     -148.67103     -4.6924513     -8.1847157e-14 -7.5108188e-14 -148.67103     -3.1391069e-13
     41500   1383.1565      237.86936      1145.2871      290.18269      7902.1503      1.0177122      4455.7805     -152.02744     -4.6924513     -8.1882666e-14 -7.5109204e-14 -152.02744     -3.1398374e-13
     41750   1422.7756      261.92808      1160.8476      319.53252      8299.6072      1.0177122      4455.7805     -151.52063     -4.6924513     -8.1619169e-14 -7.5110159e-14 -151.52063     -3.1345866e-13
     42000   1402.3235      241.32189      1161.0016      294.39451      6516.1593      1.0177122      4455.7805     -149.95541     -4.6924513     -8.1754308e-14 -7.5112263e-14 -149.95541     -3.1373314e-13
     42250   1419.8822      253.78115      1166.101       309.59387      4820.3423      1.0177122      4455.7805     -151.33273     -4.6924513     -8.1545251e-14 -7.5111928e-14 -151.33273     -3.1331436e-13
     42500   1442.9333      271.00746      1171.9258      330.60868      4913.0792      1.0177122      4455.7805     -151.03425     -4.6924513     -8.1366574e-14 -7.5112907e-14 -151.03425     -3.1295896e-13
     42750   1421.6612      263.79366      1157.8675      321.80838      9756.2213      1.0177122      4455.7805     -154.50641     -4.6924513     -8.1862914e-14 -7.5111346e-14 -154.50641     -3.1394852e-13
     43000   1456.2129      275.49906      1180.7139      336.0881       3612.2298      1.0177122      4455.7805     -153.18609     -4.6924513     -8.1798229e-14 -7.5112002e-14 -153.18609     -3.1382046e-13
     43250   1409.9102      249.45509      1160.4551      304.31641      10450.871      1.0177122      4455.7805     -144.16261     -4.6924513     -8.2046955e-14 -7.5108075e-14 -144.16261     -3.1431006e-13
     43500   1417.8199      264.39732      1153.4226      322.5448       4433.1981      1.0177122      4455.7805     -153.1312      -4.6924513     -8.1425668e-14 -7.5112458e-14 -153.1312      -3.1307625e-13
     43750   1361.0013      237.64225      1123.359       289.90564      11002.057      1.0177122      4455.7805     -156.3915      -4.6924513     -8.1668915e-14 -7.5109774e-14 -156.3915      -3.1355738e-13
     44000   1422.7756      256.6911       1166.0845      313.1438       12989.42       1.0177122      4455.7805     -147.99168     -4.6924513     -8.1870814e-14 -7.5110142e-14 -147.99168     -3.1396191e-13
     44250   1413.2268      254.71394      1158.5129      310.73182      6308.4342      1.0177122      4455.7805     -151.27037     -4.6924513     -8.1634483e-14 -7.5110699e-14 -151.27037     -3.1349037e-13
     44500   1399.545       256.28457      1143.2604      312.64786      4000.3437      1.0177122      4455.7805     -151.98892     -4.6924513     -8.1576505e-14 -7.5112397e-14 -151.98892     -3.133778e-13 
     44750   1379.853       241.57085      1138.2821      294.69824      6874.7432      1.0177122      4455.7805     -147.73174     -4.6924513     -8.181799e-14  -7.5112864e-14 -147.73174     -3.1386171e-13
     45000   1380.1938      233.90725      1146.2866      285.34921      3821.2009      1.0177122      4455.7805     -147.49148     -4.6924513     -8.1461252e-14 -7.5111791e-14 -147.49148     -3.1314609e-13
     45250   1416.653       245.65162      1171.0014      299.67647      7436.445       1.0177122      4455.7805     -146.14603     -4.6924513     -8.1540215e-14 -7.511104e-14  -146.14603     -3.1330251e-13
     45500   1381.8824      236.70878      1145.1736      288.76687      5853.5428      1.0177122      4455.7805     -147.90617     -4.6924513     -8.1515572e-14 -7.5112255e-14 -147.90617     -3.1325565e-13
     45750   1419.4336      246.72501      1172.7086      300.98592      8118.3751      1.0177122      4455.7805     -154.99532     -4.6924513     -8.1896731e-14 -7.5109167e-14 -154.99532     -3.140118e-13 
     46000   1384.109       230.52245      1153.5865      281.22002      3160.4366      1.0177122      4455.7805     -146.71799     -4.6924513     -8.189302e-14  -7.5111214e-14 -146.71799     -3.1400847e-13
     46250   1411.2128      268.3088       1142.904       327.31651      5101.3331      1.0177122      4455.7805     -155.39496     -4.6924513     -8.1534024e-14 -7.5111489e-14 -155.39496     -3.1329103e-13
     46500   1415.0237      279.00665      1136.0171      340.36709      6240.2557      1.0177122      4455.7805     -153.42273     -4.6924513     -8.1743697e-14 -7.5111645e-14 -153.42273     -3.1371068e-13
     46750   1436.6738      275.19297      1161.4809      335.71469      7902.3783      1.0177122      4455.7805     -147.39467     -4.6924513     -8.1670429e-14 -7.5112692e-14 -147.39467     -3.1356624e-13
     47000   1402.375       243.66191      1158.7131      297.24917      8843.6232      1.0177122      4455.7805     -146.97515     -4.6924513     -8.2014448e-14 -7.5110907e-14 -146.97515     -3.1425071e-13
     47250   1406.5957      237.33431      1169.2614      289.52997      7612.0282      1.0177122      4455.7805     -153.42872     -4.6924513     -8.1756471e-14 -7.5110622e-14 -153.42872     -3.1373419e-13
     47500   1412.541       248.94253      1163.5985      303.69113      6402.2047      1.0177122      4455.7805     -146.1389      -4.6924513     -8.1520249e-14 -7.5112914e-14 -146.1389      -3.1326633e-13
     47750   1423.5811      255.1784       1168.4027      311.29842      10307.477      1.0177122      4455.7805     -150.86339     -4.6924513     -8.1804245e-14 -7.511058e-14  -150.86339     -3.1382965e-13
     48000   1390.7096      239.88522      1150.8244      292.64189      9507.8132      1.0177122      4455.7805     -150.79331     -4.6924513     -8.2000656e-14 -7.5109419e-14 -150.79331     -3.1422015e-13
     48250   1410.8577      252.38582      1158.4718      307.89168      6819.4694      1.0177122      4455.7805     -160.03984     -4.6924513     -8.154015e-14  -7.5112009e-14 -160.03984     -3.1330432e-13
     48500   1404.3077      245.43132      1158.8764      299.40771      6121.178       1.0177122      4455.7805     -153.53796     -4.6924513     -8.1751494e-14 -7.5110799e-14 -153.53796     -3.1372459e-13
     48750   1405.5041      253.33992      1152.1642      309.05562      5672.4219      1.0177122      4455.7805     -149.64211     -4.6924513     -8.1694974e-14 -7.5111e-14    -149.64211     -3.1361195e-13
     49000   1416.2189      245.84623      1170.3727      299.91387      6691.7871      1.0177122      4455.7805     -153.47757     -4.6924513     -8.1907629e-14 -7.5111738e-14 -153.47757     -3.1403873e-13
     49250   1422.2725      261.95035      1160.3222      319.55969      3076.5605      1.0177122      4455.7805     -147.1236      -4.6924513     -8.1695993e-14 -7.5113382e-14 -147.1236      -3.1361875e-13
     49500   1419.2887      263.106        1156.1827      320.96949      10624.506      1.0177122      4455.7805     -149.12738     -4.6924513     -8.171432e-14  -7.5108387e-14 -149.12738     -3.1364541e-13
     49750   1425.7554      269.85702      1155.8983      329.20523      8971.2138      1.0177122      4455.7805     -144.15259     -4.6924513     -8.1724265e-14 -7.5107418e-14 -144.15259     -3.1366337e-13
     50000   1404.3743      257.60168      1146.7726      314.25464      5965.7141      1.0177122      4455.7805     -149.29481     -4.6924513     -8.1658718e-14 -7.510993e-14  -149.29481     -3.135373e-13 
     50250   1414.6172      253.24545      1161.3718      308.94036      6631.781       1.0177122      4455.7805     -151.22247     -4.6924513     -8.1713523e-14 -7.5112871e-14 -151.22247     -3.1365279e-13
     50500   1400.5743      251.69798      1148.8763      307.05256      11276.82       1.0177122      4455.7805     -149.17741     -4.6924513     -8.1782902e-14 -7.5112214e-14 -149.17741     -3.1379023e-13
     50750   1426.097       263.81943      1162.2776      321.83982      5297.4105      1.0177122      4455.7805     -152.39521     -4.6924513     -8.1649638e-14 -7.5111117e-14 -152.39521     -3.1352151e-13
     51000   1422.765       276.35091      1146.4141      337.12729      7019.0296      1.0177122      4455.7805     -148.48211     -4.6924513     -8.1537965e-14 -7.5112069e-14 -148.48211     -3.1330007e-13
     51250   1400.9448      243.49299      1157.4518      297.0431       8043.0919      1.0177122      4455.7805     -156.37924     -4.6924513     -8.1438821e-14 -7.5111486e-14 -156.37924     -3.1310061e-13
     51500   1377.7572      228.57603      1149.1812      278.84554      7494.0598      1.0177122      4455.7805     -149.15697     -4.6924513     -8.1755524e-14 -7.5111774e-14 -149.15697     -3.137346e-13 
     51750   1413.2462      255.05929      1158.1869      311.15312      6543.1833      1.0177122      4455.7805     -147.45544     -4.6924513     -8.1705275e-14 -7.5112148e-14 -147.45544     -3.1363485e-13
     52000   1420.7731      257.22823      1163.5449      313.79906      3675.2029      1.0177122      4455.7805     -153.13474     -4.6924513     -8.1529526e-14 -7.5112489e-14 -153.13474     -3.1328403e-13
     52250   1407.4777      255.35368      1152.1241      311.51225      9344.383       1.0177122      4455.7805     -157.01976     -4.6924513     -8.1992158e-14 -7.5111504e-14 -157.01976     -3.1420732e-13
     52500   1426.343       243.68945      1182.6536      297.28276      6289.0561      1.0177122      4455.7805     -155.61199     -4.6924513     -8.1536692e-14 -7.5113066e-14 -155.61199     -3.1329952e-13
     52750   1413.1266      260.52648      1152.6001      317.82268      5993.2549      1.0177122      4455.7805     -154.21009     -4.6924513     -8.1579294e-14 -7.5111481e-14 -154.21009     -3.1338155e-13
     53000   1380.6485      235.72208      1144.9265      287.56318      7861.7216      1.0177122      4455.7805     -154.10911     -4.6924513     -8.1737997e-14 -7.5113193e-14 -154.10911     -3.1370238e-13
     53250   1383.0495      238.92652      1144.123       291.47235      5611.905       1.0177122      4455.7805     -142.22381     -4.6924513     -8.2060358e-14 -7.5110849e-14 -142.22381     -3.1434241e-13
     53500   1390.7967      241.67921      1149.1175      294.83043      5269.0836      1.0177122      4455.7805     -153.45197     -4.6924513     -8.1649599e-14 -7.5110411e-14 -153.45197     -3.1352002e-13
     53750   1417.578       259.51384      1158.0642      316.58733      4697.4478      1.0177122      4455.7805     -155.89982     -4.6924513     -8.1593051e-14 -7.5112921e-14 -155.89982     -3.1341194e-13
     54000   1408.2154      238.7354       1169.48        291.23919      3429.2141      1.0177122      4455.7805     -159.8085      -4.6924513     -8.135293e-14  -7.5112496e-14 -159.8085      -3.1293085e-13
     54250   1410.1051      253.76797      1156.3371      309.5778       3555.1418      1.0177122      4455.7805     -152.23933     -4.6924513     -8.1672134e-14 -7.5109596e-14 -152.23933     -3.1356346e-13
     54500   1393.9936      245.00415      1148.9895      298.8866       3431.064       1.0177122      4455.7805     -153.55871     -4.6924513     -8.1593153e-14 -7.5109565e-14 -153.55871     -3.1340543e-13
     54750   1434.2342      256.99919      1177.235       313.51964      10046.896      1.0177122      4455.7805     -152.26232     -4.6924513     -8.1814068e-14 -7.5108096e-14 -152.26232     -3.1384433e-13
     55000   1402.519       242.04196      1160.477       295.27295      12291.064      1.0177122      4455.7805     -151.69996     -4.6924513     -8.1829897e-14 -7.5109521e-14 -151.69996     -3.1387884e-13
     55250   1440.243       273.63778      1166.6053      333.81747      8016.4296      1.0177122      4455.7805     -153.78789     -4.6924513     -8.2059816e-14 -7.5110575e-14 -153.78789     -3.1434078e-13
     55500   1400.0184      247.31028      1152.7081      301.69991      1520.7787      1.0177122      4455.7805     -159.86352     -4.6924513     -8.1562511e-14 -7.5110235e-14 -159.86352     -3.1334549e-13
     55750   1416.4677      274.42493      1142.0428      334.77773      4142.1195      1.0177122      4455.7805     -158.4319      -4.6924513     -8.1305719e-14 -7.5111232e-14 -158.4319      -3.128339e-13 
     56000   1426.3748      264.23703      1162.1378      322.34926      7450.89        1.0177122      4455.7805     -149.77599     -4.6924513     -8.1578949e-14 -7.5110679e-14 -149.77599     -3.1337926e-13
     56250   1372.3927      229.0017       1143.391       279.36482      11314.349      1.0177122      4455.7805     -159.82845     -4.6924513     -8.173601e-14  -7.5109799e-14 -159.82845     -3.1369162e-13
     56500   1412.2872      247.07551      1165.2117      301.4135       1814.4304      1.0177122      4455.7805     -149.65084     -4.6924513     -8.1430138e-14 -7.5110342e-14 -149.65084     -3.1308096e-13
     56750   1378.6062      224.5395       1154.0667      273.92127      11257.601      1.0177122      4455.7805     -146.22991     -4.6924513     -8.1511252e-14 -7.5110929e-14 -146.22991     -3.1324436e-13
     57000   1403.8686      251.29607      1152.5725      306.56226      5999.923       1.0177122      4455.7805     -153.58586     -4.6924513     -8.1612325e-14 -7.5111751e-14 -153.58586     -3.1344815e-13
     57250   1407.0951      253.88066      1153.2145      309.71528      5044.0548      1.0177122      4455.7805     -153.20159     -4.6924513     -8.1688903e-14 -7.5112478e-14 -153.20159     -3.1360276e-13
     57500   1420.85        249.24128      1171.6087      304.05558      9461.4561      1.0177122      4455.7805     -148.6448      -4.6924513     -8.1566937e-14 -7.5111621e-14 -148.6448      -3.1335712e-13
     57750   1397.6277      227.03816      1170.5895      276.96944      3903.619       1.0177122      4455.7805     -151.08802     -4.6924513     -8.1620875e-14 -7.5112337e-14 -151.08802     -3.1346642e-13
     58000   1370.3995      234.14982      1136.2497      285.64514      4407.8943      1.0177122      4455.7805     -148.39609     -4.6924513     -8.1501874e-14 -7.5108996e-14 -148.39609     -3.1322174e-13
     58250   1354.0979      210.09922      1143.9987      256.30522      7109.0026      1.0177122      4455.7805     -158.61623     -4.6924513     -8.1726616e-14 -7.5109329e-14 -158.61623     -3.1367189e-13
     58500   1393.5147      247.80891      1145.7058      302.30819      5898.8811      1.0177122      4455.7805     -150.94174     -4.6924513     -8.1421077e-14 -7.5112592e-14 -150.94174     -3.1306734e-13
     58750   1429.2714      262.35626      1166.9151      320.05487      10297.157      1.0177122      4455.7805     -147.13023     -4.6924513     -8.181523e-14  -7.5112154e-14 -147.13023     -3.1385477e-13
     59000   1410.3634      250.40823      1159.9552      305.47917      4009.2563      1.0177122      4455.7805     -154.1454      -4.6924513     -8.1692485e-14 -7.5112237e-14 -154.1454      -3.1360944e-13
     59250   1388.6919      238.12         1150.5719      290.48846      7471.6334      1.0177122      4455.7805     -147.2866      -4.6924513     -8.1645791e-14 -7.5112057e-14 -147.2866      -3.135157e-13 
     59500   1401.5119      259.46769      1142.0442      316.53103      7503.3238      1.0177122      4455.7805     -152.90494     -4.6924513     -8.1827024e-14 -7.5109167e-14 -152.90494     -3.1387238e-13
     59750   1397.8206      238.85221      1158.9683      291.3817       7630.0979      1.0177122      4455.7805     -161.36555     -4.6924513     -8.1659922e-14 -7.5112749e-14 -161.36555     -3.1354534e-13
     60000   1387.5721      237.01863      1150.5535      289.14487      6951.3364      1.0177122      4455.7805     -148.89938     -4.6924513     -8.1624598e-14 -7.5109189e-14 -148.89938     -3.1346757e-13
     60250   1430.0777      262.02609      1168.0516      319.65208      9304.4433      1.0177122      4455.7805     -144.89403     -4.6924513     -8.182834e-14  -7.5109964e-14 -144.89403     -3.1387661e-13
     60500   1415.938       262.11971      1153.8183      319.76629      10935.841      1.0177122      4455.7805     -151.04993     -4.6924513     -8.1965464e-14 -7.5111712e-14 -151.04993     -3.1415435e-13
     60750   1406.1282      258.26727      1147.8609      315.0666       6044.7512      1.0177122      4455.7805     -147.42065     -4.6924513     -8.2000456e-14 -7.511061e-14  -147.42065     -3.1422213e-13
     61000   1423.7113      248.19134      1175.5199      302.77473      4315.925       1.0177122      4455.7805     -158.07449     -4.6924513     -8.1866588e-14 -7.5110557e-14 -158.07449     -3.1395429e-13
     61250   1392.954       245.79439      1147.1597      299.85063      4661.7588      1.0177122      4455.7805     -150.1261      -4.6924513     -8.1891706e-14 -7.511338e-14  -150.1261      -3.1401017e-13
     61500   1401.0972      253.38709      1147.7101      309.11316      9576.5513      1.0177122      4455.7805     -148.95737     -4.6924513     -8.2118817e-14 -7.5111911e-14 -148.95737     -3.1446146e-13
     61750   1407.5031      257.31329      1150.1898      313.90282      2936.8856      1.0177122      4455.7805     -151.6237      -4.6924513     -8.1618585e-14 -7.5110672e-14 -151.6237      -3.1345851e-13
     62000   1416.2262      265.55411      1150.6721      323.956        5087.8379      1.0177122      4455.7805     -154.9801      -4.6924513     -8.1461504e-14 -7.51067e-14   -154.9801      -3.1313641e-13
     62250   1437.7175      262.168        1175.5495      319.82521      6332.1746      1.0177122      4455.7805     -158.76058     -4.6924513     -8.1537019e-14 -7.5110007e-14 -158.76058     -3.1329405e-13
     62500   1415.5893      253.25439      1162.3349      308.95127      8802.7095      1.0177122      4455.7805     -152.78167     -4.6924513     -8.2271891e-14 -7.5109595e-14 -152.78167     -3.1476297e-13
     62750   1431.5328      258.44855      1173.0843      315.28775      2768.788       1.0177122      4455.7805     -145.8867      -4.6924513     -8.178951e-14  -7.5112378e-14 -145.8867      -3.1380378e-13
     63000   1405.3631      252.54976      1152.8134      308.09168      8394.1371      1.0177122      4455.7805     -150.04557     -4.6924513     -8.1603229e-14 -7.5112056e-14 -150.04557     -3.1343057e-13
     63250   1402.1643      237.89048      1164.2739      290.20846      7272.5087      1.0177122      4455.7805     -146.82027     -4.6924513     -8.1570532e-14 -7.5109364e-14 -146.82027     -3.1335979e-13
     63500   1402.1719      242.76668      1159.4053      296.15705      4429.6788      1.0177122      4455.7805     -154.93346     -4.6924513     -8.1607938e-14 -7.5111205e-14 -154.93346     -3.1343829e-13
     63750   1408.7387      245.37962      1163.3591      299.34464      7441.9674      1.0177122      4455.7805     -155.65484     -4.6924513     -8.1760876e-14 -7.5109611e-14 -155.65484     -3.1374097e-13
     64000   1382.3415      248.87212      1133.4694      303.60523      5652.6359      1.0177122      4455.7805     -152.72537     -4.6924513     -8.1558068e-14 -7.5111044e-14 -152.72537     -3.1333822e-13
     64250   1377.4802      235.87988      1141.6003      287.75568      4488.2998      1.0177122      4455.7805     -157.79462     -4.6924513     -8.1517582e-14 -7.5110751e-14 -157.79462     -3.1325667e-13
     64500   1368.2651      228.68067      1139.5844      278.97319      4580.8549      1.0177122      4455.7805     -147.73412     -4.6924513     -8.1806919e-14 -7.5111106e-14 -147.73412     -3.1383605e-13
     64750   1369.1653      239.04332      1130.1219      291.61484      4505.8747      1.0177122      4455.7805     -154.05756     -4.6924513     -8.1846928e-14 -7.5109604e-14 -154.05756     -3.1391306e-13
     65000   1406.4208      249.24253      1157.1782      304.0571       9276.2202      1.0177122      4455.7805     -150.76097     -4.6924513     -8.1738559e-14 -7.5110737e-14 -150.76097     -3.1369859e-13
     65250   1388.8939      260.84472      1128.0491      318.21091      4420.9673      1.0177122      4455.7805     -149.4197      -4.6924513     -8.1622024e-14 -7.5110739e-14 -149.4197      -3.1346553e-13
     65500   1402.8365      248.14238      1154.6941      302.715        11797.914      1.0177122      4455.7805     -150.90063     -4.6924513     -8.1755329e-14 -7.5110725e-14 -150.90063     -3.1373211e-13
     65750   1401.0961      245.44658      1155.6495      299.42633      3777.3586      1.0177122      4455.7805     -151.51599     -4.6924513     -8.1908861e-14 -7.510963e-14  -151.51599     -3.1403698e-13
     66000   1390.8036      246.07706      1144.7265      300.19546      3867.4605      1.0177122      4455.7805     -147.07164     -4.6924513     -8.1754499e-14 -7.5110403e-14 -147.07164     -3.137298e-13 
     66250   1402.3074      244.02963      1158.2778      297.69776      4845.9627      1.0177122      4455.7805     -147.44598     -4.6924513     -8.1743165e-14 -7.5110051e-14 -147.44598     -3.1370643e-13
     66500   1422.4329      263.96731      1158.4656      322.02023      9661.2036      1.0177122      4455.7805     -149.50128     -4.6924513     -8.1855676e-14 -7.5111599e-14 -149.50128     -3.1393455e-13
     66750   1399.8494      236.69365      1163.1557      288.74842      3305.6815      1.0177122      4455.7805     -150.99481     -4.6924513     -8.1835022e-14 -7.5109658e-14 -150.99481     -3.1388936e-13
     67000   1394.8434      244.33032      1150.5131      298.06458      9796.6253      1.0177122      4455.7805     -152.90545     -4.6924513     -8.1964393e-14 -7.5113019e-14 -152.90545     -3.1415483e-13
     67250   1381.3738      238.8846       1142.4892      291.42121      3987.4131      1.0177122      4455.7805     -148.3417      -4.6924513     -8.1790868e-14 -7.5110979e-14 -148.3417      -3.1380369e-13
     67500   1405.8801      251.33056      1154.5495      306.60435      10057.689      1.0177122      4455.7805     -153.65875     -4.6924513     -8.1628568e-14 -7.5110173e-14 -153.65875     -3.1347748e-13
     67750   1384.1572      232.07668      1152.0805      283.11606      576.77395      1.0177122      4455.7805     -150.72893     -4.6924513     -8.1683012e-14 -7.5110698e-14 -150.72893     -3.1358742e-13
     68000   1357.4046      227.72681      1129.6778      277.80955      8822.7922      1.0177122      4455.7805     -159.12716     -4.6924513     -8.1788627e-14 -7.5110657e-14 -159.12716     -3.1379857e-13
     68250   1388.6363      237.54167      1151.0946      289.78293      5995.2422      1.0177122      4455.7805     -147.88263     -4.6924513     -8.174392e-14  -7.5110452e-14 -147.88263     -3.1370874e-13
     68500   1401.0938      247.55203      1153.5418      301.99482      9281.4695      1.0177122      4455.7805     -154.20814     -4.6924513     -8.1693695e-14 -7.5108493e-14 -154.20814     -3.1360438e-13
     68750   1367.5606      227.32012      1140.2405      277.31341      6169.7254      1.0177122      4455.7805     -148.39767     -4.6924513     -8.1572757e-14 -7.5111747e-14 -148.39767     -3.1336901e-13
     69000   1424.8046      268.55763      1156.2469      327.62007      869.00459      1.0177122      4455.7805     -151.05973     -4.6924513     -8.1794889e-14 -7.5112162e-14 -151.05973     -3.138141e-13 
     69250   1380.5257      232.96394      1147.5618      284.19845      3586.5633      1.0177122      4455.7805     -146.81157     -4.6924513     -8.1954305e-14 -7.5109799e-14 -146.81157     -3.1412821e-13
     69500   1420.6009      250.96132      1169.6396      306.1539       8325.5213      1.0177122      4455.7805     -150.73756     -4.6924513     -8.1516611e-14 -7.5112523e-14 -150.73756     -3.1325827e-13
     69750   1416.2883      252.10298      1164.1853      307.54664      15841.806      1.0177122      4455.7805     -143.58144     -4.6924513     -8.2010529e-14 -7.511256e-14  -143.58144     -3.1424618e-13
     70000   1387.2645      248.78443      1138.48        303.49826      6888.2654      1.0177122      4455.7805     -158.98813     -4.6924513     -8.1648672e-14 -7.510613e-14  -158.98813     -3.135096e-13 
     70250   1382.4828      233.34361      1149.1391      284.66163      6300.603       1.0177122      4455.7805     -150.01392     -4.6924513     -8.1639451e-14 -7.5107979e-14 -150.01392     -3.1349486e-13
     70500   1413.9391      253.71474      1160.2243      309.51286      8153.5164      1.0177122      4455.7805     -143.67276     -4.6924513     -8.1840549e-14 -7.5104753e-14 -143.67276     -3.1389061e-13
     70750   1408.4838      253.55102      1154.9328      309.31313      7718.3849      1.0177122      4455.7805     -157.79271     -4.6924513     -8.161892e-14  -7.5110695e-14 -157.79271     -3.1345923e-13
     71000   1395.0584      247.88626      1147.1722      302.40256      2392.3598      1.0177122      4455.7805     -150.18367     -4.6924513     -8.1257377e-14 -7.510998e-14  -150.18367     -3.1273471e-13
     71250   1381.8611      243.64881      1138.2123      297.23318      10222.47       1.0177122      4455.7805     -148.74566     -4.6924513     -8.1799801e-14 -7.5108205e-14 -148.74566     -3.1381601e-13
     71500   1401.6438      262.51899      1139.1248      320.25338      6808.5687      1.0177122      4455.7805     -152.05644     -4.6924513     -8.1797088e-14 -7.5112975e-14 -152.05644     -3.1382013e-13
     71750   1408.3342      244.69304      1163.6412      298.50707      4871.0306      1.0177122      4455.7805     -151.38409     -4.6924513     -8.1697022e-14 -7.5113293e-14 -151.38409     -3.1362063e-13
     72000   1404.9324      253.32872      1151.6037      309.04195      7543.0881      1.0177122      4455.7805     -155.82536     -4.6924513     -8.1787911e-14 -7.5112283e-14 -155.82536     -3.1380039e-13
     72250   1406.8044      239.2317       1167.5727      291.84464      5199.5122      1.0177122      4455.7805     -148.76007     -4.6924513     -8.1663055e-14 -7.5112398e-14 -148.76007     -3.1355091e-13
     72500   1401.9071      252.91776      1148.9894      308.54061      6520.7444      1.0177122      4455.7805     -151.4697      -4.6924513     -8.1590381e-14 -7.5112061e-14 -151.4697      -3.1340488e-13
     72750   1397.7368      252.23721      1145.4996      307.71038      9636.5743      1.0177122      4455.7805     -150.2715      -4.6924513     -8.1763465e-14 -7.5109912e-14 -150.2715      -3.1374675e-13
     73000   1421.7446      264.86229      1156.8823      323.11204      8573.6985      1.0177122      4455.7805     -154.02938     -4.6924513     -8.1867515e-14 -7.5113531e-14 -154.02938     -3.1396209e-13
     73250   1397.9992      237.45406      1160.5451      289.67606      7350.5334      1.0177122      4455.7805     -143.92112     -4.6924513     -8.2067869e-14 -7.5112998e-14 -143.92112     -3.1436173e-13
     73500   1411.4572      252.77963      1158.6775      308.3721       5443.944       1.0177122      4455.7805     -156.72812     -4.6924513     -8.1625393e-14 -7.5107492e-14 -156.72812     -3.1346577e-13
     73750   1410.7469      264.92892      1145.8179      323.19332      4411.5709      1.0177122      4455.7805     -154.20553     -4.6924513     -8.1527037e-14 -7.5110276e-14 -154.20553     -3.1327463e-13
     74000   1393.6665      242.40951      1151.257       295.72134      10471.14       1.0177122      4455.7805     -158.86344     -4.6924513     -8.1484999e-14 -7.5111928e-14 -158.86344     -3.1319385e-13
     74250   1395.9918      235.97882      1160.013       287.87638      2889.29        1.0177122      4455.7805     -144.97146     -4.6924513     -8.1501956e-14 -7.5111903e-14 -144.97146     -3.1322772e-13
     74500   1388.3932      246.0993       1142.2939      300.2226       6800.6717      1.0177122      4455.7805     -147.96062     -4.6924513     -8.1602351e-14 -7.5109353e-14 -147.96062     -3.1342341e-13
     74750   1418.7058      264.12008      1154.5857      322.20659      8141.8436      1.0177122      4455.7805     -144.89372     -4.6924513     -8.1877314e-14 -7.5110535e-14 -144.89372     -3.139757e-13 
     75000   1380.3766      219.26863      1161.1079      267.49121      3259.0509      1.0177122      4455.7805     -150.11772     -4.6924513     -8.1493e-14    -7.511062e-14  -150.11772     -3.1320724e-13
     75250   1410.1777      249.63126      1160.5465      304.53132      10370.056      1.0177122      4455.7805     -152.5148      -4.6924513     -8.2120111e-14 -7.5111216e-14 -152.5148      -3.1446266e-13
     75500   1398.9762      252.36947      1146.6067      307.87173      6258.8288      1.0177122      4455.7805     -157.95965     -4.6924513     -8.1544825e-14 -7.5112376e-14 -157.95965     -3.133144e-13 
     75750   1392.7667      240.9651       1151.8016      293.95926      7534.9646      1.0177122      4455.7805     -154.24681     -4.6924513     -8.1723282e-14 -7.5110746e-14 -154.24681     -3.1366806e-13
     76000   1427.8471      266.81942      1161.0277      325.49958      9325.1246      1.0177122      4455.7805     -149.01366     -4.6924513     -8.158299e-14  -7.5112774e-14 -149.01366     -3.1339153e-13
     76250   1423.0823      244.6321       1178.4502      298.43272      206.91807      1.0177122      4455.7805     -154.5348      -4.6924513     -8.1694174e-14 -7.51066e-14   -154.5348      -3.1360155e-13
     76500   1415.0247      262.05509      1152.9696      319.68746      6254.7448      1.0177122      4455.7805     -155.96366     -4.6924513     -8.1738963e-14 -7.5110862e-14 -155.96366     -3.1369965e-13
     76750   1416.0809      260.95248      1155.1284      318.34236      6107.21        1.0177122      4455.7805     -153.96983     -4.6924513     -8.1661923e-14 -7.5112376e-14 -153.96983     -3.135486e-13 
     77000   1423.0055      264.40597      1158.5995      322.55535      5479.7939      1.0177122      4455.7805     -158.40627     -4.6924513     -8.1722498e-14 -7.5110352e-14 -158.40627     -3.136657e-13 
     77250   1388.6456      236.55168      1152.0939      288.57522      8655.1521      1.0177122      4455.7805     -144.88556     -4.6924513     -8.1851024e-14 -7.5111638e-14 -144.88556     -3.1392532e-13
     77500   1392.9114      247.02224      1145.8891      301.34852      6845.583       1.0177122      4455.7805     -145.7833      -4.6924513     -8.1706553e-14 -7.5108797e-14 -145.7833      -3.136307e-13 
     77750   1418.3377      245.79299      1172.5448      299.84893      2212.4935      1.0177122      4455.7805     -155.55585     -4.6924513     -8.1576591e-14 -7.5109793e-14 -155.55585     -3.1337277e-13
     78000   1396.3286      249.93242      1146.3962      304.89871      10771.925      1.0177122      4455.7805     -145.89172     -4.6924513     -8.1722484e-14 -7.511013e-14  -145.89172     -3.1366523e-13
     78250   1406.2211      255.86571      1150.3554      312.13689      4872.1444      1.0177122      4455.7805     -145.0695      -4.6924513     -8.1760392e-14 -7.511153e-14  -145.0695      -3.1374384e-13
     78500   1442.5185      279.11632      1163.4022      340.50087      7952.513       1.0177122      4455.7805     -150.41278     -4.6924513     -8.1481506e-14 -7.5109723e-14 -150.41278     -3.1318246e-13
     78750   1403.1817      264.40055      1138.7812      322.54874      7225.4738      1.0177122      4455.7805     -157.60671     -4.6924513     -8.1766568e-14 -7.5112198e-14 -157.60671     -3.1375753e-13
     79000   1400.9064      239.05902      1161.8473      291.63399      6756.4815      1.0177122      4455.7805     -150.10111     -4.6924513     -8.1849639e-14 -7.5110548e-14 -150.10111     -3.1392037e-13
     79250   1421.9052      254.18486      1167.7203      310.08638      4961.6812      1.0177122      4455.7805     -152.3168      -4.6924513     -8.1687165e-14 -7.5112426e-14 -152.3168      -3.1359918e-13
     79500   1392.7311      247.93984      1144.7913      302.46792      7691.9183      1.0177122      4455.7805     -157.41708     -4.6924513     -8.1685702e-14 -7.5108281e-14 -157.41708     -3.1358797e-13
     79750   1400.7973      243.30636      1157.4909      296.81542      7519.8077      1.0177122      4455.7805     -149.47228     -4.6924513     -8.133868e-14  -7.5111966e-14 -149.47228     -3.1290129e-13
     80000   1407.8077      259.65185      1148.1559      316.75569      5726.6445      1.0177122      4455.7805     -150.59393     -4.6924513     -8.1510661e-14 -7.5111589e-14 -150.59393     -3.132445e-13 
     80250   1420.2584      263.18984      1157.0686      321.07177      7471.8571      1.0177122      4455.7805     -153.60823     -4.6924513     -8.1859365e-14 -7.5112524e-14 -153.60823     -3.1394378e-13
     80500   1400.2035      242.16437      1158.0391      295.42228      3878.7667      1.0177122      4455.7805     -142.36731     -4.6924513     -8.1730866e-14 -7.5112416e-14 -142.36731     -3.1368656e-13
     80750   1414.0751      245.24127      1168.8339      299.17587      4319.3741      1.0177122      4455.7805     -159.39604     -4.6924513     -8.1495059e-14 -7.5108481e-14 -159.39604     -3.1320708e-13
     81000   1393.72        244.80529      1148.9147      298.64401      5987.6322      1.0177122      4455.7805     -155.33462     -4.6924513     -8.1371846e-14 -7.5111411e-14 -155.33462     -3.1296651e-13
     81250   1430.9438      251.37871      1179.5651      306.66309      10457.314      1.0177122      4455.7805     -143.74316     -4.6924513     -8.1987789e-14 -7.5111764e-14 -143.74316     -3.1419911e-13
     81500   1418.6758      254.22946      1164.4463      310.14078      7929.611       1.0177122      4455.7805     -155.74124     -4.6924513     -8.1672636e-14 -7.5105603e-14 -155.74124     -3.1355648e-13
     81750   1427.7697      263.89332      1163.8764      321.92997      5696.5003      1.0177122      4455.7805     -150.26248     -4.6924513     -8.1907923e-14 -7.5106937e-14 -150.26248     -3.1402972e-13
     82000   1402.6215      247.2167       1155.4048      301.58574      7742.3418      1.0177122      4455.7805     -149.60833     -4.6924513     -8.1580506e-14 -7.5108986e-14 -149.60833     -3.1337898e-13
     82250   1418.6183      266.61787      1152.0004      325.25371      9510.047       1.0177122      4455.7805     -152.79738     -4.6924513     -8.1732136e-14 -7.5111997e-14 -152.79738     -3.1368827e-13
     82500   1422.7492      254.9598       1167.7894      311.03174      6607.7329      1.0177122      4455.7805     -152.26752     -4.6924513     -8.1547749e-14 -7.5111729e-14 -152.26752     -3.1331895e-13
     82750   1400.4544      246.1237       1154.3307      300.25236      6294.4452      1.0177122      4455.7805     -140.0146      -4.6924513     -8.1628893e-14 -7.5111526e-14 -140.0146      -3.1348084e-13
     83000   1424.3589      272.23504      1152.1238      332.10623      8722.504       1.0177122      4455.7805     -144.12372     -4.6924513     -8.1847469e-14 -7.5110802e-14 -144.12372     -3.1391654e-13
     83250   1400.0243      253.33051      1146.6937      309.04414      7115.3759      1.0177122      4455.7805     -150.3804      -4.6924513     -8.135344e-14  -7.5107845e-14 -150.3804      -3.1292257e-13
     83500   1381.6568      225.71586      1155.9409      275.35634      4321.0553      1.0177122      4455.7805     -150.92615     -4.6924513     -8.1957642e-14 -7.511333e-14  -150.92615     -3.1414194e-13
     83750   1387.1892      246.669        1140.5202      300.91759      5506.8987      1.0177122      4455.7805     -151.47873     -4.6924513     -8.1341016e-14 -7.5110627e-14 -151.47873     -3.1290329e-13
     84000   1390.5101      225.95053      1164.5595      275.64262      1858.1393      1.0177122      4455.7805     -149.6375      -4.6924513     -8.1839039e-14 -7.5109034e-14 -149.6375      -3.1389615e-13
     84250   1405.6232      250.89003      1154.7332      306.06693      9076.3157      1.0177122      4455.7805     -151.06529     -4.6924513     -8.167462e-14  -7.5110506e-14 -151.06529     -3.1357025e-13
     84500   1401.4987      249.35576      1152.1429      304.19524      7470.7583      1.0177122      4455.7805     -152.88875     -4.6924513     -8.1563572e-14 -7.5110789e-14 -152.88875     -3.1334872e-13
     84750   1408.1182      256.38689      1151.7313      312.77269      10389.657      1.0177122      4455.7805     -149.83972     -4.6924513     -8.1816927e-14 -7.5108581e-14 -149.83972     -3.1385102e-13
     85000   1393.4644      244.25308      1149.2113      297.97035      5665.1369      1.0177122      4455.7805     -159.58293     -4.6924513     -8.1749788e-14 -7.5112004e-14 -159.58293     -3.1372358e-13
     85250   1370.698       247.62185      1123.0761      302.08         8814.9102      1.0177122      4455.7805     -154.91445     -4.6924513     -8.1873354e-14 -7.5112972e-14 -154.91445     -3.1397265e-13
     85500   1410.0589      253.36589      1156.693       309.0873       1918.03        1.0177122      4455.7805     -153.2287      -4.6924513     -8.1657885e-14 -7.5110272e-14 -153.2287      -3.1353631e-13
     85750   1419.1284      259.61513      1159.5133      316.7109       7811.0071      1.0177122      4455.7805     -148.64413     -4.6924513     -8.1589968e-14 -7.5111549e-14 -148.64413     -3.1340303e-13
     86000   1408.8283      267.84474      1140.9836      326.7504       3207.1726      1.0177122      4455.7805     -161.48913     -4.6924513     -8.1410436e-14 -7.5111443e-14 -161.48913     -3.1304376e-13
     86250   1407.2909      232.24468      1175.0462      283.321        8510.0469      1.0177122      4455.7805     -157.10865     -4.6924513     -8.2059148e-14 -7.5113052e-14 -157.10865     -3.143444e-13 
     86500   1401.7809      247.61076      1154.1701      302.06647      3206.0757      1.0177122      4455.7805     -147.11747     -4.6924513     -8.1539906e-14 -7.5110784e-14 -147.11747     -3.1330138e-13
     86750   1411.7112      236.72078      1174.9904      288.78151      9984.1524      1.0177122      4455.7805     -149.77        -4.6924513     -8.2099023e-14 -7.5106598e-14 -149.77        -3.1441124e-13
     87000   1411.3696      249.85487      1161.5148      304.80412      9739.2599      1.0177122      4455.7805     -161.90807     -4.6924513     -8.1741838e-14 -7.5112734e-14 -161.90807     -3.1370914e-13
     87250   1412.8509      231.15548      1181.6955      281.99227      9259.2701      1.0177122      4455.7805     -144.74698     -4.6924513     -8.1794396e-14 -7.510831e-14  -144.74698     -3.1380541e-13
     87500   1392.1327      229.31814      1162.8145      279.75085      5668.8939      1.0177122      4455.7805     -153.95602     -4.6924513     -8.1636967e-14 -7.5112332e-14 -153.95602     -3.134986e-13 
     87750   1405.1024      249.63061      1155.4718      304.53053      5719.0975      1.0177122      4455.7805     -152.08189     -4.6924513     -8.193473e-14  -7.5107005e-14 -152.08189     -3.1408347e-13
     88000   1397.5252      242.01284      1155.5124      295.23743      4653.1242      1.0177122      4455.7805     -151.69087     -4.6924513     -8.174856e-14  -7.5112569e-14 -151.69087     -3.1372226e-13
     88250   1436.3799      263.66449      1172.7154      321.6508       6042.6165      1.0177122      4455.7805     -156.50081     -4.6924513     -8.1362986e-14 -7.5110726e-14 -156.50081     -3.1294742e-13
     88500   1420.6517      257.62046      1163.0313      314.27755      3162.0706      1.0177122      4455.7805     -152.48781     -4.6924513     -8.1936621e-14 -7.5110584e-14 -152.48781     -3.1409441e-13
     88750   1446.0087      262.93147      1183.0772      320.75658      6937.3374      1.0177122      4455.7805     -140.73448     -4.6924513     -8.155871e-14  -7.5108084e-14 -140.73448     -3.1333359e-13
     89000   1423.1127      263.02753      1160.0851      320.87376      7299.1746      1.0177122      4455.7805     -150.04537     -4.6924513     -8.1828348e-14 -7.5111871e-14 -150.04537     -3.1388044e-13
     89250   1393.6818      245.7578       1147.924       299.806        4772.4578      1.0177122      4455.7805     -150.93879     -4.6924513     -8.1617732e-14 -7.5113141e-14 -150.93879     -3.1346175e-13
     89500   1394.3559      255.00692      1139.349       311.08923      7521.7908      1.0177122      4455.7805     -153.25769     -4.6924513     -8.1904934e-14 -7.510909e-14  -153.25769     -3.1402805e-13
     89750   1386.4283      247.73749      1138.6908      302.22107      7533.0853      1.0177122      4455.7805     -151.85846     -4.6924513     -8.1644051e-14 -7.5112416e-14 -151.85846     -3.1351293e-13
     90000   1390.7357      252.66132      1138.0744      308.22777      5051.0524      1.0177122      4455.7805     -146.70689     -4.6924513     -8.2067566e-14 -7.5110552e-14 -146.70689     -3.1435624e-13
     90250   1413.1267      245.79625      1167.3305      299.8529       7329.1306      1.0177122      4455.7805     -151.05154     -4.6924513     -8.1642434e-14 -7.5111647e-14 -151.05154     -3.1350816e-13
     90500   1405.2216      256.04126      1149.1803      312.35104      12272.042      1.0177122      4455.7805     -151.59946     -4.6924513     -8.1594324e-14 -7.5110722e-14 -151.59946     -3.1341009e-13
     90750   1391.6766      259.23383      1132.4428      316.24574      5762.1104      1.0177122      4455.7805     -156.17204     -4.6924513     -8.1422654e-14 -7.5110287e-14 -156.17204     -3.1306588e-13
     91000   1394.3781      241.15421      1153.2239      294.18996      6387.2556      1.0177122      4455.7805     -146.67993     -4.6924513     -8.1859503e-14 -7.5108327e-14 -146.67993     -3.1393566e-13
     91250   1385.7413      257.57481      1128.1665      314.22186      5387.7093      1.0177122      4455.7805     -156.76775     -4.6924513     -8.1465588e-14 -7.5112854e-14 -156.76775     -3.1315688e-13
     91500   1399.6616      241.5773       1158.0843      294.7061       5721.2724      1.0177122      4455.7805     -147.83379     -4.6924513     -8.1886525e-14 -7.5109229e-14 -147.83379     -3.1399151e-13
     91750   1389.6128      247.0849       1142.5279      301.42496      6170.249       1.0177122      4455.7805     -145.43407     -4.6924513     -8.1661902e-14 -7.5108501e-14 -145.43407     -3.1354081e-13
     92000   1361.8292      216.68041      1145.1488      264.33377      2999.648       1.0177122      4455.7805     -156.22166     -4.6924513     -8.1768059e-14 -7.5109829e-14 -156.22166     -3.1375578e-13
     92250   1378.3978      233.7176       1144.6802      285.11785      9670.1448      1.0177122      4455.7805     -148.40776     -4.6924513     -8.1727105e-14 -7.5110284e-14 -148.40776     -3.1367478e-13
     92500   1452.7171      285.86094      1166.8562      348.72881      4937.6172      1.0177122      4455.7805     -153.05925     -4.6924513     -8.1434163e-14 -7.5110335e-14 -153.05925     -3.13089e-13  
     92750   1421.1341      258.97081      1162.1633      315.92488      6645.4087      1.0177122      4455.7805     -147.54905     -4.6924513     -8.174686e-14  -7.5112086e-14 -147.54905     -3.1371789e-13
     93000   1403.8386      244.1479       1159.6907      297.84203      4003.2409      1.0177122      4455.7805     -154.75119     -4.6924513     -8.1405316e-14 -7.5110965e-14 -154.75119     -3.1303256e-13
     93250   1404.7092      257.51177      1147.1975      314.14496      8197.2133      1.0177122      4455.7805     -151.56158     -4.6924513     -8.1770843e-14 -7.5110364e-14 -151.56158     -3.1376241e-13
     93500   1409.1288      271.24495      1137.8839      330.89839      6038.8901      1.0177122      4455.7805     -151.18063     -4.6924513     -8.1737684e-14 -7.5112138e-14 -151.18063     -3.1369964e-13
     93750   1401.0534      256.41432      1144.6391      312.80615      3085.1645      1.0177122      4455.7805     -151.72064     -4.6924513     -8.1581329e-14 -7.5111297e-14 -151.72064     -3.1338525e-13
     94000   1402.4488      251.23363      1151.2152      306.4861       4693.8058      1.0177122      4455.7805     -156.21189     -4.6924513     -8.1544624e-14 -7.5112037e-14 -156.21189     -3.1331332e-13
     94250   1399.7792      238.15191      1161.6273      290.52739      6074.673       1.0177122      4455.7805     -149.86604     -4.6924513     -8.1568122e-14 -7.5110594e-14 -149.86604     -3.1335743e-13
     94500   1412.5498      251.59581      1160.954       306.92792      3778.2262      1.0177122      4455.7805     -151.43427     -4.6924513     -8.2078602e-14 -7.5110772e-14 -151.43427     -3.1437875e-13
     94750   1414.0041      247.25581      1166.7483      301.63345      8068.449       1.0177122      4455.7805     -147.91783     -4.6924513     -8.1621361e-14 -7.5110715e-14 -147.91783     -3.1346415e-13
     95000   1413.3323      258.74674      1154.5856      315.65153      2849.685       1.0177122      4455.7805     -148.21864     -4.6924513     -8.1867188e-14 -7.5110596e-14 -148.21864     -3.1395557e-13
     95250   1409.8335      258.25715      1151.5763      315.05426      9404.1693      1.0177122      4455.7805     -146.48889     -4.6924513     -8.1888451e-14 -7.5110862e-14 -146.48889     -3.1399863e-13
     95500   1436.6976      255.44206      1181.2556      311.62006      7739.1706      1.0177122      4455.7805     -153.02589     -4.6924513     -8.1641122e-14 -7.5108541e-14 -153.02589     -3.1349933e-13
     95750   1395.9894      253.8565       1142.1329      309.6858       5389.6982      1.0177122      4455.7805     -147.27719     -4.6924513     -8.168551e-14  -7.5107486e-14 -147.27719     -3.1358599e-13
     96000   1427.3696      269.61637      1157.7532      328.91166      10531.901      1.0177122      4455.7805     -149.75195     -4.6924513     -8.1602017e-14 -7.5110552e-14 -149.75195     -3.1342514e-13
     96250   1360.5506      229.98782      1130.5628      280.56781      5390.6908      1.0177122      4455.7805     -153.41131     -4.6924513     -8.1598205e-14 -7.5108598e-14 -153.41131     -3.1341361e-13
     96500   1403.6269      243.17948      1160.4475      296.66064      6505.0695      1.0177122      4455.7805     -138.32601     -4.6924513     -8.1658594e-14 -7.5113251e-14 -138.32601     -3.1354369e-13
     96750   1423.7027      264.23024      1159.4725      322.34098      6069.7688      1.0177122      4455.7805     -152.52429     -4.6924513     -8.1612369e-14 -7.5109449e-14 -152.52429     -3.1344363e-13
     97000   1413.5179      250.83833      1162.6795      306.00386      6477.4544      1.0177122      4455.7805     -158.66522     -4.6924513     -8.1586955e-14 -7.5113856e-14 -158.66522     -3.1340162e-13
     97250   1406.1232      255.54147      1150.5817      311.74134      9108.0535      1.0177122      4455.7805     -149.89153     -4.6924513     -8.2018486e-14 -7.5110178e-14 -149.89153     -3.1425733e-13
     97500   1414.0836      251.90594      1162.1776      307.30626      6801.0006      1.0177122      4455.7805     -147.85785     -4.6924513     -8.1788089e-14 -7.5112739e-14 -147.85785     -3.1380166e-13
     97750   1440.1093      262.68259      1177.4267      320.45297      8173.8855      1.0177122      4455.7805     -148.04638     -4.6924513     -8.1415706e-14 -7.5109001e-14 -148.04638     -3.1304941e-13
     98000   1405.2356      257.35221      1147.8834      313.95031      8256.4499      1.0177122      4455.7805     -147.58892     -4.6924513     -8.1708774e-14 -7.5112608e-14 -147.58892     -3.1364276e-13
     98250   1428.6402      249.40344      1179.2368      304.25341      13340.562      1.0177122      4455.7805     -158.1499      -4.6924513     -8.2104877e-14 -7.5112405e-14 -158.1499      -3.1443457e-13
     98500   1403.7909      253.49104      1150.2998      309.23997      5336.8248      1.0177122      4455.7805     -146.15438     -4.6924513     -8.1775906e-14 -7.5113485e-14 -146.15438     -3.1377878e-13
     98750   1416.464       257.81942      1158.6446      314.52027      9831.2984      1.0177122      4455.7805     -149.98827     -4.6924513     -8.1957524e-14 -7.5110827e-14 -149.98827     -3.141367e-13 
     99000   1403.0309      247.27291      1155.758       301.65431      3766.0496      1.0177122      4455.7805     -150.05584     -4.6924513     -8.1562957e-14 -7.5111031e-14 -150.05584     -3.1334798e-13
     99250   1411.3001      249.67591      1161.6242      304.58579      7310.5646      1.0177122      4455.7805     -147.78737     -4.6924513     -8.1614305e-14 -7.5107541e-14 -147.78737     -3.1344369e-13
     99500   1416.3931      238.00027      1178.3929      290.3424       1735.6974      1.0177122      4455.7805     -156.96608     -4.6924513     -8.1691541e-14 -7.5108721e-14 -156.96608     -3.1360052e-13
     99750   1425.7993      267.008        1158.7913      325.72964      3204.1718      1.0177122      4455.7805     -151.12477     -4.6924513     -8.1202223e-14 -7.511299e-14  -151.12477     -3.1263043e-13
    100000   1428.5721      263.45776      1165.1143      321.39862      9053.972       1.0177122      4455.7805     -150.04362     -4.6924513     -8.1854556e-14 -7.5109072e-14 -150.04362     -3.1392726e-13
    100250   1395.3326      253.65766      1141.675       309.44323      5573.3975      1.0177122      4455.7805     -154.6499      -4.6924513     -8.1609449e-14 -7.510708e-14  -154.6499      -3.1343306e-13
    100500   1371.0058      229.14875      1141.8571      279.54421      5483.448       1.0177122      4455.7805     -155.65939     -4.6924513     -8.1969207e-14 -7.5109838e-14 -155.65939     -3.1415809e-13
    100750   1390.2635      249.32664      1140.9368      304.15972      5781.1199      1.0177122      4455.7805     -146.36667     -4.6924513     -8.1632209e-14 -7.5109621e-14 -146.36667     -3.1348366e-13
    101000   1438.317       248.51643      1189.8005      303.17131      6862.7989      1.0177122      4455.7805     -146.38064     -4.6924513     -8.1714151e-14 -7.5109609e-14 -146.38064     -3.1364752e-13
    101250   1414.0394      251.90315      1162.1363      307.30286      2257.7961      1.0177122      4455.7805     -153.2865      -4.6924513     -8.154545e-14  -7.5111974e-14 -153.2865      -3.1331485e-13
    101500   1396.9374      246.22763      1150.7098      300.37916      6495.8575      1.0177122      4455.7805     -150.13149     -4.6924513     -8.1556513e-14 -7.5112523e-14 -150.13149     -3.1333807e-13
    101750   1400.4341      243.07083      1157.3633      296.52809      6817.1989      1.0177122      4455.7805     -149.17471     -4.6924513     -8.1682347e-14 -7.5111063e-14 -149.17471     -3.1358682e-13
    102000   1411.1627      248.54013      1162.6226      303.20022      5699.6022      1.0177122      4455.7805     -157.95978     -4.6924513     -8.1697025e-14 -7.5112758e-14 -157.95978     -3.1361957e-13
    102250   1427.7128      247.70705      1180.0058      302.18393      6288.3101      1.0177122      4455.7805     -148.27914     -4.6924513     -8.1900003e-14 -7.510815e-14  -148.27914     -3.1401631e-13
    102500   1391.2367      251.12745      1140.1092      306.35657      3719.1902      1.0177122      4455.7805     -146.922       -4.6924513     -8.1729586e-14 -7.5111343e-14 -146.922       -3.1368186e-13
    102750   1418.6883      249.52385      1169.1645      304.4003       5767.1129      1.0177122      4455.7805     -147.09984     -4.6924513     -8.1533653e-14 -7.5112324e-14 -147.09984     -3.1329195e-13
    103000   1397.751       242.45367      1155.2973      295.77521      9459.9549      1.0177122      4455.7805     -147.1569      -4.6924513     -8.1728919e-14 -7.5112549e-14 -147.1569      -3.1368294e-13
    103250   1426.918       259.82848      1167.0895      316.97116      6772.0839      1.0177122      4455.7805     -145.74792     -4.6924513     -8.1812268e-14 -7.5112646e-14 -145.74792     -3.1384983e-13
    103500   1384.7071      237.70557      1147.0016      289.98288      9187.3476      1.0177122      4455.7805     -155.37644     -4.6924513     -8.2033024e-14 -7.5113356e-14 -155.37644     -3.1429276e-13
    103750   1425.8873      254.57862      1171.3086      310.56673      6805.1192      1.0177122      4455.7805     -153.42966     -4.6924513     -8.1906195e-14 -7.5111375e-14 -153.42966     -3.1403514e-13
    104000   1431.2823      270.89609      1160.3862      330.47282      3141.6346      1.0177122      4455.7805     -150.01125     -4.6924513     -8.1228606e-14 -7.510969e-14  -150.01125     -3.1267659e-13
    104250   1420.7795      266.78255      1153.997       325.4546       9269.6885      1.0177122      4455.7805     -153.54655     -4.6924513     -8.1804645e-14 -7.5107172e-14 -153.54655     -3.1382363e-13
    104500   1399.2795      256.62715      1142.6523      313.06579      7580.3809      1.0177122      4455.7805     -155.92431     -4.6924513     -8.1783794e-14 -7.5113205e-14 -155.92431     -3.13794e-13  
    104750   1425.1036      264.03592      1161.0677      322.10392      4057.0667      1.0177122      4455.7805     -147.10484     -4.6924513     -8.1784495e-14 -7.5112827e-14 -147.10484     -3.1379464e-13
    105000   1435.1329      284.07075      1151.0622      346.54491      5641.3862      1.0177122      4455.7805     -148.31272     -4.6924513     -8.1561349e-14 -7.5111888e-14 -148.31272     -3.1334647e-13
    105250   1395.4683      239.75427      1155.7141      292.48214      5980.9421      1.0177122      4455.7805     -149.21446     -4.6924513     -8.1365656e-14 -7.5112197e-14 -149.21446     -3.1295571e-13
    105500   1416.2526      254.68193      1161.5707      310.69276      7629.3866      1.0177122      4455.7805     -151.33795     -4.6924513     -8.1384863e-14 -7.5112312e-14 -151.33795     -3.1299435e-13
    105750   1416.4901      266.04946      1150.4407      324.56029      5680.5958      1.0177122      4455.7805     -146.60902     -4.6924513     -8.1893607e-14 -7.5110709e-14 -146.60902     -3.1400863e-13
    106000   1389.593       246.35409      1143.239       300.53342      5538.7019      1.0177122      4455.7805     -151.65898     -4.6924513     -8.1585213e-14 -7.5110696e-14 -151.65898     -3.1339182e-13
    106250   1394.4718      247.76878      1146.7031      302.25924      8311.0565      1.0177122      4455.7805     -150.44616     -4.6924513     -8.1744118e-14 -7.5112031e-14 -150.44616     -3.137123e-13 
    106500   1407.7477      251.78146      1155.9663      307.15441      5945.5489      1.0177122      4455.7805     -153.53668     -4.6924513     -8.14829e-14   -7.5109887e-14 -153.53668     -3.1318557e-13
    106750   1366.7412      229.79598      1136.9452      280.33378      6085.768       1.0177122      4455.7805     -150.30367     -4.6924513     -8.1591347e-14 -7.5110758e-14 -150.30367     -3.1340421e-13
    107000   1407.1486      254.40777      1152.7408      310.35831      4195.2125      1.0177122      4455.7805     -149.77172     -4.6924513     -8.1497003e-14 -7.5110038e-14 -149.77172     -3.1321408e-13
    107250   1396.4692      259.05438      1137.4148      316.02682      3745.9093      1.0177122      4455.7805     -155.77695     -4.6924513     -8.1301056e-14 -7.5111019e-14 -155.77695     -3.1282415e-13
    107500   1428.642       257.03415      1171.6079      313.56229      6494.9469      1.0177122      4455.7805     -157.83015     -4.6924513     -8.1563219e-14 -7.5112556e-14 -157.83015     -3.1335155e-13
    107750   1405.8312      258.25133      1147.5799      315.04716      11059.991      1.0177122      4455.7805     -145.54002     -4.6924513     -8.1655366e-14 -7.511305e-14  -145.54002     -3.1353683e-13
    108000   1399.9802      251.05447      1148.9257      306.26753      6366.2918      1.0177122      4455.7805     -154.48644     -4.6924513     -8.1819785e-14 -7.5109761e-14 -154.48644     -3.1385909e-13
    108250   1420.2808      256.50375      1163.777       312.91524      9780.7557      1.0177122      4455.7805     -148.89197     -4.6924513     -8.1799304e-14 -7.5112249e-14 -148.89197     -3.1382311e-13
    108500   1435.7452      274.04578      1161.6995      334.3152       5918.7386      1.0177122      4455.7805     -147.90904     -4.6924513     -8.165909e-14  -7.5111595e-14 -147.90904     -3.1354137e-13
    108750   1411.4938      262.52254      1148.9713      320.25771      6328.4719      1.0177122      4455.7805     -155.32607     -4.6924513     -8.1552586e-14 -7.5109959e-14 -155.32607     -3.1332509e-13
    109000   1405.8904      253.20393      1152.6865      308.88972      8057.2706      1.0177122      4455.7805     -155.47621     -4.6924513     -8.1927742e-14 -7.5111287e-14 -155.47621     -3.1407806e-13
    109250   1419.2947      263.18964      1156.1051      321.07153      4355.8419      1.0177122      4455.7805     -155.93367     -4.6924513     -8.1717855e-14 -7.5107801e-14 -155.93367     -3.1365131e-13
    109500   1406.8536      257.99473      1148.8589      314.73413      5677.133       1.0177122      4455.7805     -150.32981     -4.6924513     -8.1794917e-14 -7.5109584e-14 -150.32981     -3.13809e-13  
    109750   1402.2516      240.63219      1161.6194      293.55313      8449.5854      1.0177122      4455.7805     -150.28503     -4.6924513     -8.1709801e-14 -7.5111891e-14 -150.28503     -3.1364338e-13
    110000   1401.6124      244.53335      1157.0791      298.31226      2943.4745      1.0177122      4455.7805     -149.11864     -4.6924513     -8.1395301e-14 -7.5112519e-14 -149.11864     -3.1301564e-13
    110250   1404.895       262.47809      1142.4169      320.20349      8089.1317      1.0177122      4455.7805     -150.08159     -4.6924513     -8.1737757e-14 -7.5113382e-14 -150.08159     -3.1370228e-13
    110500   1423.3424      242.6357       1180.7068      295.99726      4625.9568      1.0177122      4455.7805     -151.75793     -4.6924513     -8.1321066e-14 -7.511144e-14  -151.75793     -3.1286501e-13
    110750   1421.183       257.76129      1163.4217      314.44935      4245.8386      1.0177122      4455.7805     -149.85321     -4.6924513     -8.1585572e-14 -7.5111025e-14 -149.85321     -3.133932e-13 
    111000   1424.4111      261.26252      1163.1485      318.72059      4762.0991      1.0177122      4455.7805     -152.65434     -4.6924513     -8.1511921e-14 -7.5112279e-14 -152.65434     -3.132484e-13 
    111250   1406.7349      253.59236      1153.1425      309.36358      2171.6016      1.0177122      4455.7805     -156.86674     -4.6924513     -8.1589376e-14 -7.5110754e-14 -156.86674     -3.1340026e-13
    111500   1390.2589      256.34668      1133.9122      312.72364      7460.0326      1.0177122      4455.7805     -149.14921     -4.6924513     -8.1628278e-14 -7.5112976e-14 -149.14921     -3.1348251e-13
    111750   1419.8249      259.48973      1160.3351      316.55791      5539.4418      1.0177122      4455.7805     -150.70595     -4.6924513     -8.1699975e-14 -7.5111664e-14 -150.70595     -3.1362328e-13
    112000   1390.0895      237.32254      1152.767       289.51562      6364.4816      1.0177122      4455.7805     -153.66408     -4.6924513     -8.1616035e-14 -7.5109746e-14 -153.66408     -3.1345156e-13
    112250   1410.2229      264.93393      1145.2889      323.19943      4421.4746      1.0177122      4455.7805     -154.34911     -4.6924513     -8.1462928e-14 -7.5110889e-14 -154.34911     -3.1314763e-13
    112500   1402.2967      247.01826      1155.2784      301.34366      6761.1633      1.0177122      4455.7805     -152.81158     -4.6924513     -8.165744e-14  -7.5109934e-14 -152.81158     -3.1353475e-13
    112750   1397.7175      255.7257       1141.9918      311.96609      9721.6349      1.0177122      4455.7805     -147.59194     -4.6924513     -8.1741244e-14 -7.5109735e-14 -147.59194     -3.1370196e-13
    113000   1400.4799      225.15192      1175.328       274.66837      6103.2818      1.0177122      4455.7805     -154.3822      -4.6924513     -8.172543e-14  -7.5110131e-14 -154.3822      -3.1367112e-13
    113250   1378.2773      226.17561      1152.1017      275.9172       7171.6473      1.0177122      4455.7805     -151.93458     -4.6924513     -8.1666554e-14 -7.5110157e-14 -151.93458     -3.1355342e-13
    113500   1403.6075      238.08433      1165.5232      290.44495      8217.0969      1.0177122      4455.7805     -154.60239     -4.6924513     -8.2102409e-14 -7.511248e-14  -154.60239     -3.1442978e-13
    113750   1383.4417      228.84602      1154.5956      279.1749       4756.8844      1.0177122      4455.7805     -151.77535     -4.6924513     -8.171716e-14  -7.5110477e-14 -151.77535     -3.1365527e-13
    114000   1399.858       259.53857      1140.3194      316.6175       2478.4706      1.0177122      4455.7805     -147.64305     -4.6924513     -8.1994642e-14 -7.5113206e-14 -147.64305     -3.142157e-13 
    114250   1410.779       247.74867      1163.0303      302.23471      8619.5276      1.0177122      4455.7805     -155.54272     -4.6924513     -8.1702207e-14 -7.5112232e-14 -155.54272     -3.1362888e-13
    114500   1394.5261      248.14148      1146.3846      302.7139       6732.3479      1.0177122      4455.7805     -140.40891     -4.6924513     -8.164866e-14  -7.5111038e-14 -140.40891     -3.135194e-13 
    114750   1384.6404      235.55169      1149.0887      287.35532      5316.0521      1.0177122      4455.7805     -144.51153     -4.6924513     -8.1489112e-14 -7.5111301e-14 -144.51153     -3.1320083e-13
    115000   1404.3878      252.29349      1152.0943      307.77905      8380.6093      1.0177122      4455.7805     -150.44976     -4.6924513     -8.1696796e-14 -7.5110282e-14 -150.44976     -3.1361416e-13
    115250   1399.7102      253.58632      1146.1239      309.3562       8173.6902      1.0177122      4455.7805     -156.73471     -4.6924513     -8.1760128e-14 -7.5112499e-14 -156.73471     -3.1374526e-13
    115500   1402.3365      256.43273      1145.9037      312.82861      6922.1616      1.0177122      4455.7805     -151.08105     -4.6924513     -8.1699586e-14 -7.5110426e-14 -151.08105     -3.1362002e-13
    115750   1418.737       247.3483       1171.3887      301.74629      9003.5598      1.0177122      4455.7805     -155.1954      -4.6924513     -8.1740599e-14 -7.5110567e-14 -155.1954      -3.1370233e-13
    116000   1404.0227      254.32841      1149.6943      310.2615       6369.0592      1.0177122      4455.7805     -142.33227     -4.6924513     -8.1507137e-14 -7.5110247e-14 -142.33227     -3.1323477e-13
    116250   1397.8752      231.72822      1166.1469      282.69097      6075.1471      1.0177122      4455.7805     -158.74272     -4.6924513     -8.1420521e-14 -7.5110374e-14 -158.74272     -3.1306179e-13
    116500   1406.6242      252.48424      1154.14        308.01175      8754.043       1.0177122      4455.7805     -145.50147     -4.6924513     -8.1514676e-14 -7.5109118e-14 -145.50147     -3.1324759e-13
    116750   1402.0599      246.60894      1155.4509      300.84432      3889.925       1.0177122      4455.7805     -146.35808     -4.6924513     -8.167125e-14  -7.5109073e-14 -146.35808     -3.1356065e-13
    117000   1410.7688      250.22376      1160.545       305.25413      7118.4284      1.0177122      4455.7805     -147.05376     -4.6924513     -8.1905479e-14 -7.5112796e-14 -147.05376     -3.1403655e-13
    117250   1400.5911      256.45216      1144.139       312.85231      3448.086       1.0177122      4455.7805     -153.35315     -4.6924513     -8.1562457e-14 -7.5110667e-14 -153.35315     -3.1334625e-13
    117500   1425.5804      260.27033      1165.31        317.51019      6486.9488      1.0177122      4455.7805     -159.36627     -4.6924513     -8.1701839e-14 -7.5109674e-14 -159.36627     -3.1362303e-13
    117750   1411.7941      246.66187      1165.1322      300.90889      3749.4251      1.0177122      4455.7805     -160.31081     -4.6924513     -8.175681e-14  -7.5113434e-14 -160.31081     -3.1374049e-13
    118000   1396.1954      250.50422      1145.6912      305.59627      6852.5883      1.0177122      4455.7805     -149.84514     -4.6924513     -8.1834389e-14 -7.5112297e-14 -149.84514     -3.1389337e-13
    118250   1379.3485      246.75176      1132.5968      301.01855      9280.0307      1.0177122      4455.7805     -153.77028     -4.6924513     -8.181417e-14  -7.5108988e-14 -153.77028     -3.1384632e-13
    118500   1404.0532      262.40065      1141.6526      320.10901      9204.857       1.0177122      4455.7805     -148.93711     -4.6924513     -8.1853789e-14 -7.5111808e-14 -148.93711     -3.1393119e-13
    118750   1396.4587      239.35032      1157.1084      291.98936      5083.4631      1.0177122      4455.7805     -149.03448     -4.6924513     -8.147848e-14  -7.5108826e-14 -149.03448     -3.1317461e-13
    119000   1395.6857      250.29295      1145.3927      305.33854      8584.3475      1.0177122      4455.7805     -147.12565     -4.6924513     -8.1799925e-14 -7.511137e-14  -147.12565     -3.1382259e-13
    119250   1404.0293      255.42617      1148.6031      311.60068      5627.0072      1.0177122      4455.7805     -156.04305     -4.6924513     -8.1849944e-14 -7.5111615e-14 -156.04305     -3.1392312e-13
    119500   1427.5352      257.21052      1170.3247      313.77746      3640.9173      1.0177122      4455.7805     -150.51367     -4.6924513     -8.1814977e-14 -7.5111955e-14 -150.51367     -3.1385386e-13
    119750   1444.1565      276.45002      1167.7065      337.2482       8714.7568      1.0177122      4455.7805     -151.18868     -4.6924513     -8.1940749e-14 -7.5108709e-14 -151.18868     -3.1409891e-13
    120000   1422.293       264.52909      1157.7639      322.70556      8000.9434      1.0177122      4455.7805     -149.71312     -4.6924513     -8.1305961e-14 -7.5110914e-14 -149.71312     -3.1283375e-13
    120250   1401.425       230.50681      1170.9182      281.20093      6690.4458      1.0177122      4455.7805     -151.11754     -4.6924513     -8.1908927e-14 -7.5108595e-14 -151.11754     -3.1403504e-13
    120500   1387.3418      227.49872      1159.8431      277.53129      5647.0693      1.0177122      4455.7805     -152.2608      -4.6924513     -8.1612569e-14 -7.5111756e-14 -152.2608      -3.1344865e-13
    120750   1416.8418      276.97242      1139.8694      337.88548      6159.9172      1.0177122      4455.7805     -159.35812     -4.6924513     -8.1595015e-14 -7.5109856e-14 -159.35812     -3.1340974e-13
    121000   1381.849       243.83278      1138.0162      297.45762      3546.3237      1.0177122      4455.7805     -153.62312     -4.6924513     -8.1525836e-14 -7.5113249e-14 -153.62312     -3.1327817e-13
    121250   1394.7957      268.01998      1126.7757      326.96417      8614.3457      1.0177122      4455.7805     -151.74866     -4.6924513     -8.2005087e-14 -7.5109453e-14 -151.74866     -3.1422908e-13
    121500   1373.5667      231.46975      1142.0969      282.37565      6956.618       1.0177122      4455.7805     -144.83652     -4.6924513     -8.1720077e-14 -7.5111375e-14 -144.83652     -3.1366291e-13
    121750   1401.361       252.40679      1148.9542      307.91726      6559.7076      1.0177122      4455.7805     -154.8834      -4.6924513     -8.1514076e-14 -7.5111014e-14 -154.8834      -3.1325018e-13
    122000   1421.0042      261.39425      1159.61        318.88129      6322.7276      1.0177122      4455.7805     -146.02888     -4.6924513     -8.1529135e-14 -7.5109889e-14 -146.02888     -3.1327805e-13
    122250   1422.2497      263.02133      1159.2284      320.8662       6566.4157      1.0177122      4455.7805     -154.08487     -4.6924513     -8.1936911e-14 -7.5107803e-14 -154.08487     -3.1408943e-13
    122500   1370.7479      230.05362      1140.6942      280.64808      6508.9271      1.0177122      4455.7805     -150.32094     -4.6924513     -8.1553114e-14 -7.5106242e-14 -150.32094     -3.1331871e-13
    122750   1417.6932      244.50169      1173.1916      298.27364      5980.3365      1.0177122      4455.7805     -150.62463     -4.6924513     -8.1507686e-14 -7.5110576e-14 -150.62463     -3.1323652e-13
    123000   1434.1492      271.85971      1162.2895      331.64836      6690.0361      1.0177122      4455.7805     -147.40064     -4.6924513     -8.1463921e-14 -7.5105018e-14 -147.40064     -3.1313788e-13
    123250   1409.2118      256.5665       1152.6453      312.9918       5573.7842      1.0177122      4455.7805     -153.41223     -4.6924513     -8.1833037e-14 -7.5111986e-14 -153.41223     -3.1389005e-13
    123500   1402.0577      243.52729      1158.5304      297.08494      8533.4431      1.0177122      4455.7805     -157.07272     -4.6924513     -8.1593948e-14 -7.5111936e-14 -157.07272     -3.1341177e-13
    123750   1384.8723      229.19818      1155.6741      279.60451      8558.4726      1.0177122      4455.7805     -145.01002     -4.6924513     -8.159588e-14  -7.5109069e-14 -145.01002     -3.134099e-13 
    124000   1433.5925      260.18776      1173.4048      317.40946      6547.2169      1.0177122      4455.7805     -151.09662     -4.6924513     -8.1486245e-14 -7.5110007e-14 -151.09662     -3.1319251e-13
    124250   1429.735       246.10319      1183.6318      300.22735      6949.5198      1.0177122      4455.7805     -144.83467     -4.6924513     -8.1460914e-14 -7.5110956e-14 -144.83467     -3.1314374e-13
    124500   1398.1962      250.6989       1147.4973      305.83377      5281.9336      1.0177122      4455.7805     -158.43956     -4.6924513     -8.1661355e-14 -7.5111704e-14 -158.43956     -3.1354612e-13
    124750   1438.7881      278.78424      1160.0039      340.09576      9963.73        1.0177122      4455.7805     -151.08072     -4.6924513     -8.1803665e-14 -7.5113129e-14 -151.08072     -3.1383359e-13
    125000   1409.4439      255.16344      1154.2804      311.28017      10924.075      1.0177122      4455.7805     -152.38508     -4.6924513     -8.1612103e-14 -7.5105463e-14 -152.38508     -3.1343513e-13
    125250   1369.8471      236.82686      1133.0202      288.91092      4681.1094      1.0177122      4455.7805     -149.63541     -4.6924513     -8.1662543e-14 -7.5112371e-14 -149.63541     -3.1354983e-13
    125500   1421.9715      269.20641      1152.7651      328.41153      3157.0492      1.0177122      4455.7805     -146.97337     -4.6924513     -8.1809698e-14 -7.51125e-14   -146.97337     -3.1384439e-13
    125750   1383.352       238.04368      1145.3083      290.39536      7439.4484      1.0177122      4455.7805     -151.94209     -4.6924513     -8.1607719e-14 -7.5111319e-14 -151.94209     -3.1343808e-13
    126000   1396.1489      253.17668      1142.9723      308.85647      4733.1123      1.0177122      4455.7805     -153.84523     -4.6924513     -8.175194e-14  -7.5111637e-14 -153.84523     -3.1372715e-13
    126250   1408.5805      255.3095       1153.271       311.45836      3930.6439      1.0177122      4455.7805     -151.34379     -4.6924513     -8.1632311e-14 -7.5110326e-14 -151.34379     -3.1348527e-13
    126500   1417.8261      241.02762      1176.7985      294.03553      9570.7233      1.0177122      4455.7805     -153.30787     -4.6924513     -8.2073087e-14 -7.5112794e-14 -153.30787     -3.1437176e-13
    126750   1436.2071      260.25974      1175.9473      317.49727      5170.5296      1.0177122      4455.7805     -148.55833     -4.6924513     -8.1593317e-14 -7.5111752e-14 -148.55833     -3.1341014e-13
    127000   1437.7403      267.62038      1170.1199      326.4767       9058.503       1.0177122      4455.7805     -152.17136     -4.6924513     -8.162455e-14  -7.5109377e-14 -152.17136     -3.1346785e-13
    127250   1414.7225      258.95676      1155.7657      315.90774      7585.9071      1.0177122      4455.7805     -156.95781     -4.6924513     -8.1813222e-14 -7.5112573e-14 -156.95781     -3.1385159e-13
    127500   1409.4273      240.84265      1168.5846      293.80989      6039.6879      1.0177122      4455.7805     -151.82183     -4.6924513     -8.1656029e-14 -7.5110128e-14 -151.82183     -3.1353231e-13
    127750   1406.3421      253.49971      1152.8424      309.25054      7676.1684      1.0177122      4455.7805     -148.18825     -4.6924513     -8.1719119e-14 -7.511205e-14  -148.18825     -3.1366234e-13
    128000   1403.346       254.28921      1149.0568      310.21367      8009.3251      1.0177122      4455.7805     -154.634       -4.6924513     -8.1578458e-14 -7.5109547e-14 -154.634       -3.1337601e-13
    128250   1407.7266      250.27799      1157.4486      305.32029      2321.3716      1.0177122      4455.7805     -155.83273     -4.6924513     -8.1626583e-14 -7.510942e-14  -155.83273     -3.1347201e-13
    128500   1420.6855      261.62779      1159.0578      319.16619      8357.1257      1.0177122      4455.7805     -152.05018     -4.6924513     -8.17956e-14   -7.5109652e-14 -152.05018     -3.1381051e-13
    128750   1398.4682      244.52906      1153.9391      298.30702      5557.704       1.0177122      4455.7805     -157.49918     -4.6924513     -8.1562155e-14 -7.5112548e-14 -157.49918     -3.1334941e-13
    129000   1434.3445      275.74597      1158.5985      336.38931      8868.5463      1.0177122      4455.7805     -145.38425     -4.6924513     -8.1927846e-14 -7.5113217e-14 -145.38425     -3.1408213e-13
    129250   1396.9207      251.03725      1145.8834      306.24653      10886.831      1.0177122      4455.7805     -141.60311     -4.6924513     -8.1936169e-14 -7.510884e-14  -141.60311     -3.1409002e-13
    129500   1432.7669      271.44216      1161.3247      331.13898     -1500.3583      1.0177122      4455.7805     -151.48547     -4.6924513     -8.1522791e-14 -7.5108364e-14 -151.48547     -3.1326231e-13
    129750   1395.657       251.01867      1144.6384      306.22387      7868.0499      1.0177122      4455.7805     -159.27096     -4.6924513     -8.1766018e-14 -7.5113748e-14 -159.27096     -3.1375953e-13
    130000   1403.6496      250.62403      1153.0256      305.74243      6549.9937      1.0177122      4455.7805     -146.1787      -4.6924513     -8.1874238e-14 -7.5112018e-14 -146.1787      -3.1397251e-13
    130250   1398.0102      241.69172      1156.3185      294.84568      4846.4058      1.0177122      4455.7805     -157.23006     -4.6924513     -8.1544868e-14 -7.5111443e-14 -157.23006     -3.1331262e-13
    130500   1402.1277      251.71258      1150.4151      307.07038      8539.5734      1.0177122      4455.7805     -150.6996      -4.6924513     -8.1684922e-14 -7.5113067e-14 -150.6996      -3.1359598e-13
    130750   1412.2628      253.44068      1158.8221      309.17853      9995.4475      1.0177122      4455.7805     -147.55303     -4.6924513     -8.2035927e-14 -7.5108446e-14 -147.55303     -3.1428874e-13
    131000   1411.3309      253.88302      1157.4479      309.71816      7480.4689      1.0177122      4455.7805     -152.56484     -4.6924513     -8.1769688e-14 -7.5110824e-14 -152.56484     -3.1376102e-13
    131250   1411.5976      264.92188      1146.6757      323.18474      8505.8815      1.0177122      4455.7805     -154.03745     -4.6924513     -8.1840748e-14 -7.511109e-14  -154.03745     -3.1390367e-13
    131500   1406.5186      244.5534       1161.9652      298.33672      5462.6046      1.0177122      4455.7805     -155.79714     -4.6924513     -8.1537967e-14 -7.5109501e-14 -155.79714     -3.1329493e-13
    131750   1407.4571      262.30753      1145.1496      319.99541      3007.1801      1.0177122      4455.7805     -146.07051     -4.6924513     -8.1847334e-14 -7.5110035e-14 -146.07051     -3.1391474e-13
    132000   1398.665       250.62895      1148.036       305.74843      8572.5543      1.0177122      4455.7805     -154.71664     -4.6924513     -8.1543596e-14 -7.5111554e-14 -154.71664     -3.133103e-13 
    132250   1388.8005      224.92856      1163.8719      274.39589      4186.9121      1.0177122      4455.7805     -152.41563     -4.6924513     -8.1599745e-14 -7.5110148e-14 -152.41563     -3.1341979e-13
    132500   1422.3452      256.10448      1166.2407      312.42817      7734.0531      1.0177122      4455.7805     -160.17861     -4.6924513     -8.1303153e-14 -7.5107695e-14 -160.17861     -3.128217e-13 
    132750   1418.7957      256.28136      1162.5143      312.64395      4506.5817      1.0177122      4455.7805     -146.66443     -4.6924513     -8.1775914e-14 -7.5113056e-14 -146.66443     -3.1377794e-13
    133000   1420.9753      253.55709      1167.4182      309.32054      8009.4949      1.0177122      4455.7805     -145.07777     -4.6924513     -8.1697649e-14 -7.5112675e-14 -145.07777     -3.1362065e-13
    133250   1376.7086      250.18536      1126.5232      305.20728      6158.6445      1.0177122      4455.7805     -153.60027     -4.6924513     -8.162725e-14  -7.5109866e-14 -153.60027     -3.1347423e-13
    133500   1397.1257      231.24301      1165.8827      282.09905      7019.4599      1.0177122      4455.7805     -157.83056     -4.6924513     -8.1613793e-14 -7.5110935e-14 -157.83056     -3.1344946e-13
    133750   1395.894       247.19441      1148.6996      301.55855      5690.0642      1.0177122      4455.7805     -145.6799      -4.6924513     -8.1670209e-14 -7.5109958e-14 -145.6799      -3.1356033e-13
    134000   1414.4272      280.97458      1133.4526      342.76781      6299.4017      1.0177122      4455.7805     -152.22683     -4.6924513     -8.1634837e-14 -7.5111307e-14 -152.22683     -3.1349229e-13
    134250   1426.3882      251.96435      1174.4238      307.37752      6141.9078      1.0177122      4455.7805     -155.39811     -4.6924513     -8.1750006e-14 -7.5110898e-14 -155.39811     -3.1372181e-13
    134500   1415.711       254.76024      1160.9508      310.78829      8300.775       1.0177122      4455.7805     -150.14699     -4.6924513     -8.1676754e-14 -7.5110121e-14 -150.14699     -3.1357375e-13
    134750   1413.7346      259.72602      1154.0085      316.84617      4568.4983      1.0177122      4455.7805     -156.18849     -4.6924513     -8.155576e-14  -7.5112407e-14 -156.18849     -3.1333633e-13
    135000   1418.2173      264.12335      1154.094       322.21059      12593.774      1.0177122      4455.7805     -147.35816     -4.6924513     -8.1873843e-14 -7.5110835e-14 -147.35816     -3.1396936e-13
    135250   1396.8119      232.80085      1164.011       283.9995       3418.7641      1.0177122      4455.7805     -153.11924     -4.6924513     -8.1490119e-14 -7.5110537e-14 -153.11924     -3.1320131e-13
    135500   1390.2215      240.40456      1149.8169      293.27545      5445.9395      1.0177122      4455.7805     -155.75252     -4.6924513     -8.1495034e-14 -7.5110295e-14 -155.75252     -3.1321066e-13
    135750   1410.4369      259.91464      1150.5223      317.07627      9681.2682      1.0177122      4455.7805     -149.18688     -4.6924513     -8.1668714e-14 -7.5108955e-14 -149.18688     -3.1355534e-13
    136000   1399.1434      250.53405      1148.6094      305.63266      4381.1255      1.0177122      4455.7805     -150.19954     -4.6924513     -8.1679218e-14 -7.5111789e-14 -150.19954     -3.1358201e-13
    136250   1428.639       277.71268      1150.9264      338.78854      5630.4669      1.0177122      4455.7805     -152.33331     -4.6924513     -8.1557961e-14 -7.5113911e-14 -152.33331     -3.1334374e-13
    136500   1386.1294      232.11914      1154.0103      283.16786      8361.8321      1.0177122      4455.7805     -157.55593     -4.6924513     -8.1521055e-14 -7.510746e-14  -157.55593     -3.1325703e-13
    136750   1396.5984      248.40138      1148.197       303.03096      2511.1297      1.0177122      4455.7805     -152.5021      -4.6924513     -8.1362803e-14 -7.5111289e-14 -152.5021      -3.1294818e-13
    137000   1377.0609      242.14715      1134.9137      295.40128      7497.7106      1.0177122      4455.7805     -157.84039     -4.6924513     -8.1691667e-14 -7.5111772e-14 -157.84039     -3.1360688e-13
    137250   1415.694       250.35838      1165.3356      305.41835      12477.763      1.0177122      4455.7805     -149.91284     -4.6924513     -8.1892556e-14 -7.510888e-14  -149.91284     -3.1400287e-13
    137500   1430.7114      249.40104      1181.3104      304.25048      5062.5301      1.0177122      4455.7805     -152.29136     -4.6924513     -8.1891173e-14 -7.5109049e-14 -152.29136     -3.1400044e-13
    137750   1428.1156      258.45578      1169.6598      315.29657      8225.4905      1.0177122      4455.7805     -153.96986     -4.6924513     -8.1604844e-14 -7.5110501e-14 -153.96986     -3.1343069e-13
    138000   1431.91        272.73408      1159.176       332.71503      5200.6727      1.0177122      4455.7805     -146.8182      -4.6924513     -8.1570217e-14 -7.5110248e-14 -146.8182      -3.1336093e-13
    138250   1412.2396      242.01366      1170.2259      295.23843      7584.2929      1.0177122      4455.7805     -138.84554     -4.6924513     -8.1661971e-14 -7.5109896e-14 -138.84554     -3.1354373e-13
    138500   1406.3203      264.41085      1141.9094      322.56131      6814.0156      1.0177122      4455.7805     -151.35504     -4.6924513     -8.1410869e-14 -7.5113026e-14 -151.35504     -3.1304779e-13
    138750   1389.6541      240.71942      1148.9347      293.65955      8261.2197      1.0177122      4455.7805     -148.18167     -4.6924513     -8.1675528e-14 -7.5110984e-14 -148.18167     -3.1357302e-13
    139000   1440.0386      268.17806      1171.8606      327.15702      4142.4672      1.0177122      4455.7805     -151.98134     -4.6924513     -8.1506187e-14 -7.5108883e-14 -151.98134     -3.1323014e-13
    139250   1397.5772      243.80537      1153.7718      297.42418      3963.5386      1.0177122      4455.7805     -146.03048     -4.6924513     -8.1703828e-14 -7.5108387e-14 -146.03048     -3.1362443e-13
    139500   1410.5318      249.12788      1161.4039      303.91724      6512.8601      1.0177122      4455.7805     -155.58888     -4.6924513     -8.1844723e-14 -7.5107773e-14 -155.58888     -3.1390499e-13
    139750   1423.6692      278.40432      1145.2649      339.63229      3902.9485      1.0177122      4455.7805     -157.47217     -4.6924513     -8.154285e-14  -7.5109641e-14 -157.47217     -3.1330498e-13
    140000   1389.5253      227.94544      1161.5798      278.07626      3351.2267      1.0177122      4455.7805     -153.87587     -4.6924513     -8.1514533e-14 -7.5111816e-14 -153.87587     -3.132527e-13 
    140250   1416.5207      248.83542      1167.6853      303.56046      11316.506      1.0177122      4455.7805     -149.93013     -4.6924513     -8.1981517e-14 -7.5107266e-14 -149.93013     -3.1417757e-13
    140500   1389.0551      241.08904      1147.966       294.11046      6286.8747      1.0177122      4455.7805     -147.89939     -4.6924513     -8.1707234e-14 -7.5112151e-14 -147.89939     -3.1363877e-13
    140750   1359.7073      226.7606       1132.9467      276.63084      5502.3796      1.0177122      4455.7805     -152.23535     -4.6924513     -8.1829911e-14 -7.511044e-14  -152.23535     -3.138807e-13 
    141000   1393.8179      221.81784      1172.0001      270.60105      4527.0222      1.0177122      4455.7805     -144.59302     -4.6924513     -8.1568413e-14 -7.5110446e-14 -144.59302     -3.1335772e-13
    141250   1385.7935      247.44827      1138.3452      301.86825      3116.45        1.0177122      4455.7805     -157.21918     -4.6924513     -8.1368199e-14 -7.5111701e-14 -157.21918     -3.129598e-13 
    141500   1374.7792      245.08764      1129.6916      298.98845      5104.5564      1.0177122      4455.7805     -155.98958     -4.6924513     -8.1682993e-14 -7.5110869e-14 -155.98958     -3.1358772e-13
    141750   1407.3483      259.77026      1147.5781      316.90014      5773.8512      1.0177122      4455.7805     -152.00644     -4.6924513     -8.1736658e-14 -7.5111268e-14 -152.00644     -3.1369585e-13
    142000   1417.615       264.38967      1153.2253      322.53547      7664.0469      1.0177122      4455.7805     -153.06424     -4.6924513     -8.1666304e-14 -7.5111201e-14 -153.06424     -3.1355501e-13
    142250   1410.926       254.74029      1156.1857      310.76396      5653.1849      1.0177122      4455.7805     -151.59125     -4.6924513     -8.1625321e-14 -7.5112352e-14 -151.59125     -3.1347535e-13
    142500   1409.084       242.39289      1166.6911      295.70106      6275.8412      1.0177122      4455.7805     -153.67608     -4.6924513     -8.151199e-14  -7.5112691e-14 -153.67608     -3.1324936e-13
    142750   1405.3675      236.01761      1169.3499      287.9237       10660.128      1.0177122      4455.7805     -150.95999     -4.6924513     -8.1668575e-14 -7.5111644e-14 -150.95999     -3.1356044e-13
    143000   1414.7319      257.34906      1157.3828      313.94646      5136.7494      1.0177122      4455.7805     -150.90486     -4.6924513     -8.1597679e-14 -7.5113125e-14 -150.90486     -3.1342161e-13
    143250   1410.7655      240.07134      1170.6942      292.86895      6735.4098      1.0177122      4455.7805     -151.67223     -4.6924513     -8.1807995e-14 -7.5109981e-14 -151.67223     -3.1383595e-13
    143500   1417.3671      259.03449      1158.3326      316.00256      6717.3478      1.0177122      4455.7805     -153.79781     -4.6924513     -8.1937172e-14 -7.5111632e-14 -153.79781     -3.1409761e-13
    143750   1399.8998      257.38159      1142.5183      313.98614      8616.6114      1.0177122      4455.7805     -152.48103     -4.6924513     -8.1656818e-14 -7.5111325e-14 -152.48103     -3.1353629e-13
    144000   1414.8854      260.45733      1154.4281      317.73832      4035.931       1.0177122      4455.7805     -151.58573     -4.6924513     -8.1670986e-14 -7.5109228e-14 -151.58573     -3.1356043e-13
    144250   1384.6967      228.55162      1156.1451      278.81575      7782.9998      1.0177122      4455.7805     -148.71981     -4.6924513     -8.1570659e-14 -7.5112508e-14 -148.71981     -3.1336633e-13
    144500   1422.6823      266.14546      1156.5369      324.67741     -142.72444      1.0177122      4455.7805     -149.51138     -4.6924513     -8.1645573e-14 -7.5107729e-14 -149.51138     -3.135066e-13 
    144750   1402.8441      252.37299      1150.4711      307.87603      6425.6541      1.0177122      4455.7805     -155.95822     -4.6924513     -8.164479e-14  -7.5111772e-14 -155.95822     -3.1351312e-13
    145000   1409.8254      248.7588       1161.0666      303.467        4314.4951      1.0177122      4455.7805     -151.36472     -4.6924513     -8.1631208e-14 -7.510957e-14  -151.36472     -3.1348156e-13
    145250   1381.562       248.88882      1132.6732      303.6256       5786.0119      1.0177122      4455.7805     -154.84465     -4.6924513     -8.1368763e-14 -7.5110785e-14 -154.84465     -3.129591e-13 
    145500   1385.2003      240.83765      1144.3626      293.80378      3900.7801      1.0177122      4455.7805     -147.51048     -4.6924513     -8.1539784e-14 -7.5113913e-14 -147.51048     -3.1330739e-13
    145750   1391.6133      260.16363      1131.4497      317.38003      8066.4365      1.0177122      4455.7805     -148.91945     -4.6924513     -8.1960802e-14 -7.5111907e-14 -148.91945     -3.1414542e-13
    146000   1379.0278      239.04061      1139.9872      291.61154      7156.4578      1.0177122      4455.7805     -149.78413     -4.6924513     -8.1547218e-14 -7.5111736e-14 -149.78413     -3.1331791e-13
    146250   1407.6728      247.19079      1160.482       301.55414      8176.0182      1.0177122      4455.7805     -149.14752     -4.6924513     -8.158496e-14  -7.5110979e-14 -149.14752     -3.1339188e-13
    146500   1394.9355      246.11716      1148.8183      300.24439      10047.654      1.0177122      4455.7805     -152.0398      -4.6924513     -8.1789339e-14 -7.510653e-14  -152.0398      -3.1379174e-13
    146750   1414.1695      268.16689      1146.0026      327.1434       6871.1934      1.0177122      4455.7805     -146.83844     -4.6924513     -8.1585476e-14 -7.5113066e-14 -146.83844     -3.1339708e-13
    147000   1432.6982      258.18969      1174.5085      314.97196      8239.473       1.0177122      4455.7805     -152.28639     -4.6924513     -8.1711761e-14 -7.5109798e-14 -152.28639     -3.1364312e-13
    147250   1393.9933      241.33731      1152.656       294.41333      6256.7645      1.0177122      4455.7805     -156.38143     -4.6924513     -8.1503854e-14 -7.5111173e-14 -156.38143     -3.1323005e-13
    147500   1408.3495      235.24671      1173.1028      286.98326      7268.4947      1.0177122      4455.7805     -142.9399      -4.6924513     -8.1841908e-14 -7.5111191e-14 -142.9399      -3.139062e-13 
    147750   1390.1403      240.86206      1149.2783      293.83357      6956.465       1.0177122      4455.7805     -154.42232     -4.6924513     -8.2152641e-14 -7.5113684e-14 -154.42232     -3.1453265e-13
    148000   1396.6602      247.73138      1148.9289      302.21361      8801.236       1.0177122      4455.7805     -155.03585     -4.6924513     -8.1655519e-14 -7.510677e-14  -155.03585     -3.1352458e-13
    148250   1416.8752      260.41013      1156.4651      317.68073      11192.986      1.0177122      4455.7805     -153.06791     -4.6924513     -8.1579212e-14 -7.5108821e-14 -153.06791     -3.1337607e-13
    148500   1418.808       261.15198      1157.656       318.58574      2605.1358      1.0177122      4455.7805     -147.20656     -4.6924513     -8.141601e-14  -7.5112214e-14 -147.20656     -3.1305645e-13
    148750   1421.6345      258.69588      1162.9386      315.58947      6907.4105      1.0177122      4455.7805     -151.98983     -4.6924513     -8.1723989e-14 -7.5104293e-14 -151.98983     -3.1365656e-13
    149000   1380.9296      242.35846      1138.5711      295.65906      6153.2629      1.0177122      4455.7805     -156.05128     -4.6924513     -8.1945227e-14 -7.5110193e-14 -156.05128     -3.1411084e-13
    149250   1433.2301      275.95179      1157.2783      336.64039      6488.3498      1.0177122      4455.7805     -156.67717     -4.6924513     -8.1579699e-14 -7.5112952e-14 -156.67717     -3.133853e-13 
    149500   1424.0129      252.9719       1171.041       308.60665      7794.4419      1.0177122      4455.7805     -145.37733     -4.6924513     -8.1780247e-14 -7.5109508e-14 -145.37733     -3.1377951e-13
    149750   1407.0741      249.69254      1157.3815      304.60608      7292.8571      1.0177122      4455.7805     -153.90228     -4.6924513     -8.1667411e-14 -7.511233e-14  -153.90228     -3.1355948e-13
    150000   1401.0405      236.30296      1164.7375      288.2718       7153.5692      1.0177122      4455.7805     -143.51165     -4.6924513     -8.2047551e-14 -7.51124e-14   -143.51165     -3.143199e-13 
    150250   1394.1122      237.00066      1157.1115      289.12294      6441.9739      1.0177122      4455.7805     -148.92535     -4.6924513     -8.1545137e-14 -7.5107791e-14 -148.92535     -3.1330586e-13
    150500   1411.17        270.7831       1140.3869      330.33498      5970.3651      1.0177122      4455.7805     -154.5303      -4.6924513     -8.1791867e-14 -7.5111288e-14 -154.5303      -3.1380631e-13
    150750   1417.0191      269.69545      1147.3236      329.00813      7648.8623      1.0177122      4455.7805     -156.93035     -4.6924513     -8.1357859e-14 -7.5106454e-14 -156.93035     -3.1292863e-13
    151000   1417.3482      245.22039      1172.1278      299.15039      1748.9653      1.0177122      4455.7805     -149.75375     -4.6924513     -8.1397928e-14 -7.5109604e-14 -149.75375     -3.1301506e-13
    151250   1408.6706      246.37567      1162.2949      300.55975      10771.565      1.0177122      4455.7805     -146.33776     -4.6924513     -8.15004e-14   -7.5113261e-14 -146.33776     -3.1322732e-13
    151500   1404.8178      267.12243      1137.6954      325.86924      11528.047      1.0177122      4455.7805     -152.87015     -4.6924513     -8.1711075e-14 -7.5112427e-14 -152.87015     -3.13647e-13  
    151750   1413.3408      269.92929      1143.4116      329.29339      7718.0056      1.0177122      4455.7805     -154.38829     -4.6924513     -8.1569962e-14 -7.5110698e-14 -154.38829     -3.1336132e-13
    152000   1423.0053      250.54638      1172.4589      305.6477       5755.4701      1.0177122      4455.7805     -151.76966     -4.6924513     -8.1731496e-14 -7.51095e-14   -151.76966     -3.1368199e-13
    152250   1421.2889      264.8502       1156.4387      323.09729      7113.7149      1.0177122      4455.7805     -147.33658     -4.6924513     -8.1497442e-14 -7.5111767e-14 -147.33658     -3.1321842e-13
    152500   1395.1464      263.34614      1131.8002      321.26245      5938.2692      1.0177122      4455.7805     -150.48968     -4.6924513     -8.1581067e-14 -7.5110339e-14 -150.48968     -3.1338281e-13
    152750   1402.1033      246.31168      1155.7916      300.48169      6961.3882      1.0177122      4455.7805     -151.38257     -4.6924513     -8.149407e-14  -7.5111104e-14 -151.38257     -3.1321035e-13
    153000   1401.7078      245.68986      1156.0179      299.72312      8670.8136      1.0177122      4455.7805     -144.46015     -4.6924513     -8.1564269e-14 -7.5108979e-14 -144.46015     -3.1334649e-13
    153250   1396.6402      251.18138      1145.4588      306.42236      6754.6626      1.0177122      4455.7805     -142.20341     -4.6924513     -8.1621585e-14 -7.5110162e-14 -142.20341     -3.1346349e-13
    153500   1413.94        245.78126      1168.1587      299.83462      6024.4371      1.0177122      4455.7805     -146.56488     -4.6924513     -8.159333e-14  -7.5110243e-14 -146.56488     -3.1340714e-13
    153750   1387.718       243.37916      1144.3388      296.90424      5680.638       1.0177122      4455.7805     -149.33484     -4.6924513     -8.1753806e-14 -7.5112141e-14 -149.33484     -3.1373189e-13
    154000   1444.8282      269.62898      1175.1993      328.92704      10116.722      1.0177122      4455.7805     -153.01077     -4.6924513     -8.2205156e-14 -7.5113244e-14 -153.01077     -3.146368e-13 
    154250   1424.0774      255.45667      1168.6207      311.63788      3001.758       1.0177122      4455.7805     -151.05769     -4.6924513     -8.1471464e-14 -7.5113079e-14 -151.05769     -3.1316909e-13
    154500   1427.4363      273.56914      1153.8672      333.73373      9505.0018      1.0177122      4455.7805     -152.94606     -4.6924513     -8.1602297e-14 -7.5111698e-14 -152.94606     -3.1342799e-13
    154750   1365.1876      235.0292       1130.1584      286.71791      12565.177      1.0177122      4455.7805     -158.31034     -4.6924513     -8.210961e-14  -7.5113465e-14 -158.31034     -3.1444615e-13
    155000   1397.6106      249.57683      1148.0338      304.46493      4953.8261      1.0177122      4455.7805     -146.35296     -4.6924513     -8.1582905e-14 -7.5111869e-14 -146.35296     -3.1338955e-13
    155250   1400.8845      254.32454      1146.56        310.25677      5775.1613      1.0177122      4455.7805     -142.4451      -4.6924513     -8.1981196e-14 -7.5113158e-14 -142.4451      -3.1418871e-13
    155500   1439.987       282.99481      1156.9922      345.23234      6125.3962      1.0177122      4455.7805     -154.93374     -4.6924513     -8.1994951e-14 -7.5109738e-14 -154.93374     -3.1420938e-13
    155750   1422.4076      255.80602      1166.6016      312.06406      6108.553       1.0177122      4455.7805     -144.36369     -4.6924513     -8.1646775e-14 -7.511054e-14  -144.36369     -3.1351463e-13
    156000   1413.5781      260.26681      1153.3113      317.5059       1306.6817      1.0177122      4455.7805     -149.54275     -4.6924513     -8.1347805e-14 -7.5113796e-14 -149.54275     -3.129232e-13 
    156250   1408.1033      246.12082      1161.9825      300.24886      5877.1999      1.0177122      4455.7805     -147.86266     -4.6924513     -8.1627309e-14 -7.5112288e-14 -147.86266     -3.1347919e-13
    156500   1422.6266      252.61534      1170.0113      308.17168      9749.5822      1.0177122      4455.7805     -155.93902     -4.6924513     -8.2032752e-14 -7.5107645e-14 -155.93902     -3.1428079e-13
    156750   1416.033       261.51439      1154.5186      319.02785      4862.7949      1.0177122      4455.7805     -155.25475     -4.6924513     -8.1722138e-14 -7.5110518e-14 -155.25475     -3.1366531e-13
    157000   1416.7631      248.8467       1167.9164      303.57423      9834.1571      1.0177122      4455.7805     -146.64162     -4.6924513     -8.2128024e-14 -7.5110971e-14 -146.64162     -3.1447799e-13
    157250   1416.0247      256.60894      1159.4157      313.04357      5539.9485      1.0177122      4455.7805     -147.99875     -4.6924513     -8.1722421e-14 -7.5111053e-14 -147.99875     -3.1366695e-13
    157500   1377.5239      229.7462       1147.7777      280.27305      8412.3846      1.0177122      4455.7805     -151.71178     -4.6924513     -8.1600779e-14 -7.5110097e-14 -151.71178     -3.1342175e-13
    157750   1402.8         252.34226      1150.4578      307.83855      6047.7219      1.0177122      4455.7805     -141.66892     -4.6924513     -8.1778043e-14 -7.5113192e-14 -141.66892     -3.1378247e-13
    158000   1399.3668      232.64595      1166.7208      283.81053      4349.9101      1.0177122      4455.7805     -153.19525     -4.6924513     -8.1486688e-14 -7.5112758e-14 -153.19525     -3.1319889e-13
    158250   1395.6809      256.73568      1138.9453      313.19819      5514.0763      1.0177122      4455.7805     -153.50789     -4.6924513     -8.2068438e-14 -7.5113324e-14 -153.50789     -3.1436353e-13
    158500   1392.4272      253.86721      1138.56        309.69887      4565.7852      1.0177122      4455.7805     -152.20236     -4.6924513     -8.1969726e-14 -7.5111898e-14 -152.20236     -3.1416325e-13
    158750   1411.7729      243.88781      1167.8851      297.52475      2329.5964      1.0177122      4455.7805     -159.02223     -4.6924513     -8.1299348e-14 -7.5111288e-14 -159.02223     -3.1282127e-13
    159000   1394.09        243.0437       1151.0463      296.495        7027.1481      1.0177122      4455.7805     -159.1959      -4.6924513     -8.1934931e-14 -7.5111957e-14 -159.1959      -3.1409378e-13
    159250   1419.2726      257.12638      1162.1463      313.6748       9414.8525      1.0177122      4455.7805     -150.83666     -4.6924513     -8.1650342e-14 -7.5111824e-14 -150.83666     -3.1352433e-13
    159500   1447.6413      265.2236       1182.4177      323.55281      4624.9313      1.0177122      4455.7805     -151.83229     -4.6924513     -8.1566081e-14 -7.5111618e-14 -151.83229     -3.133554e-13 
    159750   1415.2504      249.2757       1165.9746      304.09757      7440.0908      1.0177122      4455.7805     -147.35341     -4.6924513     -8.1649675e-14 -7.511112e-14  -147.35341     -3.1352159e-13
    160000   1387.9081      242.7004       1145.2077      296.0762       8517.3473      1.0177122      4455.7805     -144.98929     -4.6924513     -8.1853704e-14 -7.5111441e-14 -144.98929     -3.1393029e-13
    160250   1381.6592      232.19605      1149.4632      283.26169      1742.8817      1.0177122      4455.7805     -150.52019     -4.6924513     -8.1691845e-14 -7.5111559e-14 -150.52019     -3.1360681e-13
    160500   1391.4643      262.86422      1128.6001      320.67455      9640.9499      1.0177122      4455.7805     -158.72108     -4.6924513     -8.1696563e-14 -7.5110404e-14 -158.72108     -3.1361393e-13
    160750   1391.2198      236.64679      1154.5731      288.69125      8291.7247      1.0177122      4455.7805     -152.60756     -4.6924513     -8.1605432e-14 -7.5110622e-14 -152.60756     -3.1343211e-13
    161000   1395.9699      250.68904      1145.2808      305.82174      2566.5149      1.0177122      4455.7805     -156.57029     -4.6924513     -8.1645664e-14 -7.5111829e-14 -156.57029     -3.1351498e-13
    161250   1438.8556      260.37103      1178.4845      317.63303      7517.8537      1.0177122      4455.7805     -141.7301      -4.6924513     -8.1884769e-14 -7.5108311e-14 -141.7301      -3.1398616e-13
    161500   1395.8615      248.56066      1147.3009      303.22527      6488.1555      1.0177122      4455.7805     -149.10292     -4.6924513     -8.1939101e-14 -7.5112066e-14 -149.10292     -3.1410233e-13
    161750   1389.1818      244.70783      1144.474       298.52511      9673.1321      1.0177122      4455.7805     -154.92864     -4.6924513     -8.1767876e-14 -7.5108367e-14 -154.92864     -3.1375249e-13
    162000   1406.7373      262.87266      1143.8647      320.68483      8947.8326      1.0177122      4455.7805     -155.55038     -4.6924513     -8.157473e-14  -7.5112427e-14 -155.55038     -3.1337431e-13
    162250   1384.3527      237.60202      1146.7507      289.85657      3846.1256      1.0177122      4455.7805     -156.835       -4.6924513     -8.136577e-14  -7.511278e-14  -156.835       -3.129571e-13 
    162500   1402.5306      255.06027      1147.4703      311.15431      8754.035       1.0177122      4455.7805     -148.91956     -4.6924513     -8.1932943e-14 -7.5113153e-14 -148.91956     -3.1409219e-13
    162750   1419.6075      252.63425      1166.9732      308.19475      2752.2037      1.0177122      4455.7805     -146.5881      -4.6924513     -8.1593728e-14 -7.5109457e-14 -146.5881      -3.1340637e-13
    163000   1399.699       245.69548      1154.0035      299.72998      6197.8666      1.0177122      4455.7805     -150.32435     -4.6924513     -8.1658683e-14 -7.5105667e-14 -150.32435     -3.135287e-13 
    163250   1396.2925      247.95095      1148.3416      302.48148      8751.1893      1.0177122      4455.7805     -148.77534     -4.6924513     -8.1792958e-14 -7.5112945e-14 -148.77534     -3.1381181e-13
    163500   1424.7495      256.80682      1167.9426      313.28496      7906.3635      1.0177122      4455.7805     -149.64162     -4.6924513     -8.1517642e-14 -7.5112339e-14 -149.64162     -3.1325996e-13
    163750   1415.7895      245.78994      1169.9996      299.84521      3426.5848      1.0177122      4455.7805     -149.95641     -4.6924513     -8.1702723e-14 -7.5113218e-14 -149.95641     -3.1363188e-13
    164000   1412.1062      253.77893      1158.3273      309.59117      5198.5278      1.0177122      4455.7805     -153.38119     -4.6924513     -8.1873689e-14 -7.5108794e-14 -153.38119     -3.1396497e-13
    164250   1456.2969      265.33455      1190.9624      323.68815      5371.3335      1.0177122      4455.7805     -145.58911     -4.6924513     -8.1774274e-14 -7.5108752e-14 -145.58911     -3.1376605e-13
    164500   1402.5102      249.79323      1152.7169      304.72891      9327.8338      1.0177122      4455.7805     -147.54733     -4.6924513     -8.1840752e-14 -7.5111606e-14 -147.54733     -3.1390472e-13
    164750   1413.3086      249.96494      1163.3436      304.93839      9735.7695      1.0177122      4455.7805     -146.32888     -4.6924513     -8.1747084e-14 -7.510961e-14  -146.32888     -3.1371339e-13
    165000   1417.5728      249.26624      1168.3066      304.08603      4939.9983      1.0177122      4455.7805     -153.13426     -4.6924513     -8.1758135e-14 -7.5111093e-14 -153.13426     -3.1373846e-13
    165250   1418.9658      265.39331      1153.5725      323.75983      9035.9762      1.0177122      4455.7805     -152.0245      -4.6924513     -8.1787097e-14 -7.5110394e-14 -152.0245      -3.1379498e-13
    165500   1374.2084      224.2755       1149.9329      273.59921      7029.033       1.0177122      4455.7805     -155.45439     -4.6924513     -8.1687195e-14 -7.51133e-14   -155.45439     -3.1360099e-13
    165750   1384.1278      241.93725      1142.1906      295.14521      6380.1694      1.0177122      4455.7805     -154.81764     -4.6924513     -8.1082667e-14 -7.5108315e-14 -154.81764     -3.1238196e-13
    166000   1378.3486      244.01555      1134.333       297.68058      8164.5991      1.0177122      4455.7805     -147.63815     -4.6924513     -8.190001e-14  -7.5112449e-14 -147.63815     -3.1402492e-13
    166250   1388.8285      240.43228      1148.3962      293.30927      8142.1837      1.0177122      4455.7805     -151.87815     -4.6924513     -8.1871542e-14 -7.5113036e-14 -151.87815     -3.1396916e-13
    166500   1388.1297      250.80453      1137.3252      305.96263      2689.3719      1.0177122      4455.7805     -148.08666     -4.6924513     -8.1250493e-14 -7.5110703e-14 -148.08666     -3.1272239e-13
    166750   1391.5527      249.58709      1141.9656      304.47744      5393.3349      1.0177122      4455.7805     -146.23074     -4.6924513     -8.1903561e-14 -7.5112338e-14 -146.23074     -3.140318e-13 
    167000   1371.6183      227.11753      1144.5007      277.06627      3590.7131      1.0177122      4455.7805     -154.4422      -4.6924513     -8.1442588e-14 -7.5111861e-14 -154.4422      -3.131089e-13 
    167250   1402.193       255.46562      1146.7273      311.6488       8154.5446      1.0177122      4455.7805     -147.7365      -4.6924513     -8.1617717e-14 -7.5112311e-14 -147.7365      -3.1346005e-13
    167500   1400.2914      249.83791      1150.4535      304.78343      5425.6364      1.0177122      4455.7805     -152.12653     -4.6924513     -8.1652224e-14 -7.5111543e-14 -152.12653     -3.1352753e-13
    167750   1439.7897      261.12863      1178.6611      318.55725      9299.0719      1.0177122      4455.7805     -150.68018     -4.6924513     -8.1880514e-14 -7.5111084e-14 -150.68018     -3.139832e-13 
    168000   1409.3831      269.01409      1140.369       328.17692      8119.2894      1.0177122      4455.7805     -155.13746     -4.6924513     -8.1889309e-14 -7.5110557e-14 -155.13746     -3.1399973e-13
    168250   1393.5922      233.00009      1160.5921      284.24255      5948.26        1.0177122      4455.7805     -148.94004     -4.6924513     -8.1730121e-14 -7.5109053e-14 -148.94004     -3.1367835e-13
    168500   1414.9029      262.89922      1152.0037      320.71724      5579.8543      1.0177122      4455.7805     -148.1406      -4.6924513     -8.1828502e-14 -7.5109962e-14 -148.1406      -3.1387693e-13
    168750   1383.2091      257.35394      1125.8551      313.95242      3118.6251      1.0177122      4455.7805     -157.64381     -4.6924513     -8.1864946e-14 -7.5111209e-14 -157.64381     -3.1395231e-13
    169000   1393.5208      238.82621      1154.6946      291.34998      4238.5826      1.0177122      4455.7805     -156.77799     -4.6924513     -8.1637903e-14 -7.5105989e-14 -156.77799     -3.1348778e-13
    169250   1407.4967      245.37202      1162.1247      299.33538      8511.2142      1.0177122      4455.7805     -155.86735     -4.6924513     -8.165713e-14  -7.5109967e-14 -155.86735     -3.1353419e-13
    169500   1405.9965      252.98761      1153.0089      308.62582      5298.823       1.0177122      4455.7805     -144.96433     -4.6924513     -8.1959659e-14 -7.5111572e-14 -144.96433     -3.1414246e-13
    169750   1364.3372      229.78018      1134.557       280.3145       9226.318       1.0177122      4455.7805     -156.79404     -4.6924513     -8.1679545e-14 -7.5112702e-14 -156.79404     -3.1358449e-13
    170000   1412.7073      242.20439      1170.5029      295.47111      3022.6931      1.0177122      4455.7805     -160.24391     -4.6924513     -8.161755e-14  -7.5112833e-14 -160.24391     -3.1346077e-13
    170250   1385.6482      240.10317      1145.545       292.90778      5815.0962      1.0177122      4455.7805     -147.10779     -4.6924513     -8.1821868e-14 -7.5110665e-14 -147.10779     -3.1386507e-13
    170500   1398.1709      232.09456      1166.0764      283.13788      6809.4702      1.0177122      4455.7805     -150.94704     -4.6924513     -8.176884e-14  -7.5110039e-14 -150.94704     -3.1375776e-13
    170750   1412.2424      260.53794      1151.7044      317.83665      5865.0374      1.0177122      4455.7805     -150.6669      -4.6924513     -8.1942995e-14 -7.5110352e-14 -150.6669      -3.1410669e-13
    171000   1420.7024      251.72174      1168.9807      307.08156      7428.5003      1.0177122      4455.7805     -160.07728     -4.6924513     -8.1499155e-14 -7.5112546e-14 -160.07728     -3.132234e-13 
    171250   1403.1316      253.10275      1150.0288      308.76629      6124.1377      1.0177122      4455.7805     -155.14252     -4.6924513     -8.1871031e-14 -7.5109958e-14 -155.14252     -3.1396198e-13
    171500   1399.4416      241.19688      1158.2447      294.24202      4081.6348      1.0177122      4455.7805     -154.91742     -4.6924513     -8.1605048e-14 -7.5110774e-14 -154.91742     -3.1343164e-13
    171750   1430.6852      268.33152      1162.3537      327.34423      7050.0243      1.0177122      4455.7805     -148.12846     -4.6924513     -8.1475454e-14 -7.5110211e-14 -148.12846     -3.1317133e-13
    172000   1393.5772      249.38168      1144.1955      304.22686      7020.3942      1.0177122      4455.7805     -157.97634     -4.6924513     -8.1836487e-14 -7.511009e-14  -157.97634     -3.1389315e-13
    172250   1417.6718      271.63496      1146.0368      331.37419      4086.7905      1.0177122      4455.7805     -159.08754     -4.6924513     -8.1792338e-14 -7.510823e-14  -159.08754     -3.1380114e-13
    172500   1416.1013      253.84009      1162.2612      309.66578      7035.2895      1.0177122      4455.7805     -153.94003     -4.6924513     -8.1641959e-14 -7.5112835e-14 -153.94003     -3.1350959e-13
    172750   1432.028       255.66811      1176.3599      311.89583      8235.8528      1.0177122      4455.7805     -147.66172     -4.6924513     -8.1735332e-14 -7.5109124e-14 -147.66172     -3.1368891e-13
    173000   1372.4483      232.54186      1139.9065      283.68354      6859.3656      1.0177122      4455.7805     -151.54042     -4.6924513     -8.1769921e-14 -7.5111711e-14 -151.54042     -3.1376326e-13
    173250   1409.7814      239.88762      1169.8937      292.64482      4220.3548      1.0177122      4455.7805     -146.69609     -4.6924513     -8.1745523e-14 -7.5110737e-14 -146.69609     -3.1371252e-13
    173500   1432.7867      272.76865      1160.018       332.7572       5509.9321      1.0177122      4455.7805     -142.72444     -4.6924513     -8.1880368e-14 -7.5109963e-14 -142.72444     -3.1398066e-13
    173750   1382.1455      243.42483      1138.7207      296.95995      5506.333       1.0177122      4455.7805     -147.20114     -4.6924513     -8.1697422e-14 -7.5110904e-14 -147.20114     -3.1361665e-13
    174000   1384.965       241.15048      1143.8145      294.18541      3286.5742      1.0177122      4455.7805     -158.84503     -4.6924513     -8.1614834e-14 -7.5107446e-14 -158.84503     -3.1344456e-13
    174250   1417.959       262.64018      1155.3188      320.40123      11911.724      1.0177122      4455.7805     -152.00738     -4.6924513     -8.1924596e-14 -7.5110812e-14 -152.00738     -3.1407082e-13
    174500   1402.2128      236.85776      1165.355       288.94862      5486.7063      1.0177122      4455.7805     -154.37735     -4.6924513     -8.1629467e-14 -7.5112151e-14 -154.37735     -3.1348324e-13
    174750   1413.9267      260.18956      1153.7372      317.41165      5202.4171      1.0177122      4455.7805     -148.75293     -4.6924513     -8.1709426e-14 -7.5112673e-14 -148.75293     -3.136442e-13 
    175000   1399.3977      240.21263      1159.1851      293.04131      4977.5317      1.0177122      4455.7805     -153.59851     -4.6924513     -8.1832281e-14 -7.5108284e-14 -153.59851     -3.1388113e-13
    175250   1387.9619      251.29317      1136.6687      306.55874      8800.0159      1.0177122      4455.7805     -143.62408     -4.6924513     -8.1733938e-14 -7.5112587e-14 -143.62408     -3.1369305e-13
    175500   1428.0827      268.16591      1159.9167      327.1422       7468.9902      1.0177122      4455.7805     -142.65143     -4.6924513     -8.1646046e-14 -7.5111865e-14 -142.65143     -3.1351582e-13
    175750   1411.4089      234.04507      1177.3638      285.51735      6619.1078      1.0177122      4455.7805     -152.05617     -4.6924513     -8.1686717e-14 -7.5113186e-14 -152.05617     -3.1359981e-13
    176000   1404.0254      252.9593       1151.0661      308.59128      4089.5348      1.0177122      4455.7805     -157.6582      -4.6924513     -8.1574802e-14 -7.5110647e-14 -157.6582      -3.133709e-13 
    176250   1401.987       249.28369      1152.7033      304.10732      9700.9164      1.0177122      4455.7805     -161.61709     -4.6924513     -8.1747301e-14 -7.5107387e-14 -161.61709     -3.1370938e-13
    176500   1400.4429      248.60283      1151.84        303.27672      6448.076       1.0177122      4455.7805     -151.85542     -4.6924513     -8.192877e-14  -7.5113277e-14 -151.85542     -3.1408409e-13
    176750   1423.6516      268.62494      1155.0267      327.70218      3099.504       1.0177122      4455.7805     -157.1405      -4.6924513     -8.1427592e-14 -7.5112424e-14 -157.1405      -3.1308003e-13
    177000   1404.8173      261.83417      1142.9831      319.41795      12225.268      1.0177122      4455.7805     -155.56695     -4.6924513     -8.1982822e-14 -7.5113181e-14 -155.56695     -3.1419201e-13
    177250   1406.3941      244.42239      1161.9717      298.1769       5410.1519      1.0177122      4455.7805     -153.35379     -4.6924513     -8.1758525e-14 -7.5112204e-14 -153.35379     -3.1374146e-13
    177500   1416.8555      261.56838      1155.2871      319.09372      5376.6605      1.0177122      4455.7805     -151.67757     -4.6924513     -8.1562382e-14 -7.510938e-14  -151.67757     -3.1334353e-13
    177750   1419.7272      260.55085      1159.1763      317.8524       8147.6652      1.0177122      4455.7805     -154.1934      -4.6924513     -8.2196356e-14 -7.5108642e-14 -154.1934      -3.1461e-13   
    178000   1444.3889      262.51153      1181.8774      320.24429      10101.805      1.0177122      4455.7805     -152.78217     -4.6924513     -8.1841765e-14 -7.5111683e-14 -152.78217     -3.139069e-13 
    178250   1423.0821      261.98052      1161.1015      319.5965       8694.436       1.0177122      4455.7805     -146.49964     -4.6924513     -8.1891541e-14 -7.5111706e-14 -146.49964     -3.1400649e-13
    178500   1403.0942      260.48891      1142.6053      317.77684      4649.3336      1.0177122      4455.7805     -155.23227     -4.6924513     -8.1412352e-14 -7.5112177e-14 -155.23227     -3.1304906e-13
    178750   1409.9836      269.72889      1140.2547      329.04892      8369.9198      1.0177122      4455.7805     -153.28849     -4.6924513     -8.1529976e-14 -7.5113387e-14 -153.28849     -3.1328673e-13
    179000   1403.0138      237.65936      1165.3544      289.92651      9223.716       1.0177122      4455.7805     -153.43881     -4.6924513     -8.191956e-14  -7.5108333e-14 -153.43881     -3.1405579e-13
    179250   1399.0794      246.65014      1152.4293      300.89459      8662.0179      1.0177122      4455.7805     -146.63911     -4.6924513     -8.1761543e-14 -7.5110478e-14 -146.63911     -3.1374404e-13
    179500   1406.4328      254.88568      1151.5471      310.94132      8132.4268      1.0177122      4455.7805     -143.48811     -4.6924513     -8.185152e-14  -7.5110486e-14 -143.48811     -3.1392401e-13
    179750   1412.8475      268.57058      1144.2769      327.63587      5591.6548      1.0177122      4455.7805     -159.79212     -4.6924513     -8.1340902e-14 -7.5112878e-14 -159.79212     -3.1290756e-13
    180000   1392.6234      263.45983      1129.1636      321.40113      2872.9062      1.0177122      4455.7805     -148.32029     -4.6924513     -8.1575308e-14 -7.5109068e-14 -148.32029     -3.1336875e-13
    180250   1390.6011      239.49325      1151.1079      292.16371      5735.5912      1.0177122      4455.7805     -156.43726     -4.6924513     -8.1752305e-14 -7.5111483e-14 -156.43726     -3.1372758e-13
    180500   1422.3984      260.12349      1162.2749      317.33105      10485.199      1.0177122      4455.7805     -147.33935     -4.6924513     -8.1556693e-14 -7.5111169e-14 -147.33935     -3.1333572e-13
    180750   1433.4525      275.04723      1158.4053      335.53689      2728.8444      1.0177122      4455.7805     -147.57246     -4.6924513     -8.1780897e-14 -7.5111977e-14 -147.57246     -3.1378575e-13
    181000   1421.1507      264.22806      1156.9226      322.33833      8131.9843      1.0177122      4455.7805     -147.79305     -4.6924513     -8.1794838e-14 -7.511349e-14  -147.79305     -3.1381666e-13
    181250   1457.2541      294.07655      1163.1775      358.75124      7331.7103      1.0177122      4455.7805     -152.01136     -4.6924513     -8.1506423e-14 -7.5105296e-14 -152.01136     -3.1322344e-13
    181500   1411.5617      259.83317      1151.7285      316.97689      5131.7985      1.0177122      4455.7805     -159.99903     -4.6924513     -8.1575303e-14 -7.5110446e-14 -159.99903     -3.133715e-13 
    181750   1436.1545      265.12433      1171.0302      323.4317       8867.5659      1.0177122      4455.7805     -151.01392     -4.6924513     -8.1864216e-14 -7.5110523e-14 -151.01392     -3.1394948e-13
    182000   1400.6104      257.90182      1142.7086      314.62079      7084.737       1.0177122      4455.7805     -145.82203     -4.6924513     -8.1609162e-14 -7.5113775e-14 -145.82203     -3.1344587e-13
    182250   1398.2337      245.55327      1152.6805      299.55648      9518.9415      1.0177122      4455.7805     -149.00418     -4.6924513     -8.1912808e-14 -7.5109169e-14 -149.00418     -3.1404395e-13
    182500   1414.0076      239.94151      1174.0661      292.71056      6317.4819      1.0177122      4455.7805     -147.14595     -4.6924513     -8.1843276e-14 -7.5109172e-14 -147.14595     -3.139049e-13 
    182750   1387.511       233.56296      1153.9481      284.92922      5380.0325      1.0177122      4455.7805     -157.37252     -4.6924513     -8.1470729e-14 -7.5111784e-14 -157.37252     -3.1316503e-13
    183000   1419.4536      255.52081      1163.9327      311.71613      5425.5639      1.0177122      4455.7805     -153.17647     -4.6924513     -8.1646973e-14 -7.5110588e-14 -153.17647     -3.1351512e-13
    183250   1427.9301      257.03762      1170.8925      313.56652      7797.757       1.0177122      4455.7805     -157.10335     -4.6924513     -8.1552242e-14 -7.5111352e-14 -157.10335     -3.1332719e-13
    183500   1388.8027      237.58952      1151.2131      289.84131      8593.1637      1.0177122      4455.7805     -159.46349     -4.6924513     -8.1502301e-14 -7.5109128e-14 -159.46349     -3.1322286e-13
    183750   1398.0979      244.01913      1154.0788      297.68495      3810.8404      1.0177122      4455.7805     -152.53188     -4.6924513     -8.1534882e-14 -7.5110534e-14 -152.53188     -3.1329083e-13
    184000   1417.4992      256.63681      1160.8624      313.07756      3628.9433      1.0177122      4455.7805     -157.37711     -4.6924513     -8.1599445e-14 -7.5109553e-14 -157.37711     -3.13418e-13  
    184250   1423.0972      245.57793      1177.5193      299.58657      5966.7256      1.0177122      4455.7805     -143.39539     -4.6924513     -8.1655912e-14 -7.511196e-14  -143.39539     -3.1353574e-13
    184500   1398.8473      256.07762      1142.7696      312.3954       3530.021       1.0177122      4455.7805     -153.46973     -4.6924513     -8.1665349e-14 -7.511133e-14  -153.46973     -3.1355336e-13
    184750   1398.1451      245.79136      1152.3537      299.84694      5649.1786      1.0177122      4455.7805     -149.59412     -4.6924513     -8.1640293e-14 -7.5112342e-14 -149.59412     -3.1350527e-13
    185000   1421.8576      267.70513      1154.1525      326.58008      9461.4331      1.0177122      4455.7805     -153.25192     -4.6924513     -8.168751e-14  -7.5111795e-14 -153.25192     -3.1359861e-13
    185250   1393.407       238.39577      1155.0113      290.82488      8227.2852      1.0177122      4455.7805     -154.94789     -4.6924513     -8.1700933e-14 -7.5109485e-14 -154.94789     -3.1362084e-13
    185500   1406.4477      254.08279      1152.3649      309.96186      9053.2103      1.0177122      4455.7805     -152.01909     -4.6924513     -8.1641029e-14 -7.5112175e-14 -152.01909     -3.1350641e-13
    185750   1395.1189      252.59869      1142.5202      308.15137      7467.8689      1.0177122      4455.7805     -147.40108     -4.6924513     -8.1805778e-14 -7.5112332e-14 -147.40108     -3.1383622e-13
    186000   1382.5595      248.87066      1133.6888      303.60345      12391.673      1.0177122      4455.7805     -146.25752     -4.6924513     -8.2001119e-14 -7.51113e-14   -146.25752     -3.1422484e-13
    186250   1412.4431      249.62251      1162.8206      304.52065      6475.5117      1.0177122      4455.7805     -147.97195     -4.6924513     -8.1670204e-14 -7.5110628e-14 -147.97195     -3.1356166e-13
    186500   1390.9141      250.57042      1140.3437      305.67703      3924.7998      1.0177122      4455.7805     -152.33101     -4.6924513     -8.1597504e-14 -7.5111411e-14 -152.33101     -3.1341783e-13
    186750   1414.0302      245.04028      1168.9899      298.93068      2384.7332      1.0177122      4455.7805     -150.77238     -4.6924513     -8.1929815e-14 -7.5110547e-14 -150.77238     -3.1408072e-13
    187000   1428.5578      259.03436      1169.5235      316.0024       7318.3871      1.0177122      4455.7805     -153.03404     -4.6924513     -8.1535756e-14 -7.511159e-14  -153.03404     -3.1329469e-13
    187250   1403.9346      257.89685      1146.0377      314.61472      4611.9521      1.0177122      4455.7805     -153.49131     -4.6924513     -8.1799115e-14 -7.5109737e-14 -153.49131     -3.138177e-13 
    187500   1387.9988      244.16424      1143.8346      297.86197      2648.9737      1.0177122      4455.7805     -150.16986     -4.6924513     -8.1904615e-14 -7.5109667e-14 -150.16986     -3.1402857e-13
    187750   1398.4492      249.01789      1149.4313      303.78306      4391.6765      1.0177122      4455.7805     -151.32579     -4.6924513     -8.1624854e-14 -7.5110345e-14 -151.32579     -3.134704e-13 
    188000   1423.8671      259.58799      1164.2791      316.67778      7077.3879      1.0177122      4455.7805     -147.74857     -4.6924513     -8.1708356e-14 -7.5111647e-14 -147.74857     -3.1364e-13   
    188250   1391.9477      249.99108      1141.9567      304.97028      4060.5556      1.0177122      4455.7805     -144.90625     -4.6924513     -8.1669435e-14 -7.5111782e-14 -144.90625     -3.1356243e-13
    188500   1405.6978      249.55636      1156.1414      304.43995      7656.5152      1.0177122      4455.7805     -153.80847     -4.6924513     -8.1755708e-14 -7.5109604e-14 -153.80847     -3.1373062e-13
    188750   1403.4398      246.57452      1156.8652      300.80233      5746.4538      1.0177122      4455.7805     -149.26077     -4.6924513     -8.1749368e-14 -7.5110745e-14 -149.26077     -3.1372023e-13
    189000   1392.9603      234.80399      1158.1563      286.44317      6599.2901      1.0177122      4455.7805     -145.50522     -4.6924513     -8.1762995e-14 -7.5111622e-14 -145.50522     -3.1374923e-13
    189250   1386.3886      240.45697      1145.9317      293.33938      4207.7554      1.0177122      4455.7805     -151.77951     -4.6924513     -8.1640831e-14 -7.5110318e-14 -151.77951     -3.135023e-13 
    189500   1407.5496      250.99338      1156.5562      306.19301      7609.8761      1.0177122      4455.7805     -159.43256     -4.6924513     -8.1992997e-14 -7.5110638e-14 -159.43256     -3.1420727e-13
    189750   1406.5852      239.31655      1167.2686      291.94816      3821.3556      1.0177122      4455.7805     -152.34956     -4.6924513     -8.1660283e-14 -7.5109549e-14 -152.34956     -3.1353966e-13
    190000   1380.3818      224.89802      1155.4837      274.35864      3430.8697      1.0177122      4455.7805     -155.1124      -4.6924513     -8.1521535e-14 -7.5112999e-14 -155.1124      -3.1326907e-13
    190250   1385.6419      249.12908      1136.5129      303.9187       7432.5847      1.0177122      4455.7805     -153.63662     -4.6924513     -8.1532518e-14 -7.5109553e-14 -153.63662     -3.1328414e-13
    190500   1405.4555      248.4435       1157.012       303.08235      2910.667       1.0177122      4455.7805     -151.79007     -4.6924513     -8.152773e-14  -7.5110903e-14 -151.79007     -3.1327727e-13
    190750   1417.0423      260.75916      1156.2831      318.10653      2743.126       1.0177122      4455.7805     -153.55351     -4.6924513     -8.154318e-14  -7.5110748e-14 -153.55351     -3.1330786e-13
    191000   1393.6264      242.42478      1151.2017      295.73996      6122.68        1.0177122      4455.7805     -157.27567     -4.6924513     -8.1580689e-14 -7.5106333e-14 -157.27567     -3.1337404e-13
    191250   1418.0465      257.07363      1160.9728      313.61046      7448.2162      1.0177122      4455.7805     -155.48652     -4.6924513     -8.1436072e-14 -7.5112099e-14 -155.48652     -3.1309634e-13
    191500   1407.3053      250.62772      1156.6776      305.74693      3873.2751      1.0177122      4455.7805     -149.73248     -4.6924513     -8.1738539e-14 -7.5111783e-14 -149.73248     -3.1370064e-13
    191750   1394.4853      249.94449      1144.5408      304.91344      10845.418      1.0177122      4455.7805     -153.29824     -4.6924513     -8.2053134e-14 -7.5113359e-14 -153.29824     -3.1433299e-13
    192000   1407.1917      259.82038      1147.3713      316.96128      7696.9297      1.0177122      4455.7805     -154.59507     -4.6924513     -8.1547909e-14 -7.5109665e-14 -154.59507     -3.1331515e-13
    192250   1411.1158      246.8163       1164.2995      301.09729      6711.0375      1.0177122      4455.7805     -157.64425     -4.6924513     -8.1790173e-14 -7.511274e-14  -157.64425     -3.1380583e-13
    192500   1430.1579      266.55537      1163.6026      325.17747      8901.7433      1.0177122      4455.7805     -152.40852     -4.6924513     -8.1846934e-14 -7.5108323e-14 -152.40852     -3.1391051e-13
    192750   1402.6816      239.24422      1163.4374      291.85992      7003.3685      1.0177122      4455.7805     -148.45809     -4.6924513     -8.1662311e-14 -7.5112657e-14 -148.45809     -3.1354993e-13
    193000   1412.1002      257.08983      1155.0104      313.63022      2898.8307      1.0177122      4455.7805     -157.8344      -4.6924513     -8.1424504e-14 -7.5109769e-14 -157.8344      -3.1306855e-13
    193250   1431.0361      247.05265      1183.9834      301.38561      8849.603       1.0177122      4455.7805     -140.36087     -4.6924513     -8.1795884e-14 -7.5107889e-14 -140.36087     -3.1380755e-13
    193500   1422.6464      262.21633      1160.4301      319.88416      7135.9163      1.0177122      4455.7805     -154.11535     -4.6924513     -8.1798517e-14 -7.5112974e-14 -154.11535     -3.1382298e-13
    193750   1418.4467      242.88747      1175.5592      296.3044       8844.6418      1.0177122      4455.7805     -150.45922     -4.6924513     -8.18591e-14   -7.5108136e-14 -150.45922     -3.1393447e-13
    194000   1404.0442      244.59893      1159.4453      298.39226      5334.419       1.0177122      4455.7805     -143.70005     -4.6924513     -8.1861519e-14 -7.5112445e-14 -143.70005     -3.1394793e-13
    194250   1419.242       260.84671      1158.3953      318.21333      6442.5932      1.0177122      4455.7805     -153.88122     -4.6924513     -8.1885328e-14 -7.510832e-14  -153.88122     -3.139873e-13 
    194500   1419.5778      263.30871      1156.2691      321.21678      7589.1983      1.0177122      4455.7805     -149.43495     -4.6924513     -8.1680236e-14 -7.5107963e-14 -149.43495     -3.135764e-13 
    194750   1379.0192      231.7686       1147.2506      282.74022      4468.7405      1.0177122      4455.7805     -153.21847     -4.6924513     -8.1669648e-14 -7.5111494e-14 -153.21847     -3.1356228e-13
    195000   1400.3834      249.06997      1151.3135      303.84659      6628.393       1.0177122      4455.7805     -152.83906     -4.6924513     -8.1741058e-14 -7.5112453e-14 -152.83906     -3.1370702e-13
    195250   1424.9015      253.26052      1171.641       308.95875      5592.4976      1.0177122      4455.7805     -153.4496      -4.6924513     -8.1511935e-14 -7.5113182e-14 -153.4496      -3.1325023e-13
    195500   1400.5528      264.18706      1136.3658      322.2883       10021.521      1.0177122      4455.7805     -147.41043     -4.6924513     -8.1782335e-14 -7.5113206e-14 -147.41043     -3.1379108e-13
    195750   1424.4394      277.03207      1147.4073      337.95824      6825.2792      1.0177122      4455.7805     -153.09565     -4.6924513     -8.1587971e-14 -7.510967e-14  -153.09565     -3.1339528e-13
    196000   1433.1975      268.75971      1164.4378      327.86659      8396.1571      1.0177122      4455.7805     -145.16746     -4.6924513     -8.172402e-14  -7.5110014e-14 -145.16746     -3.1366807e-13
    196250   1395.831       244.70653      1151.1244      298.52353      4199.4726      1.0177122      4455.7805     -150.30209     -4.6924513     -8.1883113e-14 -7.5111779e-14 -150.30209     -3.1398978e-13
    196500   1393.6275      232.97194      1160.6556      284.20821      8561.0414      1.0177122      4455.7805     -148.76049     -4.6924513     -8.1912816e-14 -7.5111192e-14 -148.76049     -3.1404802e-13
    196750   1418.3012      246.574        1171.7272      300.8017       8816.4316      1.0177122      4455.7805     -150.70042     -4.6924513     -8.1708008e-14 -7.5107567e-14 -150.70042     -3.1363115e-13
    197000   1391.1523      238.57752      1152.5748      291.0466       2849.0207      1.0177122      4455.7805     -149.19735     -4.6924513     -8.1635031e-14 -7.511079e-14  -149.19735     -3.1349164e-13
    197250   1404.2969      243.67656      1160.6203      297.26704      4700.0619      1.0177122      4455.7805     -142.66435     -4.6924513     -8.1666001e-14 -7.5108609e-14 -142.66435     -3.1354922e-13
    197500   1412.2431      248.11074      1164.1324      302.67641      1838.4943      1.0177122      4455.7805     -156.01382     -4.6924513     -8.1428712e-14 -7.5111704e-14 -156.01382     -3.1308083e-13
    197750   1414.1227      260.71315      1153.4095      318.05039      6923.5466      1.0177122      4455.7805     -161.01997     -4.6924513     -8.1532333e-14 -7.5112855e-14 -161.01997     -3.1329038e-13
    198000   1393.0387      252.44699      1140.5917      307.9663       2081.0886      1.0177122      4455.7805     -150.39127     -4.6924513     -8.1717384e-14 -7.5111204e-14 -150.39127     -3.1365718e-13
    198250   1389.9683      248.92037      1141.048       303.6641       7581.1054      1.0177122      4455.7805     -149.80138     -4.6924513     -8.172472e-14  -7.5110999e-14 -149.80138     -3.1367144e-13
    198500   1394.3879      230.382        1164.0059      281.04867      5225.6442      1.0177122      4455.7805     -152.81393     -4.6924513     -8.1771537e-14 -7.5109444e-14 -152.81393     -3.1376196e-13
    198750   1403.0816      257.75897      1145.3226      314.44652      1756.1563      1.0177122      4455.7805     -150.30736     -4.6924513     -8.1456576e-14 -7.5111497e-14 -150.30736     -3.1313615e-13
    199000   1398.5807      249.27404      1149.3067      304.09554      6721.9615      1.0177122      4455.7805     -151.25391     -4.6924513     -8.1558089e-14 -7.5109628e-14 -151.25391     -3.1333544e-13
    199250   1410.3431      261.10141      1149.2416      318.52405      8576.0882      1.0177122      4455.7805     -156.14513     -4.6924513     -8.1914596e-14 -7.5109674e-14 -156.14513     -3.1404854e-13
    199500   1432.3772      264.93229      1167.4449      323.19743      4858.9502      1.0177122      4455.7805     -156.81046     -4.6924513     -8.1358893e-14 -7.5109734e-14 -156.81046     -3.1293725e-13
    199750   1413.8224      243.88732      1169.935       297.52416      5319.8168      1.0177122      4455.7805     -147.76502     -4.6924513     -8.1648482e-14 -7.5112243e-14 -147.76502     -3.1352145e-13
    200000   1440.8408      283.88         1156.9608      346.31221      7174.9629      1.0177122      4455.7805     -150.29671     -4.6924513     -8.1654422e-14 -7.5110629e-14 -150.29671     -3.135301e-13 
    200250   1411.3169      253.38131      1157.9356      309.1061       5329.1361      1.0177122      4455.7805     -148.18969     -4.6924513     -8.1788501e-14 -7.5111208e-14 -148.18969     -3.1379942e-13
    200500   1432.085       268.69503      1163.3899      327.78769      8438.3943      1.0177122      4455.7805     -149.00707     -4.6924513     -8.1888667e-14 -7.5111499e-14 -149.00707     -3.1400033e-13
    200750   1423.4048      257.49975      1165.9051      314.13029      8153.2745      1.0177122      4455.7805     -151.68725     -4.6924513     -8.1915484e-14 -7.511189e-14  -151.68725     -3.1405475e-13
    201000   1425.7188      263.59865      1162.1201      321.57049      5656.4752      1.0177122      4455.7805     -153.58809     -4.6924513     -8.1611967e-14 -7.5112507e-14 -153.58809     -3.1344895e-13
    201250   1395.7649      242.90585      1152.8591      296.32683      9121.7779      1.0177122      4455.7805     -148.76916     -4.6924513     -8.1681468e-14 -7.511065e-14  -148.76916     -3.1358424e-13
    201500   1418.1382      257.2141       1160.9241      313.78182      5063.2654      1.0177122      4455.7805     -149.90403     -4.6924513     -8.172381e-14  -7.5110109e-14 -149.90403     -3.1366784e-13
    201750   1379.5903      245.01508      1134.5752      298.89993      9385.2537      1.0177122      4455.7805     -149.48258     -4.6924513     -8.16435e-14   -7.5113439e-14 -149.48258     -3.1351388e-13
    202000   1400.7353      263.58675      1137.1485      321.55598      10842.44       1.0177122      4455.7805     -152.66274     -4.6924513     -8.1537959e-14 -7.5111262e-14 -152.66274     -3.1329844e-13
    202250   1410.3927      267.11242      1143.2803      325.85702      4556.651       1.0177122      4455.7805     -145.50892     -4.6924513     -8.1420049e-14 -7.5110276e-14 -145.50892     -3.1306065e-13
    202500   1419.958       270.00678      1149.9512      329.38792      6246.5255      1.0177122      4455.7805     -152.20216     -4.6924513     -8.1878024e-14 -7.5112546e-14 -152.20216     -3.1398114e-13
    202750   1424.3943      268.06139      1156.3329      327.0147       6987.287       1.0177122      4455.7805     -153.41011     -4.6924513     -8.1387666e-14 -7.5112149e-14 -153.41011     -3.1299963e-13
    203000   1407.4873      241.14945      1166.3378      294.18416      12696.65       1.0177122      4455.7805     -155.77849     -4.6924513     -8.1810397e-14 -7.5106815e-14 -155.77849     -3.1383443e-13
    203250   1404.2498      242.05056      1162.1993      295.28344      5392.3331      1.0177122      4455.7805     -152.76555     -4.6924513     -8.1825822e-14 -7.5110153e-14 -152.76555     -3.1387195e-13
    203500   1404.7026      247.34376      1157.3589      301.74075      10990.69       1.0177122      4455.7805     -147.87118     -4.6924513     -8.1507713e-14 -7.5109185e-14 -147.87118     -3.132338e-13 
    203750   1390.0843      253.45108      1136.6332      309.19122      4474.351       1.0177122      4455.7805     -152.0002      -4.6924513     -8.1432729e-14 -7.5111952e-14 -152.0002      -3.1308936e-13
    204000   1403.117       258.03304      1145.084       314.78087      7386.9171      1.0177122      4455.7805     -152.22865     -4.6924513     -8.1534292e-14 -7.5112872e-14 -152.22865     -3.1329433e-13
    204250   1387.2287      243.08248      1144.1462      296.54231      9568.4945      1.0177122      4455.7805     -153.19671     -4.6924513     -8.2091179e-14 -7.5112788e-14 -153.19671     -3.1440793e-13
    204500   1384.5665      241.75575      1142.8108      294.9238       6550.2494      1.0177122      4455.7805     -147.53385     -4.6924513     -8.1733245e-14 -7.5110596e-14 -147.53385     -3.1368768e-13
    204750   1416.3334      259.21263      1157.1208      316.21988      9119.0206      1.0177122      4455.7805     -152.31901     -4.6924513     -8.1430748e-14 -7.5111549e-14 -152.31901     -3.1308459e-13
    205000   1435.4701      262.58599      1172.8841      320.33512      4689.4107      1.0177122      4455.7805     -156.36003     -4.6924513     -8.1990371e-14 -7.5110368e-14 -156.36003     -3.1420148e-13
    205250   1389.2829      253.17274      1136.1101      308.85167      10960.247      1.0177122      4455.7805     -152.57759     -4.6924513     -8.1876077e-14 -7.5111502e-14 -152.57759     -3.1397516e-13
    205500   1450.529       281.46477      1169.0643      343.36581      4853.2279      1.0177122      4455.7805     -148.30837     -4.6924513     -8.1607846e-14 -7.5111786e-14 -148.30837     -3.1343926e-13
    205750   1411.2602      260.49377      1150.7664      317.78277      5082.096       1.0177122      4455.7805     -150.99621     -4.6924513     -8.1702793e-14 -7.5111058e-14 -150.99621     -3.136277e-13 
    206000   1383.8949      230.38975      1153.5052      281.05814      2599.4621      1.0177122      4455.7805     -142.86837     -4.6924513     -8.1662642e-14 -7.5112279e-14 -142.86837     -3.1354984e-13
    206250   1428.641       252.58324      1176.0578      308.13252      6225.9053      1.0177122      4455.7805     -157.31053     -4.6924513     -8.1678874e-14 -7.5109474e-14 -157.31053     -3.135767e-13 
    206500   1420.3651      253.40928      1166.9558      309.14022      7112.1293      1.0177122      4455.7805     -151.61047     -4.6924513     -8.1666073e-14 -7.5109947e-14 -151.61047     -3.1355204e-13
    206750   1421.6115      259.60052      1162.011       316.69307      3674.2256      1.0177122      4455.7805     -157.90376     -4.6924513     -8.1444011e-14 -7.511107e-14  -157.90376     -3.1311016e-13
    207000   1397.8837      245.63551      1152.2482      299.65681      6415.036       1.0177122      4455.7805     -151.16787     -4.6924513     -8.1487477e-14 -7.5107215e-14 -151.16787     -3.1318938e-13
    207250   1405.1572      241.95961      1163.1975      295.1725       7034.408       1.0177122      4455.7805     -154.22343     -4.6924513     -8.1523167e-14 -7.510885e-14  -154.22343     -3.1326403e-13
    207500   1385.1782      237.60515      1147.573       289.86038      3499.8819      1.0177122      4455.7805     -151.84836     -4.6924513     -8.1299033e-14 -7.5107015e-14 -151.84836     -3.128121e-13 
    207750   1415.2235      247.58458      1167.6389      302.03453      8314.0076      1.0177122      4455.7805     -145.70413     -4.6924513     -8.1862144e-14 -7.5110329e-14 -145.70413     -3.1394495e-13
    208000   1403.5558      240.19549      1163.3603      293.0204       6378.565       1.0177122      4455.7805     -151.54966     -4.6924513     -8.182955e-14  -7.5108737e-14 -151.54966     -3.1387657e-13
    208250   1398.9988      253.7568       1145.242       309.56418      10110.592      1.0177122      4455.7805     -158.15064     -4.6924513     -8.1580944e-14 -7.5113145e-14 -158.15064     -3.1338818e-13
    208500   1422.3704      251.52905      1170.8414      306.84649      5422.3774      1.0177122      4455.7805     -146.98634     -4.6924513     -8.1603059e-14 -7.5112004e-14 -146.98634     -3.1343013e-13
    208750   1399.9713      227.93216      1172.0392      278.06006      9172.8569      1.0177122      4455.7805     -149.8253      -4.6924513     -8.1737417e-14 -7.5112629e-14 -149.8253      -3.1370009e-13
    209000   1388.3107      240.67445      1147.6362      293.6047       3771.6982      1.0177122      4455.7805     -147.34482     -4.6924513     -8.1423612e-14 -7.5112167e-14 -147.34482     -3.1307156e-13
    209250   1388.5485      234.83911      1153.7094      286.48602      3168.1137      1.0177122      4455.7805     -149.28755     -4.6924513     -8.1286752e-14 -7.5111351e-14 -149.28755     -3.1279621e-13
    209500   1408.2334      260.50483      1147.7286      317.79627      8142.3451      1.0177122      4455.7805     -149.42638     -4.6924513     -8.1289278e-14 -7.5113194e-14 -149.42638     -3.1280494e-13
    209750   1376.6253      231.21833      1145.407       282.06894      10662.003      1.0177122      4455.7805     -151.96961     -4.6924513     -8.171132e-14  -7.5109683e-14 -151.96961     -3.1364201e-13
    210000   1369.3775      216.65081      1152.7267      264.29766      4956.5785      1.0177122      4455.7805     -150.84846     -4.6924513     -8.163924e-14  -7.5112956e-14 -150.84846     -3.1350439e-13
    210250   1393.3977      243.72038      1149.6773      297.3205       7324.5594      1.0177122      4455.7805     -156.3439      -4.6924513     -8.1472942e-14 -7.5110835e-14 -156.3439      -3.1316755e-13
    210500   1408.8489      241.165        1167.6839      294.20312      6295.0219      1.0177122      4455.7805     -147.06765     -4.6924513     -8.2069871e-14 -7.5111914e-14 -147.06765     -3.1436357e-13
    210750   1383.7954      249.74044      1134.0549      304.66452      6525.4696      1.0177122      4455.7805     -152.20196     -4.6924513     -8.1790538e-14 -7.5107488e-14 -152.20196     -3.1379605e-13
    211000   1404.9929      245.02624      1159.9666      298.91355      6702.5754      1.0177122      4455.7805     -153.83975     -4.6924513     -8.1712727e-14 -7.511223e-14  -153.83975     -3.1364991e-13
    211250   1435.1245      266.88162      1168.2429      325.57547      5010.6843      1.0177122      4455.7805     -153.96951     -4.6924513     -8.1987069e-14 -7.5111513e-14 -153.96951     -3.1419716e-13
    211500   1397.7553      245.00006      1152.7553      298.88161      5234.7148      1.0177122      4455.7805     -153.61994     -4.6924513     -8.1755257e-14 -7.5107124e-14 -153.61994     -3.1372476e-13
    211750   1406.9814      243.64826      1163.3332      297.23252      1309.528       1.0177122      4455.7805     -155.43609     -4.6924513     -8.147708e-14  -7.5112584e-14 -155.43609     -3.1317933e-13
    212000   1387.6459      249.56428      1138.0816      304.44961      6907.6886      1.0177122      4455.7805     -154.5122      -4.6924513     -8.1736765e-14 -7.5109736e-14 -154.5122      -3.13693e-13  
    212250   1407.711       253.46607      1154.2449      309.20951      4141.3402      1.0177122      4455.7805     -151.07844     -4.6924513     -8.1746345e-14 -7.5111829e-14 -151.07844     -3.1371635e-13
    212500   1409.1451      262.76274      1146.3824      320.55074      10821.365      1.0177122      4455.7805     -154.7974      -4.6924513     -8.1860347e-14 -7.5108438e-14 -154.7974      -3.1393757e-13
    212750   1421.0324      266.8158       1154.2166      325.49517      5316.5349      1.0177122      4455.7805     -146.5307      -4.6924513     -8.1645626e-14 -7.5107348e-14 -146.5307      -3.1350595e-13
    213000   1406.4017      252.36514      1154.0365      307.86646      9971.458       1.0177122      4455.7805     -153.88729     -4.6924513     -8.1696342e-14 -7.5113392e-14 -153.88729     -3.1361947e-13
    213250   1398.9951      246.51951      1152.4756      300.73523      4842.8988      1.0177122      4455.7805     -142.89322     -4.6924513     -8.1672214e-14 -7.5109826e-14 -142.89322     -3.1356408e-13
    213500   1407.7075      265.48917      1142.2183      323.87679      13565.703      1.0177122      4455.7805     -146.65361     -4.6924513     -8.165166e-14  -7.5111046e-14 -146.65361     -3.1352541e-13
    213750   1391.6022      233.76023      1157.8419      285.16987      4983.2759      1.0177122      4455.7805     -145.43088     -4.6924513     -8.1576364e-14 -7.5109611e-14 -145.43088     -3.1337195e-13
    214000   1417.3311      276.54809      1140.783       337.36782      7869.4482      1.0177122      4455.7805     -155.43301     -4.6924513     -8.1791701e-14 -7.5111693e-14 -155.43301     -3.1380679e-13
    214250   1365.64        225.70654      1139.9335      275.34497      5497.1268      1.0177122      4455.7805     -147.34444     -4.6924513     -8.1726963e-14 -7.5111483e-14 -147.34444     -3.1367689e-13
    214500   1419.588       235.23746      1184.3505      286.97197      6021.8055      1.0177122      4455.7805     -154.29754     -4.6924513     -8.1536824e-14 -7.5108096e-14 -154.29754     -3.1328984e-13
    214750   1431.6141      261.48073      1170.1334      318.98678      7319.5106      1.0177122      4455.7805     -153.91625     -4.6924513     -8.1973364e-14 -7.5112544e-14 -153.91625     -3.1417181e-13
    215000   1426.9453      262.649        1164.2963      320.41199      8817.1206      1.0177122      4455.7805     -149.55285     -4.6924513     -8.1805977e-14 -7.5111503e-14 -149.55285     -3.1383496e-13
    215250   1406.2741      246.17048      1160.1036      300.30943      4271.0591      1.0177122      4455.7805     -151.85433     -4.6924513     -8.164153e-14  -7.5109311e-14 -151.85433     -3.1350168e-13
    215500   1401.4215      234.18714      1167.2344      285.69066      5089.1823      1.0177122      4455.7805     -151.18653     -4.6924513     -8.1130062e-14 -7.5107829e-14 -151.18653     -3.1247578e-13
    215750   1381.961       226.94182      1155.0192      276.85191      7490.0307      1.0177122      4455.7805     -143.27707     -4.6924513     -8.1833347e-14 -7.5110481e-14 -143.27707     -3.1388766e-13
    216000   1398.7072      225.76753      1172.9397      275.41938      1584.1273      1.0177122      4455.7805     -152.44446     -4.6924513     -8.1696621e-14 -7.5113185e-14 -152.44446     -3.1361961e-13
    216250   1380.9047      236.42982      1144.4749      288.42656      9246.7991      1.0177122      4455.7805     -153.63338     -4.6924513     -8.1666132e-14 -7.5110912e-14 -153.63338     -3.1355409e-13
    216500   1419.9332      253.63077      1166.3024      309.41042      4936.4883      1.0177122      4455.7805     -147.98655     -4.6924513     -8.1693526e-14 -7.5110274e-14 -147.98655     -3.136076e-13 
    216750   1387.6237      238.666        1148.9577      291.15453      2531.1896      1.0177122      4455.7805     -150.62053     -4.6924513     -8.1463526e-14 -7.5111626e-14 -150.62053     -3.131503e-13 
    217000   1392.2012      251.30111      1140.9001      306.56842      9958.0957      1.0177122      4455.7805     -156.09607     -4.6924513     -8.1812304e-14 -7.5111772e-14 -156.09607     -3.1384815e-13
    217250   1405.1032      244.86746      1160.2358      298.71985      7785.3949      1.0177122      4455.7805     -154.86782     -4.6924513     -8.1861027e-14 -7.51097e-14   -154.86782     -3.1394145e-13
    217500   1414.144       256.33956      1157.8044      312.71495      8967.9859      1.0177122      4455.7805     -142.77668     -4.6924513     -8.2022254e-14 -7.5109701e-14 -142.77668     -3.1426391e-13
    217750   1387.4245      242.5231       1144.9014      295.8599       6393.3085      1.0177122      4455.7805     -155.89489     -4.6924513     -8.1597682e-14 -7.5112021e-14 -155.89489     -3.1341941e-13
    218000   1372.4529      225.96192      1146.491       275.65651      3191.4753      1.0177122      4455.7805     -152.25002     -4.6924513     -8.1493371e-14 -7.5110451e-14 -152.25002     -3.1320764e-13
    218250   1391.4338      246.64254      1144.7913      300.88531      4251.0252      1.0177122      4455.7805     -160.55375     -4.6924513     -8.1717893e-14 -7.5111956e-14 -160.55375     -3.136597e-13 
    218500   1419.7443      255.31275      1164.4315      311.46231      7464.3915      1.0177122      4455.7805     -144.52266     -4.6924513     -8.1994193e-14 -7.5109128e-14 -144.52266     -3.1420664e-13
    218750   1373.3275      214.62945      1158.698       261.83176      6735.3779      1.0177122      4455.7805     -149.76666     -4.6924513     -8.1532948e-14 -7.5107317e-14 -149.76666     -3.1328053e-13
    219000   1400.644       234.47091      1166.1731      286.03684      5393.6695      1.0177122      4455.7805     -154.07257     -4.6924513     -8.1660498e-14 -7.5110694e-14 -154.07257     -3.1354238e-13
    219250   1381.3068      226.34592      1154.9609      276.12497      11092.439      1.0177122      4455.7805     -151.24892     -4.6924513     -8.1963427e-14 -7.511144e-14  -151.24892     -3.1414973e-13
    219500   1387.242       240.09048      1147.1515      292.89229      8479.9484      1.0177122      4455.7805     -150.04168     -4.6924513     -8.1849595e-14 -7.5111893e-14 -150.04168     -3.1392298e-13
    219750   1390.7212      242.40185      1148.3194      295.71199      9727.0158      1.0177122      4455.7805     -151.82266     -4.6924513     -8.1725126e-14 -7.5110657e-14 -151.82266     -3.1367157e-13
    220000   1398.4069      251.53691      1146.87        306.85607      6761.8797      1.0177122      4455.7805     -157.83058     -4.6924513     -8.1648822e-14 -7.5111917e-14 -157.83058     -3.1352148e-13
    220250   1407.6255      265.15231      1142.4732      323.46584      6585.5034      1.0177122      4455.7805     -153.08638     -4.6924513     -8.1496892e-14 -7.510912e-14  -153.08638     -3.1321203e-13
    220500   1369.8599      232.91224      1136.9476      284.13538      7020.1703      1.0177122      4455.7805     -153.59504     -4.6924513     -8.1619319e-14 -7.5112919e-14 -153.59504     -3.1346448e-13
    220750   1433.5914      263.24385      1170.3475      321.13766      2817.102       1.0177122      4455.7805     -143.46035     -4.6924513     -8.1861217e-14 -7.5112866e-14 -143.46035     -3.1394817e-13
    221000   1392.2475      250.59803      1141.6495      305.71071      10108.133      1.0177122      4455.7805     -150.84609     -4.6924513     -8.1836632e-14 -7.5111801e-14 -150.84609     -3.1389687e-13
    221250   1390.3195      235.86795      1154.4515      287.74112      8236.5188      1.0177122      4455.7805     -144.94544     -4.6924513     -8.1763784e-14 -7.5112847e-14 -144.94544     -3.1375326e-13
    221500   1385.0659      222.76359      1162.3023      271.75479      5445.9965      1.0177122      4455.7805     -150.54136     -4.6924513     -8.1660322e-14 -7.5110081e-14 -150.54136     -3.1354081e-13
    221750   1431.4042      251.91873      1179.4855      307.32186      6060.8483      1.0177122      4455.7805     -152.39652     -4.6924513     -8.1623248e-14 -7.5111523e-14 -152.39652     -3.1346954e-13
    222000   1410.312       249.88161      1160.4304      304.83673      9542.7181      1.0177122      4455.7805     -151.77424     -4.6924513     -8.1487761e-14 -7.5112241e-14 -151.77424     -3.132e-13    
    222250   1423.0488      259.20627      1163.8425      316.21211      4817.8506      1.0177122      4455.7805     -155.09532     -4.6924513     -8.1131149e-14 -7.5109624e-14 -155.09532     -3.1248155e-13
    222500   1377.6662      234.53667      1143.1296      286.11706      8521.3586      1.0177122      4455.7805     -148.48791     -4.6924513     -8.1726644e-14 -7.5109443e-14 -148.48791     -3.1367217e-13
    222750   1418.9901      250.70799      1168.2821      305.84486      5029.5066      1.0177122      4455.7805     -153.52643     -4.6924513     -8.1338377e-14 -7.511011e-14  -153.52643     -3.1289697e-13
    223000   1391.1056      229.8172       1161.2884      280.35967      5469.2178      1.0177122      4455.7805     -150.93948     -4.6924513     -8.1782158e-14 -7.5110183e-14 -150.93948     -3.1378468e-13
    223250   1398.3508      222.30064      1176.0502      271.19003      4529.6302      1.0177122      4455.7805     -142.74672     -4.6924513     -8.150326e-14  -7.5108429e-14 -142.74672     -3.1322338e-13
    223500   1409.349       264.73509      1144.6139      322.95685      9579.804       1.0177122      4455.7805     -149.43061     -4.6924513     -8.1338619e-14 -7.5110557e-14 -149.43061     -3.1289835e-13
    223750   1418.9141      273.49972      1145.4144      333.64905      5425.4145      1.0177122      4455.7805     -153.20395     -4.6924513     -8.1854893e-14 -7.5112925e-14 -153.20395     -3.1393564e-13
    224000   1406.6702      253.29701      1153.3731      309.00327      7849.4564      1.0177122      4455.7805     -153.03316     -4.6924513     -8.1605918e-14 -7.5110948e-14 -153.03316     -3.1343373e-13
    224250   1408.6045      247.91178      1160.6927      302.43369      9933.7663      1.0177122      4455.7805     -162.8799      -4.6924513     -8.1757892e-14 -7.5110558e-14 -162.8799      -3.137369e-13 
    224500   1398.9249      257.2377       1141.6872      313.81061      7567.1122      1.0177122      4455.7805     -146.70036     -4.6924513     -8.1631219e-14 -7.5110231e-14 -146.70036     -3.134829e-13 
    224750   1404.4643      256.89892      1147.5654      313.39732      4038.9708      1.0177122      4455.7805     -156.02674     -4.6924513     -8.2015581e-14 -7.5111218e-14 -156.02674     -3.142536e-13 
    225000   1393.65        242.8973       1150.7527      296.3164       5112.7774      1.0177122      4455.7805     -155.53342     -4.6924513     -8.1772743e-14 -7.5112386e-14 -155.53342     -3.1377026e-13
    225250   1403.6243      245.46582      1158.1585      299.4498       11748.451      1.0177122      4455.7805     -149.9483      -4.6924513     -8.1700862e-14 -7.5111687e-14 -149.9483      -3.136251e-13 
    225500   1389.8393      253.67735      1136.1619      309.46725      4492.3809      1.0177122      4455.7805     -149.93299     -4.6924513     -8.176649e-14  -7.5111177e-14 -149.93299     -3.1375534e-13
    225750   1383.53        230.97878      1152.5512      281.77671      4706.2392      1.0177122      4455.7805     -151.05688     -4.6924513     -8.1766586e-14 -7.5112586e-14 -151.05688     -3.1375834e-13
    226000   1404.9445      263.69819      1141.2463      321.69191      9299.0707      1.0177122      4455.7805     -149.89917     -4.6924513     -8.1906727e-14 -7.5110919e-14 -149.89917     -3.1403529e-13
    226250   1375.3178      248.70704      1126.6107      303.40384      7475.1212      1.0177122      4455.7805     -154.571       -4.6924513     -8.1625644e-14 -7.5110846e-14 -154.571       -3.1347298e-13
    226500   1378.3391      237.04337      1141.2957      289.17505      8136.1522      1.0177122      4455.7805     -155.01895     -4.6924513     -8.155343e-14  -7.511145e-14  -155.01895     -3.1332976e-13
    226750   1406.0089      250.80173      1155.2071      305.95921      7984.2452      1.0177122      4455.7805     -152.54069     -4.6924513     -8.1889497e-14 -7.5110501e-14 -152.54069     -3.1399999e-13
    227000   1414.2931      249.60952      1164.6836      304.50481      2242.2004      1.0177122      4455.7805     -157.93049     -4.6924513     -8.1285073e-14 -7.5110463e-14 -157.93049     -3.1279107e-13
    227250   1400.2706      260.23998      1140.0306      317.47317      5058.8853      1.0177122      4455.7805     -147.30114     -4.6924513     -8.1390598e-14 -7.511161e-14  -147.30114     -3.1300442e-13
    227500   1397.2473      239.74065      1157.5067      292.46553      3057.5388      1.0177122      4455.7805     -150.97009     -4.6924513     -8.2086374e-14 -7.5112551e-14 -150.97009     -3.1439785e-13
    227750   1411.0158      248.87109      1162.1448      303.60397      6722.6668      1.0177122      4455.7805     -153.32255     -4.6924513     -8.1720538e-14 -7.5109814e-14 -153.32255     -3.1366071e-13
    228000   1390.7558      259.3849       1131.3709      316.43003      8080.9935      1.0177122      4455.7805     -149.64085     -4.6924513     -8.2048895e-14 -7.5111338e-14 -149.64085     -3.1432047e-13
    228250   1419.4924      255.45312      1164.0392      311.63356      9465.2698      1.0177122      4455.7805     -155.8676      -4.6924513     -8.1635595e-14 -7.5112188e-14 -155.8676      -3.1349557e-13
    228500   1437.497       252.54384      1184.9532      308.08445      6046.1612      1.0177122      4455.7805     -147.1316      -4.6924513     -8.1748345e-14 -7.5110567e-14 -147.1316      -3.1371782e-13
    228750   1423.7472      263.84222      1159.905       321.86763      6727.0108      1.0177122      4455.7805     -153.05256     -4.6924513     -8.1592101e-14 -7.5112349e-14 -153.05256     -3.134089e-13 
    229000   1426.3114      270.12693      1156.1845      329.5345       10793.552      1.0177122      4455.7805     -157.09944     -4.6924513     -8.1732683e-14 -7.5110664e-14 -157.09944     -3.1368669e-13
    229250   1403.7483      247.05903      1156.6893      301.3934       9076.9039      1.0177122      4455.7805     -152.47456     -4.6924513     -8.1697906e-14 -7.5110198e-14 -152.47456     -3.1361621e-13
    229500   1397.6173      244.78556      1152.8317      298.61994      7284.5593      1.0177122      4455.7805     -146.97999     -4.6924513     -8.1444454e-14 -7.5111939e-14 -146.97999     -3.1311279e-13
    229750   1422.697       249.84587      1172.8511      304.79313      9516.9552      1.0177122      4455.7805     -153.19633     -4.6924513     -8.1408711e-14 -7.5112876e-14 -153.19633     -3.1304317e-13
    230000   1403.8394      240.10407      1163.7354      292.90887      7158.5999      1.0177122      4455.7805     -152.08268     -4.6924513     -8.1642762e-14 -7.5112886e-14 -152.08268     -3.1351129e-13
    230250   1380.9308      220.15943      1160.7714      268.57791      4193.3892      1.0177122      4455.7805     -150.8667      -4.6924513     -8.1695217e-14 -7.5113099e-14 -150.8667      -3.1361663e-13
    230500   1424.2525      278.94377      1145.3087      340.29038      3117.1927      1.0177122      4455.7805     -154.25912     -4.6924513     -8.2000607e-14 -7.5111556e-14 -154.25912     -3.1422433e-13
    230750   1411.2151      260.65842      1150.5567      317.98364      8476.3417      1.0177122      4455.7805     -156.27062     -4.6924513     -8.1368615e-14 -7.5108673e-14 -156.27062     -3.1295458e-13
    231000   1426.5511      280.18951      1146.3616      341.81008      7934.7994      1.0177122      4455.7805     -156.2663      -4.6924513     -8.1866651e-14 -7.5111125e-14 -156.2663      -3.1395555e-13
    231250   1444.1217      264.60987      1179.5118      322.8041       313.12758      1.0177122      4455.7805     -147.27447     -4.6924513     -8.1713928e-14 -7.51099e-14   -147.27447     -3.1364766e-13
    231500   1457.4239      272.90792      1184.516       332.9271       1916.8442      1.0177122      4455.7805     -156.29651     -4.6924513     -8.1408079e-14 -7.5110158e-14 -156.29651     -3.1303647e-13
    231750   1409.3819      256.11588      1153.266       312.44208      6841.0605      1.0177122      4455.7805     -144.51489     -4.6924513     -8.1486865e-14 -7.5110439e-14 -144.51489     -3.1319461e-13
    232000   1403.6073      249.77896      1153.8283      304.71151      7838.8064      1.0177122      4455.7805     -144.8584      -4.6924513     -8.1916809e-14 -7.5111451e-14 -144.8584      -3.1405652e-13
    232250   1438.5328      269.06927      1169.4636      328.24423      3704.8815      1.0177122      4455.7805     -154.05161     -4.6924513     -8.163659e-14  -7.5112911e-14 -154.05161     -3.13499e-13  
    232500   1385.2508      240.20048      1145.0503      293.02648      5204.0493      1.0177122      4455.7805     -149.32117     -4.6924513     -8.1905927e-14 -7.5106443e-14 -149.32117     -3.1402474e-13
    232750   1422.9516      254.29555      1168.656       310.22141      4776.3479      1.0177122      4455.7805     -150.43173     -4.6924513     -8.1480862e-14 -7.5110645e-14 -150.43173     -3.1318301e-13
    233000   1390.3006      239.2932       1151.0074      291.91967      7243.6023      1.0177122      4455.7805     -151.24297     -4.6924513     -8.1337439e-14 -7.5112285e-14 -151.24297     -3.1289945e-13
    233250   1403.8346      252.69067      1151.1439      308.26358      6383.1539      1.0177122      4455.7805     -156.65932     -4.6924513     -8.1634682e-14 -7.511228e-14  -156.65932     -3.1349392e-13
    233500   1417.8576      260.78428      1157.0733      318.13717      6453.6038      1.0177122      4455.7805     -141.50374     -4.6924513     -8.1401134e-14 -7.510692e-14  -141.50374     -3.1301611e-13
    233750   1417.212       270.07829      1147.1337      329.47516      5964.4039      1.0177122      4455.7805     -155.06086     -4.6924513     -8.1923679e-14 -7.5108448e-14 -155.06086     -3.1406425e-13
    234000   1416.7829      259.97754      1156.8054      317.15301      9026.5755      1.0177122      4455.7805     -150.66035     -4.6924513     -8.1759381e-14 -7.5111466e-14 -150.66035     -3.1374169e-13
    234250   1401.1094      259.94527      1141.1641      317.11364      5030.9492      1.0177122      4455.7805     -156.28677     -4.6924513     -8.1303182e-14 -7.5109481e-14 -156.28677     -3.1282533e-13
    234500   1440.0368      278.50568      1161.5311      339.75594      7562.5458      1.0177122      4455.7805     -148.18799     -4.6924513     -8.1546209e-14 -7.5113225e-14 -148.18799     -3.1331887e-13
    234750   1407.5463      249.58098      1157.9653      304.46999      6404.2283      1.0177122      4455.7805     -151.5513      -4.6924513     -8.1619106e-14 -7.5111479e-14 -151.5513      -3.1346117e-13
    235000   1420.8587      248.15819      1172.7005      302.73429      8735.6421      1.0177122      4455.7805     -145.05109     -4.6924513     -8.1697642e-14 -7.5112322e-14 -145.05109     -3.1361993e-13
    235250   1428.5561      258.11969      1170.4364      314.88658      7579.5333      1.0177122      4455.7805     -154.93864     -4.6924513     -8.1601532e-14 -7.5112685e-14 -154.93864     -3.1342843e-13
    235500   1393.2131      246.21259      1147.0005      300.36081      9585.5637      1.0177122      4455.7805     -162.88076     -4.6924513     -8.177232e-14  -7.5109135e-14 -162.88076     -3.1376291e-13
    235750   1379.0098      215.37039      1163.6394      262.73565      3438.4986      1.0177122      4455.7805     -157.84594     -4.6924513     -8.1647056e-14 -7.5111684e-14 -157.84594     -3.1351748e-13
    236000   1385.1021      245.34063      1139.7614      299.29709      9691.1961      1.0177122      4455.7805     -148.1068      -4.6924513     -8.1931827e-14 -7.5110039e-14 -148.1068      -3.1408373e-13
    236250   1377.7787      239.60656      1138.1721      292.30194      5566.3451      1.0177122      4455.7805     -157.38695     -4.6924513     -8.1441661e-14 -7.5110474e-14 -157.38695     -3.1310427e-13
    236500   1406.1525      252.28638      1153.8661      307.77037      10326.171      1.0177122      4455.7805     -142.96499     -4.6924513     -8.1974018e-14 -7.5109961e-14 -142.96499     -3.1416796e-13
    236750   1396.5272      258.61781      1137.9094      315.49424      4225.9982      1.0177122      4455.7805     -149.89825     -4.6924513     -8.1862591e-14 -7.5111483e-14 -149.89825     -3.1394815e-13
    237000   1403.2113      248.75341      1154.4578      303.46041      7202.6065      1.0177122      4455.7805     -152.16003     -4.6924513     -8.1831156e-14 -7.5112662e-14 -152.16003     -3.1388764e-13
    237250   1389.2959      260.67206      1128.6238      318.00027      5972.626       1.0177122      4455.7805     -158.76681     -4.6924513     -8.148281e-14  -7.5109515e-14 -158.76681     -3.1318465e-13
    237500   1435.5683      275.77613      1159.7922      336.42609      3390.8426      1.0177122      4455.7805     -145.20541     -4.6924513     -8.1984443e-14 -7.5110602e-14 -145.20541     -3.1419009e-13
    237750   1454.4475      282.37502      1172.0725      344.47625      4432.623       1.0177122      4455.7805     -143.62581     -4.6924513     -8.2058863e-14 -7.511089e-14  -143.62581     -3.1433951e-13
    238000   1400.1432      247.75864      1152.3845      302.24687      8834.1135      1.0177122      4455.7805     -152.4841      -4.6924513     -8.1575953e-14 -7.5109117e-14 -152.4841      -3.1337014e-13
    238250   1387.8027      249.20952      1138.5932      304.01683      4590.3934      1.0177122      4455.7805     -155.56866     -4.6924513     -8.1843249e-14 -7.5111542e-14 -155.56866     -3.1390958e-13
    238500   1407.1671      256.78951      1150.3775      313.26385      8329.0226      1.0177122      4455.7805     -151.4297      -4.6924513     -8.1749188e-14 -7.5109965e-14 -151.4297      -3.1371831e-13
    238750   1409.4537      248.01616      1161.4375      302.56102      6631.0132      1.0177122      4455.7805     -142.23394     -4.6924513     -8.1929733e-14 -7.5111923e-14 -142.23394     -3.1408331e-13
    239000   1403.6033      251.4506       1152.1527      306.75079      7330.9698      1.0177122      4455.7805     -151.22763     -4.6924513     -8.1859133e-14 -7.5109049e-14 -151.22763     -3.1393636e-13
    239250   1416.8832      250.34146      1166.5418      305.39772      4403.3905      1.0177122      4455.7805     -157.18319     -4.6924513     -8.1480352e-14 -7.510777e-14  -157.18319     -3.1317624e-13
    239500   1410.2291      247.93154      1162.2975      302.4578       5921.8661      1.0177122      4455.7805     -150.48138     -4.6924513     -8.1514725e-14 -7.5111391e-14 -150.48138     -3.1325223e-13
    239750   1411.7147      253.49006      1158.2247      309.23878      6247.9725      1.0177122      4455.7805     -152.71629     -4.6924513     -8.1665077e-14 -7.5109534e-14 -152.71629     -3.1354922e-13
    240000   1405.4385      249.04602      1156.3924      303.81738      451.22984      1.0177122      4455.7805     -152.25516     -4.6924513     -8.1490946e-14 -7.5110726e-14 -152.25516     -3.1320334e-13
    240250   1413.4878      241.32925      1172.1586      294.4035       3339.8033      1.0177122      4455.7805     -144.11202     -4.6924513     -8.1780279e-14 -7.5111834e-14 -144.11202     -3.1378423e-13
    240500   1389.4002      242.42168      1146.9785      295.73618      8051.0341      1.0177122      4455.7805     -160.93256     -4.6924513     -8.1890162e-14 -7.5113183e-14 -160.93256     -3.1400669e-13
    240750   1404.0107      246.01376      1157.997       300.11825      4224.6818      1.0177122      4455.7805     -154.51337     -4.6924513     -8.1547288e-14 -7.5109497e-14 -154.51337     -3.1331357e-13
    241000   1427.3559      276.9395       1150.4164      337.84532      7398.163       1.0177122      4455.7805     -143.68335     -4.6924513     -8.1594902e-14 -7.5106666e-14 -143.68335     -3.1340314e-13
    241250   1392.1554      242.67644      1149.4789      296.04697      8535.4593      1.0177122      4455.7805     -146.89791     -4.6924513     -8.1688986e-14 -7.5112466e-14 -146.89791     -3.136029e-13 
    241500   1372.1851      229.26888      1142.9162      279.69076      7830.642       1.0177122      4455.7805     -146.43573     -4.6924513     -8.1853887e-14 -7.5109374e-14 -146.43573     -3.1392652e-13
    241750   1389.4179      248.77026      1140.6477      303.48097      6050.0275      1.0177122      4455.7805     -150.84393     -4.6924513     -8.1555903e-14 -7.5112404e-14 -150.84393     -3.1333661e-13
    242000   1412.9485      257.92048      1155.0281      314.64354      8671.0828      1.0177122      4455.7805     -148.56514     -4.6924513     -8.1792248e-14 -7.5110894e-14 -148.56514     -3.1380628e-13
    242250   1409.6662      248.11379      1161.5524      302.68013      3735.0304      1.0177122      4455.7805     -153.57214     -4.6924513     -8.1840847e-14 -7.5108609e-14 -153.57214     -3.1389891e-13
    242500   1404.2382      245.32058      1158.9177      299.27262      6143.1739      1.0177122      4455.7805     -155.52722     -4.6924513     -8.17447e-14   -7.5111698e-14 -155.52722     -3.137128e-13 
    242750   1406.7984      247.80687      1158.9915      302.30571      8798.0898      1.0177122      4455.7805     -145.77278     -4.6924513     -8.1800517e-14 -7.5112698e-14 -145.77278     -3.1382643e-13
    243000   1388.2311      233.91318      1154.318       285.35645      4850.3406      1.0177122      4455.7805     -150.62029     -4.6924513     -8.2005984e-14 -7.511222e-14  -150.62029     -3.1423641e-13
    243250   1391.7834      247.1314       1144.652       301.48169      7166.5059      1.0177122      4455.7805     -150.64475     -4.6924513     -8.1580739e-14 -7.5111967e-14 -150.64475     -3.1338541e-13
    243500   1388.8251      234.0976       1154.7275      285.58143      6858.2384      1.0177122      4455.7805     -148.71686     -4.6924513     -8.1884985e-14 -7.5106859e-14 -148.71686     -3.1398369e-13
    243750   1430.5676      256.47712      1174.0905      312.88276      6330.6341      1.0177122      4455.7805     -146.81211     -4.6924513     -8.1775448e-14 -7.5110548e-14 -146.81211     -3.1377199e-13
    244000   1380.9032      239.77215      1141.131       292.50395      7235.3356      1.0177122      4455.7805     -155.24914     -4.6924513     -8.1374338e-14 -7.5109387e-14 -155.24914     -3.1296745e-13
    244250   1372.9262      238.5826       1134.3436      291.05279      5882.3647      1.0177122      4455.7805     -156.75422     -4.6924513     -8.1744312e-14 -7.5110409e-14 -156.75422     -3.1370944e-13
    244500   1377.206       243.98352      1133.2225      297.64151      6930.225       1.0177122      4455.7805     -154.22977     -4.6924513     -8.174038e-14  -7.5110245e-14 -154.22977     -3.1370125e-13
    244750   1386.5771      248.86132      1137.7158      303.59205      9567.1416      1.0177122      4455.7805     -150.9489      -4.6924513     -8.1781503e-14 -7.5112911e-14 -150.9489      -3.1378883e-13
    245000   1409.234       250.68366      1158.5504      305.81517      12084.224      1.0177122      4455.7805     -153.48366     -4.6924513     -8.1632681e-14 -7.5112872e-14 -153.48366     -3.1349111e-13
    245250   1438.3205      264.74611      1173.5744      322.97031      4638.3611      1.0177122      4455.7805     -150.67017     -4.6924513     -8.1701414e-14 -7.5109898e-14 -150.67017     -3.1362262e-13
    245500   1410.7276      250.26774      1160.4598      305.30778      3314.7711      1.0177122      4455.7805     -153.94071     -4.6924513     -8.1392418e-14 -7.5110842e-14 -153.94071     -3.1300652e-13
    245750   1420.2194      274.92278      1145.2966      335.38508      8515.4211      1.0177122      4455.7805     -149.78857     -4.6924513     -8.1663554e-14 -7.5104847e-14 -149.78857     -3.135368e-13 
    246000   1411.8043      247.64899      1164.1553      302.11311      5772.8254      1.0177122      4455.7805     -148.49089     -4.6924513     -8.1714722e-14 -7.5112281e-14 -148.49089     -3.1365401e-13
    246250   1402.3841      257.24995      1145.1342      313.82555      4284.3178      1.0177122      4455.7805     -149.61851     -4.6924513     -8.1852119e-14 -7.5109329e-14 -149.61851     -3.139229e-13 
    246500   1417.3902      265.17632      1152.2138      323.49513      10503.377      1.0177122      4455.7805     -156.92862     -4.6924513     -8.1752225e-14 -7.5109221e-14 -156.92862     -3.1372289e-13
    246750   1426.0344      271.99616      1154.0383      331.81482      10896.693      1.0177122      4455.7805     -153.50289     -4.6924513     -8.1533507e-14 -7.5109442e-14 -153.50289     -3.132859e-13 
    247000   1403.7706      239.26655      1164.5041      291.88716      9369.7062      1.0177122      4455.7805     -146.69832     -4.6924513     -8.1753241e-14 -7.5111593e-14 -146.69832     -3.1372967e-13
    247250   1386.3824      232.59689      1153.7855      283.75068      10219.882      1.0177122      4455.7805     -147.98474     -4.6924513     -8.1747446e-14 -7.5106496e-14 -147.98474     -3.1370788e-13
    247500   1413.2434      257.96786      1155.2756      314.70135      4136.0697      1.0177122      4455.7805     -150.92656     -4.6924513     -8.1441637e-14 -7.5112394e-14 -150.92656     -3.1310806e-13
    247750   1419.5676      254.46698      1165.1006      310.43054      7701.527       1.0177122      4455.7805     -146.22287     -4.6924513     -8.1789616e-14 -7.5111081e-14 -146.22287     -3.1380139e-13
    248000   1415.4315      249.78498      1165.6465      304.71885      7557.9969      1.0177122      4455.7805     -151.85251     -4.6924513     -8.185156e-14  -7.5112305e-14 -151.85251     -3.1392773e-13
    248250   1396.1348      252.69078      1143.444       308.26371      7106.5952      1.0177122      4455.7805     -166.39186     -4.6924513     -8.1449623e-14 -7.5112574e-14 -166.39186     -3.1312439e-13
    248500   1408.5303      242.0426       1166.4877      295.27373      8988.2187      1.0177122      4455.7805     -155.43453     -4.6924513     -8.1984012e-14 -7.5110906e-14 -155.43453     -3.1418984e-13
    248750   1420.5198      257.95377      1162.5661      314.68416      7660.8582      1.0177122      4455.7805     -149.50614     -4.6924513     -8.1465358e-14 -7.5110041e-14 -149.50614     -3.131508e-13 
    249000   1405.696       246.9255       1158.7705      301.23051      5421.5825      1.0177122      4455.7805     -145.5757      -4.6924513     -8.199535e-14  -7.5113518e-14 -145.5757      -3.1421774e-13
    249250   1400.278       243.3148       1156.9632      296.82572      6591.7362      1.0177122      4455.7805     -151.19299     -4.6924513     -8.1735267e-14 -7.5111153e-14 -151.19299     -3.1369284e-13
    249500   1418.0526      251.60309      1166.4495      306.93681      3872.5369      1.0177122      4455.7805     -154.18423     -4.6924513     -8.1748521e-14 -7.5109521e-14 -154.18423     -3.1371609e-13
    249750   1393.1723      238.39815      1154.7742      290.82778      4310.6966      1.0177122      4455.7805     -145.41723     -4.6924513     -8.1578555e-14 -7.511218e-14  -145.41723     -3.1338147e-13
    250000   1396.9724      241.92004      1155.0523      295.12422      9446.1868      1.0177122      4455.7805     -159.30703     -4.6924513     -8.1690105e-14 -7.5112892e-14 -159.30703     -3.1360599e-13
    250250   1404.5764      252.23959      1152.3368      307.71329      9018.5088      1.0177122      4455.7805     -142.32674     -4.6924513     -8.1602887e-14 -7.5111104e-14 -142.32674     -3.1342798e-13
    250500   1402.4111      243.72592      1158.6852      297.32726      11447.494      1.0177122      4455.7805     -151.40435     -4.6924513     -8.1427369e-14 -7.5111993e-14 -151.40435     -3.1307872e-13
    250750   1396.8727      244.57746      1152.2953      298.36607      7052.7476      1.0177122      4455.7805     -154.38638     -4.6924513     -8.1413393e-14 -7.5109311e-14 -154.38638     -3.1304541e-13
    251000   1417.4235      250.61284      1166.8107      305.72878      1898.1862      1.0177122      4455.7805     -148.50605     -4.6924513     -8.1832065e-14 -7.5112867e-14 -148.50605     -3.1388986e-13
    251250   1429.4893      265.14996      1164.3393      323.46297      7702.9937      1.0177122      4455.7805     -153.63568     -4.6924513     -8.1703776e-14 -7.511114e-14  -153.63568     -3.1362983e-13
    251500   1404.4487      243.17243      1161.2763      296.65204      9513.864       1.0177122      4455.7805     -149.11771     -4.6924513     -8.1887184e-14 -7.5113295e-14 -149.11771     -3.1400096e-13
    251750   1399.1248      260.38202      1138.7428      317.64644      4939.8152      1.0177122      4455.7805     -149.44361     -4.6924513     -8.1285246e-14 -7.5106994e-14 -149.44361     -3.1278448e-13
    252000   1382.9162      237.59578      1145.3204      289.84894      7482.3103      1.0177122      4455.7805     -154.48468     -4.6924513     -8.1838327e-14 -7.5109553e-14 -154.48468     -3.1389576e-13
    252250   1374.1138      236.43112      1137.6827      288.42815      6698.4499      1.0177122      4455.7805     -144.57063     -4.6924513     -8.1613765e-14 -7.5105739e-14 -144.57063     -3.1343901e-13
    252500   1384.7815      237.06215      1147.7194      289.19795      8058.4435      1.0177122      4455.7805     -154.83921     -4.6924513     -8.1335209e-14 -7.5112287e-14 -154.83921     -3.1289499e-13
    252750   1399.1462      239.77859      1159.3676      292.5118       3865.3402      1.0177122      4455.7805     -154.81191     -4.6924513     -8.173632e-14  -7.511364e-14  -154.81191     -3.1369992e-13
    253000   1407.6107      237.63512      1169.9755      289.89694      8672.6878      1.0177122      4455.7805     -150.18419     -4.6924513     -8.1860023e-14 -7.5112454e-14 -150.18419     -3.1394495e-13
    253250   1409.0544      248.98071      1160.0737      303.7377       6445.7859      1.0177122      4455.7805     -152.03994     -4.6924513     -8.174215e-14  -7.5111855e-14 -152.03994     -3.1370801e-13
    253500   1408.7093      262.82401      1145.8853      320.62549      9621.7537      1.0177122      4455.7805     -143.36265     -4.6924513     -8.1926567e-14 -7.5112822e-14 -143.36265     -3.1407878e-13
    253750   1398.6971      256.94564      1141.7515      313.45432      8712.9467      1.0177122      4455.7805     -149.86399     -4.6924513     -8.1880662e-14 -7.5109691e-14 -149.86399     -3.1398071e-13
    254000   1414.0109      258.41116      1155.5997      315.24215      3454.814       1.0177122      4455.7805     -155.33906     -4.6924513     -8.1383139e-14 -7.5110819e-14 -155.33906     -3.1298792e-13
    254250   1416.9883      262.73904      1154.2493      320.52184      6716.9988      1.0177122      4455.7805     -147.66054     -4.6924513     -8.1594371e-14 -7.5110432e-14 -147.66054     -3.1340961e-13
    254500   1391.2435      245.0646       1146.1789      298.96034      4213.5214      1.0177122      4455.7805     -153.68441     -4.6924513     -8.1864251e-14 -7.5113232e-14 -153.68441     -3.1395497e-13
    254750   1412.4913      267.05376      1145.4376      325.78546      5133.0063      1.0177122      4455.7805     -149.78079     -4.6924513     -8.1561334e-14 -7.510959e-14  -149.78079     -3.1334185e-13
    255000   1399.4316      257.41155      1142.0201      314.0227       7472.0783      1.0177122      4455.7805     -148.08855     -4.6924513     -8.1757539e-14 -7.5112126e-14 -148.08855     -3.1373933e-13
    255250   1398.0924      240.87914      1157.2133      293.8544       5949.0308      1.0177122      4455.7805     -145.87855     -4.6924513     -8.1751262e-14 -7.5110449e-14 -145.87855     -3.1372342e-13
    255500   1410.9658      253.83043      1157.1354      309.654        7534.1482      1.0177122      4455.7805     -149.66707     -4.6924513     -8.1785549e-14 -7.5107573e-14 -149.66707     -3.1378624e-13
    255750   1402.2657      248.89818      1153.3675      303.63702      5416.6932      1.0177122      4455.7805     -149.30001     -4.6924513     -8.1768898e-14 -7.5110859e-14 -149.30001     -3.1375951e-13
    256000   1402.0265      244.12395      1157.9026      297.81282      8098.7235      1.0177122      4455.7805     -159.45803     -4.6924513     -8.1510472e-14 -7.5109298e-14 -159.45803     -3.1323954e-13
    256250   1398.2737      239.29017      1158.9835      291.91598      5057.9357      1.0177122      4455.7805     -149.32826     -4.6924513     -8.1620809e-14 -7.5113008e-14 -149.32826     -3.1346763e-13
    256500   1380.8648      239.52715      1141.3376      292.20507      7696.1953      1.0177122      4455.7805     -146.79687     -4.6924513     -8.1736346e-14 -7.5112968e-14 -146.79687     -3.1369863e-13
    256750   1403.6954      266.82595      1136.8694      325.50756      9131.3465      1.0177122      4455.7805     -148.47775     -4.6924513     -8.1605812e-14 -7.5113049e-14 -148.47775     -3.1343772e-13
    257000   1427.2983      270.63767      1156.6607      330.15756      5193.765       1.0177122      4455.7805     -149.33612     -4.6924513     -8.1725716e-14 -7.5111684e-14 -149.33612     -3.136748e-13 
    257250   1418.9096      254.76206      1164.1475      310.79052      5105.1078      1.0177122      4455.7805     -148.94952     -4.6924513     -8.1561136e-14 -7.5112645e-14 -148.94952     -3.1334756e-13
    257500   1393.0144      236.65186      1156.3625      288.69744      9227.5531      1.0177122      4455.7805     -145.60883     -4.6924513     -8.1683456e-14 -7.5110989e-14 -145.60883     -3.1358889e-13
    257750   1412.9852      242.39534      1170.5899      295.70405      5685.3626      1.0177122      4455.7805     -158.32738     -4.6924513     -8.1699833e-14 -7.5111784e-14 -158.32738     -3.1362323e-13
    258000   1359.9132      226.85451      1133.0587      276.7454       9293.9193      1.0177122      4455.7805     -153.28859     -4.6924513     -8.179293e-14  -7.5109042e-14 -153.28859     -3.1380394e-13
    258250   1432.5525      256.13258      1176.42        312.46245      11287.691      1.0177122      4455.7805     -152.75947     -4.6924513     -8.1692034e-14 -7.510894e-14  -152.75947     -3.1360195e-13
    258500   1406.7447      243.03352      1163.7112      296.48258      6257.6782      1.0177122      4455.7805     -144.54517     -4.6924513     -8.1563894e-14 -7.5112442e-14 -144.54517     -3.1335267e-13
    258750   1380.1556      232.00861      1148.147       283.03302      1753.7287      1.0177122      4455.7805     -151.56707     -4.6924513     -8.1408943e-14 -7.5109192e-14 -151.56707     -3.1303627e-13
    259000   1393.5902      236.16285      1157.4274      288.10088      6477.1382      1.0177122      4455.7805     -148.99604     -4.6924513     -8.1619987e-14 -7.5106218e-14 -148.99604     -3.1345241e-13
    259250   1423.2768      245.24226      1178.0345      299.17708      12292.207      1.0177122      4455.7805     -148.39942     -4.6924513     -8.1830745e-14 -7.511017e-14  -148.39942     -3.1388183e-13
    259500   1426.5363      264.35846      1162.1778      322.4974       8777.4463      1.0177122      4455.7805     -152.64553     -4.6924513     -8.1820918e-14 -7.511118e-14  -152.64553     -3.138642e-13 
    259750   1420.5152      264.99193      1155.5233      323.27019      5455.1471      1.0177122      4455.7805     -146.20515     -4.6924513     -8.148454e-14  -7.5109468e-14 -146.20515     -3.1318802e-13
    260000   1405.9082      236.24378      1169.6644      288.19961      8001.1343      1.0177122      4455.7805     -151.75167     -4.6924513     -8.1742129e-14 -7.5107557e-14 -151.75167     -3.1369937e-13
    260250   1426.1485      269.41872      1156.7298      328.67054      6831.8393      1.0177122      4455.7805     -150.37733     -4.6924513     -8.1597832e-14 -7.5106082e-14 -150.37733     -3.1340783e-13
    260500   1405.2465      246.91977      1158.3268      301.22351      4654.5033      1.0177122      4455.7805     -159.09243     -4.6924513     -8.1660434e-14 -7.5108992e-14 -159.09243     -3.1353885e-13
    260750   1440.3803      276.67383      1163.7064      337.52122      5149.6291      1.0177122      4455.7805     -151.8555      -4.6924513     -8.1435903e-14 -7.511255e-14  -151.8555      -3.1309691e-13
    261000   1387.6985      248.77064      1138.9279      303.48143      7095.6814      1.0177122      4455.7805     -156.74679     -4.6924513     -8.1959006e-14 -7.5111577e-14 -156.74679     -3.1414116e-13
    261250   1388.9965      232.87165      1156.1248      284.08586      5746.5721      1.0177122      4455.7805     -154.62496     -4.6924513     -8.1531173e-14 -7.5113336e-14 -154.62496     -3.1328902e-13
    261500   1420.2996      240.33022      1179.9694      293.18476      8470.1303      1.0177122      4455.7805     -149.84013     -4.6924513     -8.1832452e-14 -7.511143e-14  -149.84013     -3.1388776e-13
    261750   1414.0275      273.38587      1140.6417      333.51016      7624.3292      1.0177122      4455.7805     -148.91503     -4.6924513     -8.1958386e-14 -7.5107803e-14 -148.91503     -3.1413238e-13
    262000   1389.7505      243.69835      1146.0521      297.29362      2325.6941      1.0177122      4455.7805     -158.2682      -4.6924513     -8.1271467e-14 -7.5113329e-14 -158.2682      -3.1276959e-13
    262250   1426.6488      267.16873      1159.48        325.92572      6391.0642      1.0177122      4455.7805     -151.77687     -4.6924513     -8.154066e-14  -7.5107689e-14 -151.77687     -3.132967e-13 
    262500   1393.7497      237.01809      1156.7316      289.1442       4614.3749      1.0177122      4455.7805     -151.69555     -4.6924513     -8.1704373e-14 -7.5112621e-14 -151.69555     -3.1363399e-13
    262750   1397.4253      246.79107      1150.6342      301.06651      3970.4608      1.0177122      4455.7805     -147.87906     -4.6924513     -8.1374148e-14 -7.5112907e-14 -147.87906     -3.1297411e-13
    263000   1434.3194      274.6679       1159.6515      335.07414      12650.758      1.0177122      4455.7805     -143.48867     -4.6924513     -8.2275124e-14 -7.5107462e-14 -143.48867     -3.1476517e-13
    263250   1374.5198      230.5866       1143.9332      281.29828      10360.512      1.0177122      4455.7805     -156.06086     -4.6924513     -8.1685964e-14 -7.5111209e-14 -156.06086     -3.1359435e-13
    263500   1402.1559      240.35413      1161.8018      293.21392      9290.7655      1.0177122      4455.7805     -156.98244     -4.6924513     -8.1805814e-14 -7.5113431e-14 -156.98244     -3.1383849e-13
    263750   1393.4461      256.91015      1136.5359      313.41102      6989.8558      1.0177122      4455.7805     -150.8619      -4.6924513     -8.1705273e-14 -7.511e-14     -150.8619      -3.1363055e-13
    264000   1373.8148      224.56373      1149.2511      273.95083      10911.727      1.0177122      4455.7805     -155.88467     -4.6924513     -8.1355387e-14 -7.5110079e-14 -155.88467     -3.1293093e-13
    264250   1405.9386      260.70327      1145.2353      318.03834      8330.3236      1.0177122      4455.7805     -154.22228     -4.6924513     -8.1617074e-14 -7.5111354e-14 -154.22228     -3.1345685e-13
    264500   1406.6448      238.33826      1168.3065      290.75471      8252.5579      1.0177122      4455.7805     -154.98017     -4.6924513     -8.1693476e-14 -7.5108679e-14 -154.98017     -3.1360431e-13
    264750   1406.7944      245.87354      1160.9209      299.94719      7940.0865      1.0177122      4455.7805     -152.92943     -4.6924513     -8.1580349e-14 -7.5111658e-14 -152.92943     -3.1338401e-13
    265000   1404.9358      252.58716      1152.3486      308.1373       6195.4116      1.0177122      4455.7805     -154.19367     -4.6924513     -8.1595455e-14 -7.5112148e-14 -154.19367     -3.134152e-13 
    265250   1391.97        260.75821      1131.2118      318.10536      2494.9504      1.0177122      4455.7805     -154.81336     -4.6924513     -8.1465027e-14 -7.5110081e-14 -154.81336     -3.1315022e-13
    265500   1389.476       248.39209      1141.0839      303.01963      4013.3885      1.0177122      4455.7805     -157.05372     -4.6924513     -8.1587344e-14 -7.5109635e-14 -157.05372     -3.1339396e-13
    265750   1419.2965      257.62462      1161.6719      314.28263      7300.1301      1.0177122      4455.7805     -154.89568     -4.6924513     -8.1342808e-14 -7.5112495e-14 -154.89568     -3.129106e-13 
    266000   1405.9926      250.36084      1155.6317      305.42136      9927.6019      1.0177122      4455.7805     -151.28197     -4.6924513     -8.2051044e-14 -7.5111895e-14 -151.28197     -3.1432588e-13
    266250   1377.3889      223.44946      1153.9394      272.59151      8103.0814      1.0177122      4455.7805     -151.97883     -4.6924513     -8.1858295e-14 -7.5107834e-14 -151.97883     -3.1393226e-13
    266500   1417.5372      270.89713      1146.64        330.47408      5992.4913      1.0177122      4455.7805     -155.04174     -4.6924513     -8.1575658e-14 -7.5112625e-14 -155.04174     -3.1337657e-13
    266750   1434.3039      272.06225      1162.2416      331.89544      6858.4238      1.0177122      4455.7805     -155.89999     -4.6924513     -8.1773099e-14 -7.5110853e-14 -155.89999     -3.137679e-13 
    267000   1411.9188      254.64268      1157.2761      310.64488      3766.57        1.0177122      4455.7805     -154.94862     -4.6924513     -8.1599939e-14 -7.5110905e-14 -154.94862     -3.1342169e-13
    267250   1407.1932      268.60571      1138.5875      327.67873      8961.5171      1.0177122      4455.7805     -151.10095     -4.6924513     -8.1616411e-14 -7.5112299e-14 -151.10095     -3.1345742e-13
    267500   1381.7227      231.17859      1150.5441      282.02046      6115.7299      1.0177122      4455.7805     -146.93541     -4.6924513     -8.1789052e-14 -7.5109095e-14 -146.93541     -3.1379629e-13
    267750   1427.0486      262.04668      1165.0019      319.6772       5909.9568      1.0177122      4455.7805     -154.41663     -4.6924513     -8.1430372e-14 -7.5111164e-14 -154.41663     -3.1308307e-13
    268000   1393.183       233.15329      1160.0297      284.42945      7097.1584      1.0177122      4455.7805     -143.0119      -4.6924513     -8.1934894e-14 -7.5111433e-14 -143.0119      -3.1409265e-13
    268250   1431.3672      261.40593      1169.9613      318.89554      10628.289      1.0177122      4455.7805     -148.4515      -4.6924513     -8.1833063e-14 -7.5106951e-14 -148.4515      -3.1388003e-13
    268500   1376.1792      239.13135      1137.0479      291.72222      7651.9797      1.0177122      4455.7805     -157.2129      -4.6924513     -8.1587662e-14 -7.5112028e-14 -157.2129      -3.1339938e-13
    268750   1414.9174      256.41392      1158.5035      312.80565      6193.4244      1.0177122      4455.7805     -149.61522     -4.6924513     -8.1802866e-14 -7.5109204e-14 -149.61522     -3.1382414e-13
    269000   1398.8411      260.34428      1138.4968      317.6004       9352.6951      1.0177122      4455.7805     -149.58391     -4.6924513     -8.1771726e-14 -7.511231e-14  -149.58391     -3.1376807e-13
    269250   1405.1591      259.1197       1146.0394      316.10651      3886.3409      1.0177122      4455.7805     -146.80371     -4.6924513     -8.1677472e-14 -7.5109417e-14 -146.80371     -3.1357378e-13
    269500   1400.6806      238.27581      1162.4047      290.67853      2870.3207      1.0177122      4455.7805     -147.81723     -4.6924513     -8.1616967e-14 -7.5111326e-14 -147.81723     -3.1345659e-13
    269750   1394.4911      235.55346      1158.9377      287.35747      12172.897      1.0177122      4455.7805     -145.21197     -4.6924513     -8.1790082e-14 -7.5111333e-14 -145.21197     -3.1380283e-13
    270000   1428.4373      256.92977      1171.5075      313.43496      8228.3669      1.0177122      4455.7805     -151.31765     -4.6924513     -8.1723862e-14 -7.5112787e-14 -151.31765     -3.136733e-13 
    270250   1407.7169      257.81816      1149.8988      314.51872      5563.1617      1.0177122      4455.7805     -155.61405     -4.6924513     -8.140861e-14  -7.5111216e-14 -155.61405     -3.1303965e-13
    270500   1413.3473      264.78823      1148.5591      323.02169      4943.7676      1.0177122      4455.7805     -158.97036     -4.6924513     -8.1657909e-14 -7.5112927e-14 -158.97036     -3.1354167e-13
    270750   1392.2805      241.57837      1150.7021      294.7074       7498.0658      1.0177122      4455.7805     -141.40609     -4.6924513     -8.2057628e-14 -7.5110994e-14 -141.40609     -3.1433724e-13
    271000   1416.8782      254.88102      1161.9972      310.93563      4136.5186      1.0177122      4455.7805     -155.86128     -4.6924513     -8.1684634e-14 -7.5108112e-14 -155.86128     -3.1358549e-13
    271250   1373.6587      221.78755      1151.8711      270.5641       7804.8707      1.0177122      4455.7805     -149.09925     -4.6924513     -8.1769021e-14 -7.5112572e-14 -149.09925     -3.1376319e-13
    271500   1404.1228      234.62983      1169.493       286.23071      6033.6854      1.0177122      4455.7805     -152.52029     -4.6924513     -8.2054575e-14 -7.5112248e-14 -152.52029     -3.1433365e-13
    271750   1410.2668      261.57205      1148.6948      319.09819      6832.7685      1.0177122      4455.7805     -150.02958     -4.6924513     -8.1742596e-14 -7.5107919e-14 -150.02958     -3.1370103e-13
    272000   1404.4486      265.08772      1139.3608      323.38704      6036.1563      1.0177122      4455.7805     -153.24277     -4.6924513     -8.1808033e-14 -7.5111071e-14 -153.24277     -3.1383821e-13
    272250   1435.0741      282.85021      1152.2239      345.05594      5537.115       1.0177122      4455.7805     -156.51776     -4.6924513     -8.1510055e-14 -7.5109907e-14 -156.51776     -3.1323993e-13
    272500   1396.3034      249.31356      1146.9898      304.14375      5504.6259      1.0177122      4455.7805     -154.25065     -4.6924513     -8.1662272e-14 -7.5109924e-14 -154.25065     -3.1354439e-13
    272750   1430.5317      261.63348      1168.8982      319.17312      4503.4235      1.0177122      4455.7805     -156.21501     -4.6924513     -8.1656592e-14 -7.5110505e-14 -156.21501     -3.1353419e-13
    273000   1388.5765      238.74932      1149.8272      291.25618      4603.1514      1.0177122      4455.7805     -148.17097     -4.6924513     -8.1615987e-14 -7.5113088e-14 -148.17097     -3.1345815e-13
    273250   1394.461       243.8401       1150.6209      297.46655      4271.2662      1.0177122      4455.7805     -146.30589     -4.6924513     -8.1593542e-14 -7.5113562e-14 -146.30589     -3.1341421e-13
    273500   1405.0612      250.42758      1154.6337      305.50277      6279.0308      1.0177122      4455.7805     -156.39459     -4.6924513     -8.1901213e-14 -7.5112814e-14 -156.39459     -3.1402805e-13
    273750   1393.6734      230.90139      1162.7721      281.6823       4407.4691      1.0177122      4455.7805     -149.89974     -4.6924513     -8.1818043e-14 -7.5111428e-14 -149.89974     -3.1385894e-13
    274000   1421.6864      252.42175      1169.2647      307.93552      8017.201       1.0177122      4455.7805     -151.12757     -4.6924513     -8.1802456e-14 -7.5109069e-14 -151.12757     -3.1382305e-13
    274250   1388.4749      248.14607      1140.3289      302.71951      6181.8724      1.0177122      4455.7805     -158.26724     -4.6924513     -8.1387398e-14 -7.5106933e-14 -158.26724     -3.1298866e-13
    274500   1392.672       230.51511      1162.1568      281.21106      2215.5186      1.0177122      4455.7805     -151.42754     -4.6924513     -8.1615127e-14 -7.5110382e-14 -151.42754     -3.1345102e-13
    274750   1399.1658      245.68092      1153.4849      299.71221      6111.3546      1.0177122      4455.7805     -147.91583     -4.6924513     -8.1771214e-14 -7.5112937e-14 -147.91583     -3.137683e-13 
    275000   1409.2965      259.94284      1149.3537      317.11068      6815.2285      1.0177122      4455.7805     -153.68734     -4.6924513     -8.1279166e-14 -7.5106791e-14 -153.68734     -3.1277191e-13
    275250   1400.2468      255.83696      1144.4098      312.10181      5848.2771      1.0177122      4455.7805     -154.19787     -4.6924513     -8.1445962e-14 -7.5110393e-14 -154.19787     -3.1311271e-13
    275500   1408.7932      252.65111      1156.1421      308.21531      7559.9023      1.0177122      4455.7805     -149.29349     -4.6924513     -8.1763876e-14 -7.5111416e-14 -149.29349     -3.1375059e-13
    275750   1401.4213      233.12328      1168.298       284.39284      4541.6836      1.0177122      4455.7805     -153.51425     -4.6924513     -8.1719923e-14 -7.5113075e-14 -153.51425     -3.1366599e-13
    276000   1394.8041      261.52302      1133.2811      319.03838      3268.7227      1.0177122      4455.7805     -147.15911     -4.6924513     -8.1535099e-14 -7.5112046e-14 -147.15911     -3.1329429e-13
    276250   1394.7415      253.63939      1141.1021      309.42094      7686.3749      1.0177122      4455.7805     -150.02177     -4.6924513     -8.1794179e-14 -7.5113457e-14 -150.02177     -3.1381527e-13
    276500   1398.7629      249.80063      1148.9623      304.73794      9585.0624      1.0177122      4455.7805     -152.00982     -4.6924513     -8.1587777e-14 -7.5110297e-14 -152.00982     -3.1339615e-13
    276750   1422.8607      268.82125      1154.0394      327.94166      8590.4292      1.0177122      4455.7805     -144.51494     -4.6924513     -8.1851866e-14 -7.5111808e-14 -144.51494     -3.1392735e-13
    277000   1406.7083      236.36695      1170.3413      288.34987      3898.407       1.0177122      4455.7805     -146.83626     -4.6924513     -8.1797788e-14 -7.5111532e-14 -146.83626     -3.1381864e-13
    277250   1392.6789      235.29998      1157.3789      287.04825      3990.7729      1.0177122      4455.7805     -156.8221      -4.6924513     -8.1607798e-14 -7.5112159e-14 -156.8221      -3.1343991e-13
    277500   1421.8998      257.94022      1163.9596      314.66763      9028.7554      1.0177122      4455.7805     -156.82484     -4.6924513     -8.1328347e-14 -7.5110525e-14 -156.82484     -3.1287774e-13
    277750   1410.8826      253.16857      1157.714       308.84658      5665.8233      1.0177122      4455.7805     -147.9257      -4.6924513     -8.1771241e-14 -7.5111829e-14 -147.9257      -3.1376614e-13
    278000   1393.2348      235.03368      1158.2011      286.72338      1546.0903      1.0177122      4455.7805     -153.37967     -4.6924513     -8.1141135e-14 -7.5108257e-14 -153.37967     -3.1249878e-13
    278250   1413.704       259.96826      1153.7357      317.14168      9172.9419      1.0177122      4455.7805     -145.77931     -4.6924513     -8.1787454e-14 -7.5109083e-14 -145.77931     -3.1379307e-13
    278500   1401.6841      241.51144      1160.1726      294.62576      7584.6267      1.0177122      4455.7805     -157.37228     -4.6924513     -8.1615309e-14 -7.5105282e-14 -157.37228     -3.1344118e-13
    278750   1406.9137      247.83574      1159.0779      302.34092      2726.2256      1.0177122      4455.7805     -156.05225     -4.6924513     -8.1750994e-14 -7.5108841e-14 -156.05225     -3.1371967e-13
    279000   1413.9153      262.25117      1151.6641      319.92666      876.36318      1.0177122      4455.7805     -151.30644     -4.6924513     -8.1344498e-14 -7.5112867e-14 -151.30644     -3.1291473e-13
    279250   1417.0025      253.88423      1163.1183      309.71963      8206.7718      1.0177122      4455.7805     -157.21591     -4.6924513     -8.1688928e-14 -7.5108454e-14 -157.21591     -3.1359476e-13
    279500   1401.4456      256.50556      1144.9401      312.91745      9252.8274      1.0177122      4455.7805     -149.3237      -4.6924513     -8.1473303e-14 -7.5107596e-14 -149.3237      -3.131618e-13 
    279750   1439.3319      269.09457      1170.2373      328.2751       6043.5748      1.0177122      4455.7805     -149.17516     -4.6924513     -8.1791588e-14 -7.5111993e-14 -149.17516     -3.1380716e-13
    280000   1430.2253      270.00322      1160.2221      329.38359      2672.3356      1.0177122      4455.7805     -158.66969     -4.6924513     -8.163651e-14  -7.5111582e-14 -158.66969     -3.1349618e-13
    280250   1415.9876      267.71014      1148.2775      326.5862       9371.9087      1.0177122      4455.7805     -155.33515     -4.6924513     -8.1788193e-14 -7.5108758e-14 -155.33515     -3.137939e-13 
    280500   1417.9727      258.11663      1159.8561      314.88284      11109.37       1.0177122      4455.7805     -159.06144     -4.6924513     -8.1867763e-14 -7.5112939e-14 -159.06144     -3.139614e-13 
    280750   1403.281       254.64202      1148.639       310.64408      4757.1387      1.0177122      4455.7805     -146.28726     -4.6924513     -8.1837622e-14 -7.5109504e-14 -146.28726     -3.1389425e-13
    281000   1404.217       235.90137      1168.3157      287.7819       6233.3831      1.0177122      4455.7805     -145.42442     -4.6924513     -8.1610638e-14 -7.5110797e-14 -145.42442     -3.1344287e-13
    281250   1445.5681      259.08282      1186.4852      316.06152      4157.6215      1.0177122      4455.7805     -146.52078     -4.6924513     -8.1570446e-14 -7.5111366e-14 -146.52078     -3.1336362e-13
    281500   1412.1478      242.58251      1169.5653      295.93238      2350.6049      1.0177122      4455.7805     -144.87569     -4.6924513     -8.1592839e-14 -7.5110596e-14 -144.87569     -3.1340687e-13
    281750   1416.6174      257.11127      1159.5061      313.65638      5593.7396      1.0177122      4455.7805     -147.12587     -4.6924513     -8.1343519e-14 -7.511169e-14  -147.12587     -3.1291042e-13
    282000   1394.7057      248.10702      1146.5986      302.67186      2607.6863      1.0177122      4455.7805     -157.16822     -4.6924513     -8.1564568e-14 -7.5111013e-14 -157.16822     -3.1335116e-13
    282250   1420.0392      270.9633       1149.0759      330.55481      4744.6298      1.0177122      4455.7805     -155.76095     -4.6924513     -8.1514009e-14 -7.5112968e-14 -155.76095     -3.1325395e-13
    282500   1425.2107      250.45531      1174.7554      305.5366       3578.358       1.0177122      4455.7805     -148.0307      -4.6924513     -8.1479842e-14 -7.5114019e-14 -148.0307      -3.1318772e-13
    282750   1416.2464      264.2491       1151.9973      322.36399      8807.2913      1.0177122      4455.7805     -153.38595     -4.6924513     -8.1997572e-14 -7.5112447e-14 -153.38595     -3.1422004e-13
    283000   1422.7346      270.62463      1152.11        330.14166      9282.7472      1.0177122      4455.7805     -146.32158     -4.6924513     -8.1826788e-14 -7.5112393e-14 -146.32158     -3.1387836e-13
    283250   1417.4784      258.98887      1158.4895      315.9469       4776.5924      1.0177122      4455.7805     -152.54983     -4.6924513     -8.1767715e-14 -7.5112515e-14 -152.54983     -3.1376046e-13
    283500   1406.2923      246.21352      1160.0788      300.36194      6387.5062      1.0177122      4455.7805     -151.94358     -4.6924513     -8.1618771e-14 -7.5111359e-14 -151.94358     -3.1346026e-13
    283750   1414.7164      258.98887      1155.7275      315.9469       9239.2832      1.0177122      4455.7805     -149.89284     -4.6924513     -8.164006e-14  -7.5109807e-14 -149.89284     -3.1349974e-13
    284000   1404.7088      258.82603      1145.8827      315.74825      5276.4393      1.0177122      4455.7805     -150.58203     -4.6924513     -8.1371812e-14 -7.5112263e-14 -150.58203     -3.1296815e-13
    284250   1400.9681      244.57994      1156.3882      298.3691       6562.6421      1.0177122      4455.7805     -158.97421     -4.6924513     -8.1699234e-14 -7.5111799e-14 -158.97421     -3.1362206e-13
    284500   1395.2451      248.91071      1146.3344      303.65231      5914.4197      1.0177122      4455.7805     -153.64857     -4.6924513     -8.1905201e-14 -7.5109634e-14 -153.64857     -3.1402967e-13
    284750   1414.4069      251.22289      1163.184       306.473        5705.0247      1.0177122      4455.7805     -150.44434     -4.6924513     -8.1499139e-14 -7.5112177e-14 -150.44434     -3.1322263e-13
    285000   1413.8679      258.44914      1155.4187      315.28848      6756.3318      1.0177122      4455.7805     -152.7527      -4.6924513     -8.1619993e-14 -7.5112642e-14 -152.7527      -3.1346527e-13
    285250   1397.5451      238.94031      1158.6048      291.48917      10160.27       1.0177122      4455.7805     -151.54665     -4.6924513     -8.1826686e-14 -7.5112462e-14 -151.54665     -3.138783e-13 
    285500   1402.3451      263.21796      1139.1271      321.10607      6570.3312      1.0177122      4455.7805     -151.05974     -4.6924513     -8.1938415e-14 -7.510606e-14  -151.05974     -3.1408895e-13
    285750   1434.4732      278.12726      1156.3459      339.2943       6667.246       1.0177122      4455.7805     -152.02577     -4.6924513     -8.1769298e-14 -7.5111254e-14 -152.02577     -3.1376111e-13
    286000   1390.251       248.77163      1141.4794      303.48264      4615.1288      1.0177122      4455.7805     -143.9227      -4.6924513     -8.1415342e-14 -7.5111013e-14 -143.9227      -3.1305271e-13
    286250   1396.8084      259.74754      1137.0609      316.87243      13182.615      1.0177122      4455.7805     -153.24398     -4.6924513     -8.2001642e-14 -7.5110508e-14 -153.24398     -3.142243e-13 
    286500   1406.4132      249.11238      1157.3008      303.89833      5980.97        1.0177122      4455.7805     -153.77083     -4.6924513     -8.1662034e-14 -7.5110655e-14 -153.77083     -3.1354538e-13
    286750   1434.1577      276.84801      1157.3097      337.7337       5196.9706      1.0177122      4455.7805     -142.90297     -4.6924513     -8.1807885e-14 -7.5111436e-14 -142.90297     -3.1383864e-13
    287000   1428.9022      263.44955      1165.4526      321.38859      1880.2512      1.0177122      4455.7805     -156.53629     -4.6924513     -8.1487313e-14 -7.5113097e-14 -156.53629     -3.1320082e-13
    287250   1406.7542      245.46258      1161.2917      299.44584      7672.4256      1.0177122      4455.7805     -151.94456     -4.6924513     -8.1759395e-14 -7.5111335e-14 -151.94456     -3.1374146e-13
    287500   1422.5278      252.36764      1170.1602      307.86951      7102.6119      1.0177122      4455.7805     -144.27435     -4.6924513     -8.2011184e-14 -7.5112838e-14 -144.27435     -3.1424804e-13
    287750   1421.526       260.43318      1161.0928      317.70885      4445.8899      1.0177122      4455.7805     -148.15769     -4.6924513     -8.1734591e-14 -7.510841e-14  -148.15769     -3.13686e-13  
    288000   1423.5002      264.50502      1158.9952      322.6762       7097.7392      1.0177122      4455.7805     -152.98757     -4.6924513     -8.1945866e-14 -7.5112066e-14 -152.98757     -3.1411586e-13
    288250   1372.0689      240.76079      1131.3082      293.71002      7772.2994      1.0177122      4455.7805     -156.16326     -4.6924513     -8.1501522e-14 -7.5113311e-14 -156.16326     -3.1322967e-13
    288500   1420.8302      259.68828      1161.1419      316.80014      4620.5157      1.0177122      4455.7805     -150.50292     -4.6924513     -8.1586809e-14 -7.5112582e-14 -150.50292     -3.1339878e-13
    288750   1395.9221      232.54709      1163.375       283.68992      5730.0891      1.0177122      4455.7805     -158.42937     -4.6924513     -8.1704405e-14 -7.5112172e-14 -158.42937     -3.1363315e-13
    289000   1398.0743      244.37701      1153.6973      298.12154      5562.3645      1.0177122      4455.7805     -147.73283     -4.6924513     -8.1781645e-14 -7.5112352e-14 -147.73283     -3.1378799e-13
    289250   1387.1988      231.8575       1155.3413      282.84868      4378.1493      1.0177122      4455.7805     -155.56743     -4.6924513     -8.1974583e-14 -7.511143e-14  -155.56743     -3.1417203e-13
    289500   1418.3207      267.61795      1150.7027      326.47373      3636.7565      1.0177122      4455.7805     -160.71634     -4.6924513     -8.1625614e-14 -7.5111506e-14 -160.71634     -3.1347424e-13
    289750   1396.1542      240.89521      1155.259       293.874        2954.1444      1.0177122      4455.7805     -147.52592     -4.6924513     -8.1653427e-14 -7.5111791e-14 -147.52592     -3.1353044e-13
    290000   1387.8191      237.69521      1150.1239      289.97024      7840.2595      1.0177122      4455.7805     -148.99896     -4.6924513     -8.1781136e-14 -7.511136e-14  -148.99896     -3.1378499e-13
    290250   1408.6114      246.78661      1161.8248      301.06107      1648.172       1.0177122      4455.7805     -153.64075     -4.6924513     -8.1404074e-14 -7.5109653e-14 -153.64075     -3.1302745e-13
    290500   1417.9072      247.90371      1170.0034      302.42384      9805.201       1.0177122      4455.7805     -146.23577     -4.6924513     -8.1879702e-14 -7.5109137e-14 -146.23577     -3.1397768e-13
    290750   1404.692       251.04228      1153.6498      306.25266      6941.1477      1.0177122      4455.7805     -157.2733      -4.6924513     -8.1528611e-14 -7.511003e-14  -157.2733      -3.1327728e-13
    291000   1415.435       259.66743      1155.7676      316.7747       3533.7508      1.0177122      4455.7805     -150.28629     -4.6924513     -8.150584e-14  -7.5110688e-14 -150.28629     -3.1323306e-13
    291250   1407.0589      252.86599      1154.1929      308.47745      7838.5383      1.0177122      4455.7805     -150.06368     -4.6924513     -8.1601638e-14 -7.5110319e-14 -150.06368     -3.1342391e-13
    291500   1373.8722      233.58984      1140.2824      284.962        7432.7746      1.0177122      4455.7805     -157.33892     -4.6924513     -8.1611694e-14 -7.511054e-14  -157.33892     -3.1344447e-13
    291750   1421.4906      263.96081      1157.5298      322.0123       6345.0951      1.0177122      4455.7805     -153.20095     -4.6924513     -8.1099641e-14 -7.5112156e-14 -153.20095     -3.1242359e-13
    292000   1431.3576      260.89544      1170.4621      318.27278      11943.703      1.0177122      4455.7805     -151.65081     -4.6924513     -8.2010443e-14 -7.5111641e-14 -151.65081     -3.1424417e-13
    292250   1418.5108      245.91082      1172.6         299.99267      8064.4138      1.0177122      4455.7805     -151.41397     -4.6924513     -8.1656086e-14 -7.5112372e-14 -151.41397     -3.1353692e-13
    292500   1418.8928      274.34821      1144.5446      334.68414      10109.389      1.0177122      4455.7805     -152.7957      -4.6924513     -8.1811845e-14 -7.5110185e-14 -152.7957      -3.1384406e-13
    292750   1412.2491      256.09371      1156.1554      312.41503      11166.153      1.0177122      4455.7805     -152.42378     -4.6924513     -8.1823153e-14 -7.5111839e-14 -152.42378     -3.1386999e-13
    293000   1379.9118      247.53238      1132.3794      301.97085      3454.9387      1.0177122      4455.7805     -148.23953     -4.6924513     -8.1725369e-14 -7.5113245e-14 -148.23953     -3.1367723e-13
    293250   1407.7406      255.3976       1152.343       311.56582      8476.3751      1.0177122      4455.7805     -153.43359     -4.6924513     -8.1555893e-14 -7.510956e-14  -153.43359     -3.1333091e-13
    293500   1423.2473      267.88523      1155.3621      326.79979      7491.2474      1.0177122      4455.7805     -153.06747     -4.6924513     -8.167685e-14  -7.5111079e-14 -153.06747     -3.1357586e-13
    293750   1393.6305      232.41694      1161.2135      283.53116      7393.4661      1.0177122      4455.7805     -152.18302     -4.6924513     -8.1831197e-14 -7.5111436e-14 -152.18302     -3.1388527e-13
    294000   1415.6716      264.18579      1151.4858      322.28676      4599.6271      1.0177122      4455.7805     -154.1694      -4.6924513     -8.1678948e-14 -7.5108097e-14 -154.1694      -3.1357409e-13
    294250   1386.6663      257.51418      1129.1521      314.1479       8177.0149      1.0177122      4455.7805     -151.88307     -4.6924513     -8.143384e-14  -7.5112322e-14 -151.88307     -3.1309232e-13
    294500   1417.2787      268.315        1148.9637      327.32409      2905.6789      1.0177122      4455.7805     -147.54361     -4.6924513     -8.1618289e-14 -7.511039e-14  -147.54361     -3.1345736e-13
    294750   1396.6605      236.96445      1159.696       289.07877      3365.3219      1.0177122      4455.7805     -153.45023     -4.6924513     -8.176995e-14  -7.5110061e-14 -153.45023     -3.1376002e-13
    295000   1407.2925      254.3961       1152.8964      310.34407      7029.6584      1.0177122      4455.7805     -152.75617     -4.6924513     -8.1839065e-14 -7.5111152e-14 -152.75617     -3.1390043e-13
    295250   1380.5682      222.83625      1157.732       271.84343      6370.1387      1.0177122      4455.7805     -145.95048     -4.6924513     -8.1584421e-14 -7.5111186e-14 -145.95048     -3.1339121e-13
    295500   1417.7284      262.97223      1154.7562      320.8063       6879.3154      1.0177122      4455.7805     -150.591       -4.6924513     -8.1891259e-14 -7.5113046e-14 -150.591       -3.1400861e-13
    295750   1407.2702      260.81423      1146.4559      318.1737       13396.81       1.0177122      4455.7805     -153.42352     -4.6924513     -8.1933226e-14 -7.5102751e-14 -153.42352     -3.1407195e-13
    296000   1403.8818      243.418        1160.4638      296.95162      6869.4996      1.0177122      4455.7805     -145.6505      -4.6924513     -8.1929116e-14 -7.5110998e-14 -145.6505      -3.1408023e-13
    296250   1433.0912      267.6901       1165.4011      326.56175      7561.5001      1.0177122      4455.7805     -148.67486     -4.6924513     -8.1720907e-14 -7.5111851e-14 -148.67486     -3.1366552e-13
    296500   1402.6594      257.56587      1145.0935      314.21096      3213.5878      1.0177122      4455.7805     -141.23812     -4.6924513     -8.1768269e-14 -7.5110625e-14 -141.23812     -3.1375779e-13
    296750   1411.5647      256.86757      1154.6972      313.35908      4191.454       1.0177122      4455.7805     -149.93944     -4.6924513     -8.1442494e-14 -7.5112002e-14 -149.93944     -3.1310899e-13
    297000   1377.2971      232.00431      1145.2928      283.02778      12069.047      1.0177122      4455.7805     -154.05507     -4.6924513     -8.1718465e-14 -7.5109853e-14 -154.05507     -3.1365664e-13
    297250   1405.7401      250.2261       1155.514       305.25699      6241.2893      1.0177122      4455.7805     -138.17395     -4.6924513     -8.1944306e-14 -7.5110624e-14 -138.17395     -3.1410986e-13
    297500   1398.8794      252.35755      1146.5218      307.8572       6558.7927      1.0177122      4455.7805     -148.79139     -4.6924513     -8.1628933e-14 -7.5108227e-14 -148.79139     -3.1347432e-13
    297750   1420.7969      258.85765      1161.9393      315.78682      9536.3061      1.0177122      4455.7805     -152.82511     -4.6924513     -8.1976282e-14 -7.5112598e-14 -152.82511     -3.1417776e-13
    298000   1402.4446      249.73996      1152.7046      304.66394      5247.4282      1.0177122      4455.7805     -148.25155     -4.6924513     -8.1832478e-14 -7.511132e-14  -148.25155     -3.138876e-13 
    298250   1416.2782      258.35466      1157.9235      315.17321      9017.5771      1.0177122      4455.7805     -154.62764     -4.6924513     -8.1478652e-14 -7.5112615e-14 -154.62764     -3.1318253e-13
    298500   1445.2551      267.58363      1177.6715      326.43186      5853.2694      1.0177122      4455.7805     -153.02997     -4.6924513     -8.1738782e-14 -7.5111783e-14 -153.02997     -3.1370113e-13
    298750   1396.899       245.85162      1151.0474      299.92045      5600.1151      1.0177122      4455.7805     -153.3448      -4.6924513     -8.115146e-14  -7.5110453e-14 -153.3448      -3.1252383e-13
    299000   1395.4101      243.26981      1152.1403      296.77083      6282.751       1.0177122      4455.7805     -148.41706     -4.6924513     -8.1611157e-14 -7.5112773e-14 -148.41706     -3.1344786e-13
    299250   1399.3558      238.28875      1161.0671      290.69432      8089.9124      1.0177122      4455.7805     -158.63507     -4.6924513     -8.1680828e-14 -7.5113398e-14 -158.63507     -3.1358845e-13
    299500   1412.5066      259.5162       1152.9904      316.59021      5468.6735      1.0177122      4455.7805     -155.03395     -4.6924513     -8.1547263e-14 -7.5111057e-14 -155.03395     -3.1331664e-13
    299750   1373.3401      239.23823      1134.1019      291.85261      6354.3571      1.0177122      4455.7805     -146.401       -4.6924513     -8.1443232e-14 -7.5111507e-14 -146.401       -3.1310948e-13
    300000   1394.2341      260.2569       1133.9772      317.4938       5556.9535      1.0177122      4455.7805     -150.31037     -4.6924513     -8.1474063e-14 -7.5109766e-14 -150.31037     -3.1316766e-13
    300250   1426.0338      272.25358      1153.7802      332.12885      5109.909       1.0177122      4455.7805     -149.15928     -4.6924513     -8.1808102e-14 -7.5111984e-14 -149.15928     -3.1384017e-13
    300500   1412.0676      247.97079      1164.0968      302.50567      4791.3099      1.0177122      4455.7805     -154.54389     -4.6924513     -8.1095182e-14 -7.5111827e-14 -154.54389     -3.1241402e-13
    300750   1390.8504      235.60233      1155.2481      287.41708      9827.3909      1.0177122      4455.7805     -144.62125     -4.6924513     -8.202343e-14  -7.5111313e-14 -144.62125     -3.1426948e-13
    301000   1397.882       243.58927      1154.2927      297.16055      5619.2731      1.0177122      4455.7805     -145.84669     -4.6924513     -8.1757328e-14 -7.5112473e-14 -145.84669     -3.137396e-13 
    301250   1417.7775      283.48769      1134.2898      345.83362      5438.9632      1.0177122      4455.7805     -148.09207     -4.6924513     -8.1906874e-14 -7.5109188e-14 -148.09207     -3.1403212e-13
    301500   1406.601       253.27904      1153.3219      308.98135      11027.877      1.0177122      4455.7805     -154.52779     -4.6924513     -8.1885762e-14 -7.5110642e-14 -154.52779     -3.1399281e-13
    301750   1399.053       249.02733      1150.0257      303.79458      2048.3493      1.0177122      4455.7805     -147.68511     -4.6924513     -8.1419012e-14 -7.5105766e-14 -147.68511     -3.1304956e-13
    302000   1390.8955      238.83389      1152.0616      291.35934      8548.5532      1.0177122      4455.7805     -151.42793     -4.6924513     -8.1798098e-14 -7.5112542e-14 -151.42793     -3.1382128e-13
    302250   1429.8495      259.91879      1169.9307      317.08134      7180.4482      1.0177122      4455.7805     -145.86307     -4.6924513     -8.1750789e-14 -7.511104e-14  -145.86307     -3.1372366e-13
    302500   1433.9559      261.63855      1172.3173      319.17932      7889.0371      1.0177122      4455.7805     -155.41707     -4.6924513     -8.1674646e-14 -7.5113328e-14 -155.41707     -3.1357595e-13
    302750   1409.7035      250.34795      1159.3555      305.40563      7488.779       1.0177122      4455.7805     -151.4818      -4.6924513     -8.1813715e-14 -7.5111757e-14 -151.4818      -3.1385094e-13
    303000   1453.1107      277.25364      1175.857       338.22854      10816.66       1.0177122      4455.7805     -155.12382     -4.6924513     -8.1516719e-14 -7.5108967e-14 -155.12382     -3.1325137e-13
    303250   1423.9542      262.9723       1160.9819      320.80639      1911.877       1.0177122      4455.7805     -153.21002     -4.6924513     -8.1539074e-14 -7.5111722e-14 -153.21002     -3.1330159e-13
    303500   1402.4884      248.43851      1154.0499      303.07626      6411.6901      1.0177122      4455.7805     -151.28329     -4.6924513     -8.1739589e-14 -7.5113087e-14 -151.28329     -3.1370535e-13
    303750   1417.2445      257.23991      1160.0046      313.8133       7748.8974      1.0177122      4455.7805     -156.06356     -4.6924513     -8.1939818e-14 -7.510872e-14  -156.06356     -3.1409708e-13
    304000   1416.3503      247.99344      1168.3568      302.53331      3728.3936      1.0177122      4455.7805     -153.45396     -4.6924513     -8.1757214e-14 -7.5113152e-14 -153.45396     -3.1374073e-13
    304250   1418.7244      260.63289      1158.0915      317.95249      9465.4345      1.0177122      4455.7805     -154.37828     -4.6924513     -8.1705271e-14 -7.5111489e-14 -154.37828     -3.1363352e-13
    304500   1406.9245      235.38556      1171.5389      287.15264      6329.5457      1.0177122      4455.7805     -153.38251     -4.6924513     -8.1622615e-14 -7.5110267e-14 -153.38251     -3.1346576e-13
    304750   1395.3232      241.89447      1153.4288      295.09302      6606.3804      1.0177122      4455.7805     -146.60221     -4.6924513     -8.1942308e-14 -7.5111946e-14 -146.60221     -3.1410851e-13
    305000   1399.206       252.41382      1146.7922      307.92584      2322.2136      1.0177122      4455.7805     -151.11536     -4.6924513     -8.1695642e-14 -7.5109679e-14 -151.11536     -3.1361064e-13
    305250   1423.3823      259.4053       1163.977       316.45492      9345.0643      1.0177122      4455.7805     -155.29851     -4.6924513     -8.1851879e-14 -7.5110668e-14 -155.29851     -3.1392509e-13
    305500   1419.243       263.01902      1156.2239      320.86338      821.27973      1.0177122      4455.7805     -151.82287     -4.6924513     -8.1432995e-14 -7.5109445e-14 -151.82287     -3.1308488e-13
    305750   1408.094       257.90527      1150.1887      314.62499      2198.9712      1.0177122      4455.7805     -155.10628     -4.6924513     -8.1557748e-14 -7.5110387e-14 -155.10628     -3.1333627e-13
    306000   1420.8131      245.48329      1175.3298      299.47111      4316.6348      1.0177122      4455.7805     -147.74263     -4.6924513     -8.1700825e-14 -7.5110397e-14 -147.74263     -3.1362244e-13
    306250   1410.2401      250.54051      1159.6996      305.64054      4766.6642      1.0177122      4455.7805     -152.6044      -4.6924513     -8.1605728e-14 -7.5109094e-14 -152.6044      -3.1342964e-13
    306500   1407.6247      245.44904      1162.1757      299.42933      8559.2858      1.0177122      4455.7805     -151.68967     -4.6924513     -8.2078668e-14 -7.5112007e-14 -151.68967     -3.1438135e-13
    306750   1420.7486      272.77337      1147.9753      332.76295      5686.5149      1.0177122      4455.7805     -153.16837     -4.6924513     -8.1457851e-14 -7.5113106e-14 -153.16837     -3.1314191e-13
    307000   1406.609       256.02422      1150.5848      312.33026      11280.012      1.0177122      4455.7805     -155.26036     -4.6924513     -8.1790431e-14 -7.5112226e-14 -155.26036     -3.1380531e-13
    307250   1388.1038      239.43015      1148.6736      292.08674      4472.1838      1.0177122      4455.7805     -155.93723     -4.6924513     -8.1523741e-14 -7.5110054e-14 -155.93723     -3.1326759e-13
    307500   1407.7338      265.55908      1142.1747      323.96206      8981.2623      1.0177122      4455.7805     -159.697       -4.6924513     -8.2024959e-14 -7.5109479e-14 -159.697       -3.1426888e-13
    307750   1408.1049      258.30188      1149.803       315.10882      8976.107       1.0177122      4455.7805     -155.76006     -4.6924513     -8.1817705e-14 -7.5111648e-14 -155.76006     -3.1385871e-13
    308000   1400.8563      238.2485       1162.6078      290.64522      1615.0791      1.0177122      4455.7805     -156.82676     -4.6924513     -8.1444022e-14 -7.5111349e-14 -156.82676     -3.1311074e-13
    308250   1391.3864      248.87562      1142.5107      303.60951      3172.9383      1.0177122      4455.7805     -152.88926     -4.6924513     -8.1387131e-14 -7.5107895e-14 -152.88926     -3.1299005e-13
    308500   1402.0722      238.6038       1163.4684      291.07866      4030.1259      1.0177122      4455.7805     -159.05182     -4.6924513     -8.1181714e-14 -7.5111761e-14 -159.05182     -3.1258695e-13
    308750   1405.9857      240.52484      1165.4609      293.42218      7475.5126      1.0177122      4455.7805     -147.39678     -4.6924513     -8.162947e-14  -7.5110522e-14 -147.39678     -3.1347998e-13
    309000   1405.9862      254.16551      1151.8207      310.06277      8298.1735      1.0177122      4455.7805     -150.91492     -4.6924513     -8.2062668e-14 -7.511115e-14  -150.91492     -3.1434764e-13
    309250   1378.0958      249.98781      1128.1079      304.96629      5765.3698      1.0177122      4455.7805     -156.46557     -4.6924513     -8.1488138e-14 -7.5109761e-14 -156.46557     -3.131958e-13 
    309500   1424.5116      264.09814      1160.4135      322.17983      6325.0534      1.0177122      4455.7805     -149.52738     -4.6924513     -8.1770049e-14 -7.5110037e-14 -149.52738     -3.1376017e-13
    309750   1404.4039      246.06687      1158.337       300.18304      10102.767      1.0177122      4455.7805     -150.24619     -4.6924513     -8.188299e-14  -7.5109063e-14 -150.24619     -3.1398411e-13
    310000   1378.7357      247.29639      1131.4393      301.68297      4103.3995      1.0177122      4455.7805     -143.88605     -4.6924513     -8.1991225e-14 -7.5110291e-14 -143.88605     -3.1420303e-13
    310250   1410.9494      244.46311      1166.4863      298.22657      9978.604       1.0177122      4455.7805     -145.23475     -4.6924513     -8.1875258e-14 -7.5113317e-14 -145.23475     -3.1397715e-13
    310500   1402.5355      241.22032      1161.3152      294.27061      5396.3113      1.0177122      4455.7805     -153.57699     -4.6924513     -8.1750834e-14 -7.5112023e-14 -153.57699     -3.1372571e-13
    310750   1402.2969      253.08938      1149.2075      308.74997      9472.939       1.0177122      4455.7805     -153.91612     -4.6924513     -8.1843461e-14 -7.5112351e-14 -153.91612     -3.1391162e-13
    311000   1416.2831      271.04523      1145.2379      330.65475      7140.5692      1.0177122      4455.7805     -143.36096     -4.6924513     -8.1922401e-14 -7.5112878e-14 -143.36096     -3.1407056e-13
    311250   1377.0625      228.39938      1148.6632      278.63003      6207.9896      1.0177122      4455.7805     -155.30215     -4.6924513     -8.1767529e-14 -7.5109e-14    -155.30215     -3.1375306e-13
    311500   1388.6617      231.00183      1157.6599      281.80483      10805.023      1.0177122      4455.7805     -154.58162     -4.6924513     -8.1781581e-14 -7.5113283e-14 -154.58162     -3.1378973e-13
    311750   1382.2175      242.063        1140.1545      295.29862      3741.5981      1.0177122      4455.7805     -152.3865      -4.6924513     -8.1437334e-14 -7.5110683e-14 -152.3865      -3.1309603e-13
    312000   1387.308       249.06882      1138.2392      303.84519      6324.1354      1.0177122      4455.7805     -155.36938     -4.6924513     -8.1756697e-14 -7.511259e-14  -155.36938     -3.1373857e-13
    312250   1405.0804      251.69854      1153.3818      307.05325      3564.2381      1.0177122      4455.7805     -159.57379     -4.6924513     -8.134653e-14  -7.5113307e-14 -159.57379     -3.1291968e-13
    312500   1380.7015      235.81443      1144.8871      287.67583      4756.4851      1.0177122      4455.7805     -151.14526     -4.6924513     -8.1529809e-14 -7.5109336e-14 -151.14526     -3.1327829e-13
    312750   1419.8838      267.74673      1152.1371      326.63084      6967.2096      1.0177122      4455.7805     -155.90869     -4.6924513     -8.1807525e-14 -7.5111639e-14 -155.90869     -3.1383833e-13
    313000   1430.7319      257.74617      1172.9857      314.43091      9885.8154      1.0177122      4455.7805     -147.73241     -4.6924513     -8.21047e-14   -7.5106157e-14 -147.73241     -3.1442171e-13
    313250   1398.8399      258.90709      1139.9328      315.84714      5476.7501      1.0177122      4455.7805     -161.35937     -4.6924513     -8.1652351e-14 -7.5111657e-14 -161.35937     -3.1352802e-13
    313500   1403.2638      253.59927      1149.6645      309.372        7335.6387      1.0177122      4455.7805     -149.3058      -4.6924513     -8.1674646e-14 -7.5112808e-14 -149.3058      -3.1357491e-13
    313750   1413.1042      249.27208      1163.8321      304.09315      4914.7855      1.0177122      4455.7805     -151.87504     -4.6924513     -8.1718079e-14 -7.5112111e-14 -151.87504     -3.1366038e-13
    314000   1406.647       250.0198       1156.6272      305.00532      5389.6486      1.0177122      4455.7805     -156.78734     -4.6924513     -8.158081e-14  -7.5112704e-14 -156.78734     -3.1338703e-13
    314250   1406.3887      257.3859       1149.0028      313.9914       9340.3967      1.0177122      4455.7805     -145.70222     -4.6924513     -8.1851914e-14 -7.5111824e-14 -145.70222     -3.1392748e-13
    314500   1433.1862      276.22601      1156.9602      336.97491      6237.9975      1.0177122      4455.7805     -145.21454     -4.6924513     -8.1587806e-14 -7.5113664e-14 -145.21454     -3.1340294e-13
    314750   1427.0442      262.40857      1164.6356      320.11868      9338.0666      1.0177122      4455.7805     -149.41587     -4.6924513     -8.1893053e-14 -7.5112554e-14 -149.41587     -3.1401122e-13
    315000   1391.5427      244.29073      1147.252       298.01628      5183.2481      1.0177122      4455.7805     -149.76999     -4.6924513     -8.1931301e-14 -7.5111292e-14 -149.76999     -3.1408518e-13
    315250   1366.4226      230.82336      1135.5993      281.58711      5584.583       1.0177122      4455.7805     -151.31574     -4.6924513     -8.1435432e-14 -7.5110788e-14 -151.31574     -3.1309244e-13
    315500   1409.1286      259.26393      1149.8647      316.28245      9687.9235      1.0177122      4455.7805     -154.9298      -4.6924513     -8.1792263e-14 -7.5112823e-14 -154.9298      -3.1381017e-13
    315750   1392.6959      239.09783      1153.5981      291.68133      6783.9636      1.0177122      4455.7805     -155.06696     -4.6924513     -8.1869845e-14 -7.5111731e-14 -155.06696     -3.1396315e-13
    316000   1423.1771      268.03389      1155.1432      326.98115      4264.8485      1.0177122      4455.7805     -151.08088     -4.6924513     -8.1469171e-14 -7.5113178e-14 -151.08088     -3.131647e-13 
    316250   1413.637       264.16723      1149.4697      322.26411      7929.5614      1.0177122      4455.7805     -150.04546     -4.6924513     -8.1621583e-14 -7.5107799e-14 -150.04546     -3.1345876e-13
    316500   1443.3613      270.68378      1172.6775      330.21381      6576.7765      1.0177122      4455.7805     -148.80665     -4.6924513     -8.1816136e-14 -7.5107796e-14 -148.80665     -3.1384786e-13
    316750   1389.0724      247.71166      1141.3607      302.18956      4201.9806      1.0177122      4455.7805     -150.4108      -4.6924513     -8.1608652e-14 -7.5112574e-14 -150.4108      -3.1344245e-13
    317000   1387.1761      244.24579      1142.9303      297.96145      7631.6755      1.0177122      4455.7805     -157.12081     -4.6924513     -8.1473312e-14 -7.5111459e-14 -157.12081     -3.1316954e-13
    317250   1452.9337      279.07169      1173.862       340.44643      5736.825       1.0177122      4455.7805     -147.09312     -4.6924513     -8.1742686e-14 -7.5110221e-14 -147.09312     -3.1370582e-13
    317500   1403.3884      248.86458      1154.5238      303.59603      2568.366       1.0177122      4455.7805     -154.76189     -4.6924513     -8.1570912e-14 -7.5112003e-14 -154.76189     -3.1336583e-13
    317750   1381.6919      232.83469      1148.8572      284.04078      4463.1202      1.0177122      4455.7805     -150.46204     -4.6924513     -8.1502903e-14 -7.5110492e-14 -150.46204     -3.1322679e-13
    318000   1413.7126      271.82543      1141.8872      331.60655      4639.3339      1.0177122      4455.7805     -158.7924      -4.6924513     -8.1716955e-14 -7.511161e-14  -158.7924      -3.1365713e-13
    318250   1388.2778      233.23194      1155.0459      284.52539      10696.549      1.0177122      4455.7805     -155.40383     -4.6924513     -8.158963e-14  -7.5110553e-14 -155.40383     -3.1340037e-13
    318500   1397.9349      256.06633      1141.8686      312.38162      9786.693       1.0177122      4455.7805     -154.66611     -4.6924513     -8.1717922e-14 -7.5110313e-14 -154.66611     -3.1365647e-13
    318750   1420.8         257.44228      1163.3577      314.06018      6232.8891      1.0177122      4455.7805     -151.4775      -4.6924513     -8.1587734e-14 -7.5111614e-14 -151.4775      -3.133987e-13 
    319000   1409.3052      256.74346      1152.5617      313.20767      12116.067      1.0177122      4455.7805     -149.62093     -4.6924513     -8.2054875e-14 -7.5110132e-14 -149.62093     -3.1433001e-13
    319250   1414.0669      270.15948      1143.9075      329.57421      5973.9773      1.0177122      4455.7805     -151.43673     -4.6924513     -8.1691576e-14 -7.5110625e-14 -151.43673     -3.136044e-13 
    319500   1416.7651      253.68216      1163.0829      309.47312     -666.76606      1.0177122      4455.7805     -148.98826     -4.6924513     -8.1519158e-14 -7.5110263e-14 -148.98826     -3.1325884e-13
    319750   1389.6503      249.39473      1140.2556      304.24278      5201.3768      1.0177122      4455.7805     -147.21873     -4.6924513     -8.1604768e-14 -7.5110605e-14 -147.21873     -3.1343075e-13
    320000   1398.2866      247.54203      1150.7445      301.98262      5188.887       1.0177122      4455.7805     -153.9532      -4.6924513     -8.1276958e-14 -7.5112182e-14 -153.9532      -3.1277828e-13
    320250   1403.6651      251.36709      1152.298       306.6489       9409.3255      1.0177122      4455.7805     -142.53344     -4.6924513     -8.1769879e-14 -7.5113289e-14 -142.53344     -3.1376634e-13
    320500   1412.6159      260.0736       1152.5423      317.27019      7161.3972      1.0177122      4455.7805     -143.8836      -4.6924513     -8.1735191e-14 -7.5110999e-14 -143.8836      -3.1369238e-13
    320750   1399.3698      261.31546      1138.0544      318.78517      6994.8684      1.0177122      4455.7805     -155.44918     -4.6924513     -8.1455066e-14 -7.5110811e-14 -155.44918     -3.1313175e-13
    321000   1410.4494      250.87561      1159.5738      306.04934      5501.1266      1.0177122      4455.7805     -151.20924     -4.6924513     -8.1755163e-14 -7.5108865e-14 -151.20924     -3.1372806e-13
    321250   1393.2043      244.87294      1148.3313      298.72653      7047.1411      1.0177122      4455.7805     -150.68193     -4.6924513     -8.1762986e-14 -7.5111229e-14 -150.68193     -3.1374843e-13
    321500   1383.2501      241.62057      1141.6296      294.75888      6966.8008      1.0177122      4455.7805     -149.60111     -4.6924513     -8.1731998e-14 -7.511101e-14  -149.60111     -3.1368602e-13
    321750   1419.3839      255.81182      1163.5721      312.07115      5734.2062      1.0177122      4455.7805     -155.24552     -4.6924513     -8.1769659e-14 -7.5109371e-14 -155.24552     -3.1375806e-13
    322000   1404.25        246.71057      1157.5395      300.9683       6227.0249      1.0177122      4455.7805     -155.90884     -4.6924513     -8.1524251e-14 -7.510783e-14  -155.90884     -3.1326416e-13
    322250   1417.1719      241.01116      1176.1608      294.01545      3989.106       1.0177122      4455.7805     -153.09728     -4.6924513     -8.1688706e-14 -7.5112316e-14 -153.09728     -3.1360205e-13
    322500   1400.0905      247.93835      1152.1522      302.4661       6709.107       1.0177122      4455.7805     -149.46972     -4.6924513     -8.2056306e-14 -7.5108397e-14 -149.46972     -3.1432941e-13
    322750   1430.8139      258.01133      1172.8026      314.75438      6342.9624      1.0177122      4455.7805     -152.70272     -4.6924513     -8.1654578e-14 -7.5109299e-14 -152.70272     -3.1352775e-13
    323000   1412.3344      255.12407      1157.2103      311.23214      11395.124      1.0177122      4455.7805     -150.57493     -4.6924513     -8.1831123e-14 -7.5106095e-14 -150.57493     -3.1387443e-13
    323250   1431.3129      272.77748      1158.5354      332.76797      5236.7941      1.0177122      4455.7805     -150.12305     -4.6924513     -8.1407761e-14 -7.510844e-14  -150.12305     -3.130324e-13 
    323500   1417.4004      259.70872      1157.6917      316.82507      5207.0407      1.0177122      4455.7805     -154.16715     -4.6924513     -8.1522806e-14 -7.5112085e-14 -154.16715     -3.1326978e-13
    323750   1395.0056      244.44671      1150.5589      298.20656      5889.5133      1.0177122      4455.7805     -151.3438      -4.6924513     -8.1942115e-14 -7.511189e-14  -151.3438      -3.1410801e-13
    324000   1401.6887      242.52971      1159.1589      295.86797      5371.8389      1.0177122      4455.7805     -147.9314      -4.6924513     -8.1492565e-14 -7.510897e-14  -147.9314      -3.1320307e-13
    324250   1396.9193      261.98994      1134.9293      319.60798      8767.4163      1.0177122      4455.7805     -155.66242     -4.6924513     -8.1602096e-14 -7.5110688e-14 -155.66242     -3.1342557e-13
    324500   1390.4606      236.46605      1153.9946      288.47077      3346.5587      1.0177122      4455.7805     -150.07842     -4.6924513     -8.1650461e-14 -7.5111588e-14 -150.07842     -3.135241e-13 
    324750   1432.1025      262.41814      1169.6844      320.13035      8106.8145      1.0177122      4455.7805     -144.6363      -4.6924513     -8.1785621e-14 -7.5108522e-14 -144.6363      -3.1378828e-13
    325000   1400.559       251.17684      1149.3821      306.41681      10169.308      1.0177122      4455.7805     -155.97705     -4.6924513     -8.1588644e-14 -7.5112946e-14 -155.97705     -3.1340318e-13
    325250   1405.311       271.31745      1133.9935      330.98685      6105.7735      1.0177122      4455.7805     -155.70945     -4.6924513     -8.1659569e-14 -7.510863e-14  -155.70945     -3.135364e-13 
    325500   1424.3181      250.21978      1174.0984      305.24928      3293.035       1.0177122      4455.7805     -150.95272     -4.6924513     -8.1507728e-14 -7.5109301e-14 -150.95272     -3.1323406e-13
    325750   1416.6317      249.74663      1166.8851      304.67207      7076.1467      1.0177122      4455.7805     -147.02931     -4.6924513     -8.1696831e-14 -7.511029e-14  -147.02931     -3.1361424e-13
    326000   1435.7436      263.04736      1172.6962      320.89795      9046.2191      1.0177122      4455.7805     -156.09823     -4.6924513     -8.1947187e-14 -7.5111297e-14 -156.09823     -3.1411697e-13
    326250   1396.2011      261.72791      1134.4732      319.28833      6102.1583      1.0177122      4455.7805     -148.84303     -4.6924513     -8.1679304e-14 -7.5112414e-14 -148.84303     -3.1358344e-13
    326500   1399.8006      237.11937      1162.6812      289.26777      3285.5549      1.0177122      4455.7805     -145.63584     -4.6924513     -8.1568516e-14 -7.5110732e-14 -145.63584     -3.133585e-13 
    326750   1391.6226      247.4025       1144.2201      301.81241      3904.4595      1.0177122      4455.7805     -155.86342     -4.6924513     -8.1598233e-14 -7.5112258e-14 -155.86342     -3.1342098e-13
    327000   1401.8952      251.42862      1150.4665      306.72397      9077.8495      1.0177122      4455.7805     -151.10093     -4.6924513     -8.151225e-14  -7.5108803e-14 -151.10093     -3.1324211e-13
    327250   1396.8526      242.18441      1154.6682      295.44673      9548.7172      1.0177122      4455.7805     -153.84907     -4.6924513     -8.1714012e-14 -7.5113518e-14 -153.84907     -3.1365506e-13
    327500   1414.5478      274.90915      1139.6387      335.36845      6678.039       1.0177122      4455.7805     -161.15907     -4.6924513     -8.1549984e-14 -7.5113662e-14 -161.15907     -3.1332729e-13
    327750   1426.3552      270.14775      1156.2074      329.55989      10221.086      1.0177122      4455.7805     -141.97721     -4.6924513     -8.2004144e-14 -7.5110214e-14 -141.97721     -3.1422871e-13
    328000   1396.1408      255.84116      1140.2996      312.10694      1321.0565      1.0177122      4455.7805     -155.85816     -4.6924513     -8.1652105e-14 -7.5112886e-14 -155.85816     -3.1352998e-13
    328250   1392.9831      244.1209       1148.8622      297.8091       3151.0547      1.0177122      4455.7805     -153.42971     -4.6924513     -8.1740386e-14 -7.5112171e-14 -153.42971     -3.1370511e-13
    328500   1366.4007      237.08567      1129.3151      289.22665      9006.0482      1.0177122      4455.7805     -149.26904     -4.6924513     -8.1897044e-14 -7.5108937e-14 -149.26904     -3.1401196e-13
    328750   1410.4775      229.8317       1180.6458      280.37736      11623.216      1.0177122      4455.7805     -152.79603     -4.6924513     -8.183082e-14  -7.5111475e-14 -152.79603     -3.1388459e-13
    329000   1379.9677      252.1386       1127.8291      307.59009      6109.5536      1.0177122      4455.7805     -149.75649     -4.6924513     -8.1466231e-14 -7.511191e-14  -149.75649     -3.1315628e-13
    329250   1396.9005      234.94109      1161.9594      286.61042      5586.8732      1.0177122      4455.7805     -154.54205     -4.6924513     -8.1430038e-14 -7.5108809e-14 -154.54205     -3.1307769e-13
    329500   1425.216       274.07714      1151.1388      334.35346      7199.2759      1.0177122      4455.7805     -154.97403     -4.6924513     -8.1712445e-14 -7.5113292e-14 -154.97403     -3.1365147e-13
    329750   1423.2321      259.77001      1163.4621      316.89984      8075.6242      1.0177122      4455.7805     -147.0178      -4.6924513     -8.1959743e-14 -7.5111917e-14 -147.0178      -3.1414332e-13
    330000   1412.8629      242.49593      1170.367       295.82676      3886.7226      1.0177122      4455.7805     -147.54549     -4.6924513     -8.1851611e-14 -7.5112099e-14 -147.54549     -3.1392742e-13
    330250   1408.5335      256.59228      1151.9412      313.02324      6630.6518      1.0177122      4455.7805     -143.7307      -4.6924513     -8.1902452e-14 -7.5110651e-14 -143.7307      -3.140262e-13 
    330500   1403.94        272.07339      1131.8666      331.90903      6606.6643      1.0177122      4455.7805     -155.24332     -4.6924513     -8.1570197e-14 -7.5112613e-14 -155.24332     -3.1336562e-13
    330750   1396.0096      240.46509      1155.5445      293.34928      7020.1029      1.0177122      4455.7805     -150.83954     -4.6924513     -8.1299524e-14 -7.5112883e-14 -150.83954     -3.1282481e-13
    331000   1393.641       248.27853      1145.3625      302.8811       9861.5954      1.0177122      4455.7805     -153.15635     -4.6924513     -8.1784953e-14 -7.510664e-14  -153.15635     -3.1378318e-13
    331250   1425.801       262.21801      1163.5829      319.88621      6809.2953      1.0177122      4455.7805     -151.26324     -4.6924513     -8.1622038e-14 -7.5111141e-14 -151.26324     -3.1346636e-13
    331500   1418.6374      246.11624      1172.5212      300.24327      6855.772       1.0177122      4455.7805     -152.69605     -4.6924513     -8.1605182e-14 -7.5108286e-14 -152.69605     -3.1342693e-13
    331750   1393.7899      247.93714      1145.8528      302.46462      8271.2858      1.0177122      4455.7805     -155.33651     -4.6924513     -8.1576634e-14 -7.5111088e-14 -155.33651     -3.1337544e-13
    332000   1409.1036      240.03128      1169.0723      292.82007      6422.0621      1.0177122      4455.7805     -147.95251     -4.6924513     -8.1678541e-14 -7.5109043e-14 -147.95251     -3.1357517e-13
    332250   1403.1717      266.21393      1136.9578      324.76093      11133.358      1.0177122      4455.7805     -156.00497     -4.6924513     -8.1522877e-14 -7.5107016e-14 -156.00497     -3.1325979e-13
    332500   1389.5636      255.60128      1133.9623      311.8143       4277.8918      1.0177122      4455.7805     -147.78915     -4.6924513     -8.1374033e-14 -7.5110536e-14 -147.78915     -3.1296914e-13
    332750   1387.7567      245.12592      1142.6308      299.03515      6547.2757      1.0177122      4455.7805     -148.73809     -4.6924513     -8.1539806e-14 -7.5112024e-14 -148.73809     -3.1330366e-13
    333000   1454.4445      264.46594      1189.9786      322.62852      6599.1273      1.0177122      4455.7805     -151.3014      -4.6924513     -8.1614707e-14 -7.5110062e-14 -151.3014      -3.1344954e-13
    333250   1409.7056      253.83851      1155.8671      309.66386      5144.8201      1.0177122      4455.7805     -158.77327     -4.6924513     -8.1902592e-14 -7.5112004e-14 -158.77327     -3.1402919e-13
    333500   1384.9172      244.89982      1140.0174      298.75932      6466.8914      1.0177122      4455.7805     -143.61007     -4.6924513     -8.1816872e-14 -7.5113601e-14 -143.61007     -3.1386095e-13
    333750   1436.7845      260.93393      1175.8505      318.31974      4034.8305      1.0177122      4455.7805     -146.63265     -4.6924513     -8.2066251e-14 -7.5111489e-14 -146.63265     -3.1435548e-13
    334000   1403.7068      260.89298      1142.8138      318.26978      8444.8857      1.0177122      4455.7805     -148.70058     -4.6924513     -8.1791932e-14 -7.5108725e-14 -148.70058     -3.1380131e-13
    334250   1418.0128      269.85286      1148.1599      329.20015      8833.5088      1.0177122      4455.7805     -157.891       -4.6924513     -8.1696597e-14 -7.5112977e-14 -157.891       -3.1361915e-13
    334500   1410.183       252.56802      1157.6149      308.11395      10540.348      1.0177122      4455.7805     -149.36148     -4.6924513     -8.1658926e-14 -7.5112751e-14 -149.36148     -3.1354335e-13
    334750   1395.761       255.92953      1139.8314      312.21474      7567.62        1.0177122      4455.7805     -156.17789     -4.6924513     -8.1980407e-14 -7.5109726e-14 -156.17789     -3.1418027e-13
    335000   1413.6196      247.57114      1166.0485      302.01813      8151.2222      1.0177122      4455.7805     -153.95577     -4.6924513     -8.1681581e-14 -7.5113034e-14 -153.95577     -3.1358923e-13
    335250   1433.1378      256.42613      1176.7117      312.82055      5450.584       1.0177122      4455.7805     -149.64845     -4.6924513     -8.1625415e-14 -7.5111104e-14 -149.64845     -3.1347304e-13
    335500   1422.7186      262.61366      1160.1049      320.36888      5083.4602      1.0177122      4455.7805     -156.11116     -4.6924513     -8.1342049e-14 -7.5111745e-14 -156.11116     -3.1290759e-13
    335750   1418.755       261.68082      1157.0742      319.23088      7372.5691      1.0177122      4455.7805     -149.54427     -4.6924513     -8.2067194e-14 -7.5112556e-14 -149.54427     -3.143595e-13 
    336000   1396.9493      238.31104      1158.6383      290.72151      3404.6418      1.0177122      4455.7805     -150.16506     -4.6924513     -8.1482383e-14 -7.5111406e-14 -150.16506     -3.1318758e-13
    336250   1417.6484      252.15962      1165.4888      307.61573      6557.253       1.0177122      4455.7805     -148.41312     -4.6924513     -8.1540895e-14 -7.5113116e-14 -148.41312     -3.1330802e-13
    336500   1413.2045      242.19592      1171.0086      295.46077      3720.6519      1.0177122      4455.7805     -148.4954      -4.6924513     -8.1635828e-14 -7.5110495e-14 -148.4954      -3.1349265e-13
    336750   1398.8323      266.50432      1132.328       325.11519      6028.8749      1.0177122      4455.7805     -154.32041     -4.6924513     -8.157531e-14  -7.5112997e-14 -154.32041     -3.1337661e-13
    337000   1410.92        260.75246      1150.1676      318.09836      6138.913       1.0177122      4455.7805     -155.44911     -4.6924513     -8.1540853e-14 -7.5107646e-14 -155.44911     -3.13297e-13  
    337250   1388.0982      241.6092       1146.489       294.74502      7368.614       1.0177122      4455.7805     -154.81099     -4.6924513     -8.1790561e-14 -7.5111403e-14 -154.81099     -3.1380393e-13
    337500   1420.161       269.26433      1150.8967      328.48219      5865.4277      1.0177122      4455.7805     -146.37858     -4.6924513     -8.1768707e-14 -7.5110358e-14 -146.37858     -3.1375813e-13
    337750   1405.6505      249.80132      1155.8492      304.73879      3905.9237      1.0177122      4455.7805     -149.85193     -4.6924513     -8.1625393e-14 -7.5112204e-14 -149.85193     -3.1347519e-13
    338000   1422.2744      242.88063      1179.3937      296.29606      10183.631      1.0177122      4455.7805     -150.38228     -4.6924513     -8.1505306e-14 -7.510687e-14  -150.38228     -3.1322435e-13
    338250   1420.3834      248.05662      1172.3268      302.61038      10620.63       1.0177122      4455.7805     -141.72243     -4.6924513     -8.1808828e-14 -7.5112513e-14 -141.72243     -3.1384268e-13
    338500   1433.0075      261.60186      1171.4056      319.13455      1060.9102      1.0177122      4455.7805     -148.79913     -4.6924513     -8.1557117e-14 -7.5112493e-14 -148.79913     -3.1333922e-13
    338750   1393.0662      242.54549      1150.5207      295.88722      9606.9538      1.0177122      4455.7805     -155.86896     -4.6924513     -8.1825208e-14 -7.511211e-14  -155.86896     -3.1387464e-13
    339000   1436.9261      257.90796      1179.0182      314.62828      2648.4143      1.0177122      4455.7805     -152.02451     -4.6924513     -8.1798909e-14 -7.5110522e-14 -152.02451     -3.1381886e-13
    339250   1432.853       251.88949      1180.9635      307.28619      7438.4271      1.0177122      4455.7805     -150.89286     -4.6924513     -8.1623303e-14 -7.5113156e-14 -150.89286     -3.1347292e-13
    339500   1447.1615      256.10742      1191.0541      312.43176      4736.9187      1.0177122      4455.7805     -150.94574     -4.6924513     -8.1464823e-14 -7.5107957e-14 -150.94574     -3.1314556e-13
    339750   1404.8585      231.91792      1172.9405      282.92239      11282.543      1.0177122      4455.7805     -145.75567     -4.6924513     -8.1606679e-14 -7.5112172e-14 -145.75567     -3.134377e-13 
    340000   1399.1449      238.98103      1160.1638      291.53885      5017.1317      1.0177122      4455.7805     -145.13376     -4.6924513     -8.1540309e-14 -7.5108179e-14 -145.13376     -3.1329698e-13
    340250   1421.0873      267.44416      1153.6431      326.26172      7002.4486      1.0177122      4455.7805     -154.39513     -4.6924513     -8.2070416e-14 -7.5113001e-14 -154.39513     -3.1436684e-13
    340500   1385.2362      240.74323      1144.4929      293.6886       1517.2793      1.0177122      4455.7805     -153.56284     -4.6924513     -8.1560484e-14 -7.5111395e-14 -153.56284     -3.1334376e-13
    340750   1381.2836      230.75424      1150.5293      281.50279      7889.6014      1.0177122      4455.7805     -154.62897     -4.6924513     -8.1362653e-14 -7.5110948e-14 -154.62897     -3.129472e-13 
    341000   1412.2823      257.61492      1154.6674      314.27079      12850.85       1.0177122      4455.7805     -149.52221     -4.6924513     -8.1555102e-14 -7.5108907e-14 -149.52221     -3.1332802e-13
    341250   1398.6756      245.66445      1153.0111      299.69211      8689.4288      1.0177122      4455.7805     -144.57961     -4.6924513     -8.1697239e-14 -7.511071e-14  -144.57961     -3.136159e-13 
    341500   1385.0671      243.08196      1141.9851      296.54167      10155.516      1.0177122      4455.7805     -150.06369     -4.6924513     -8.1721656e-14 -7.5112189e-14 -150.06369     -3.1366769e-13
    341750   1426.2609      246.81957      1179.4413      301.10127      5425.0783      1.0177122      4455.7805     -150.68599     -4.6924513     -8.143577e-14  -7.5112067e-14 -150.68599     -3.1309567e-13
    342000   1409.3966      254.00159      1155.395       309.86279      8129.3725      1.0177122      4455.7805     -155.46669     -4.6924513     -8.195159e-14  -7.5109308e-14 -155.46669     -3.141218e-13 
    342250   1375.7296      224.05428      1151.6753      273.32934      4276.3382      1.0177122      4455.7805     -146.72183     -4.6924513     -8.169912e-14  -7.5111225e-14 -146.72183     -3.1362069e-13
    342500   1417.1532      260.46895      1156.6843      317.75249      3237.378       1.0177122      4455.7805     -156.32525     -4.6924513     -8.1577158e-14 -7.5111847e-14 -156.32525     -3.1337801e-13
    342750   1417.7192      270.72993      1146.9892      330.27011      4767.6188      1.0177122      4455.7805     -152.80174     -4.6924513     -8.1563844e-14 -7.5111551e-14 -152.80174     -3.1335079e-13
    343000   1408.9906      235.94128      1173.0493      287.83059      2168.1076      1.0177122      4455.7805     -154.49212     -4.6924513     -8.1627278e-14 -7.5109093e-14 -154.49212     -3.1347274e-13
    343250   1392.2047      229.22454      1162.9802      279.63667      7656.6701      1.0177122      4455.7805     -150.28362     -4.6924513     -8.1939619e-14 -7.5112545e-14 -150.28362     -3.1410433e-13
    343500   1376.6869      228.2257       1148.4612      278.41816      6157.2493      1.0177122      4455.7805     -149.74854     -4.6924513     -8.1608889e-14 -7.511004e-14  -149.74854     -3.1343786e-13
    343750   1414.6267      260.85934      1153.7674      318.22873      8865.1728      1.0177122      4455.7805     -144.40901     -4.6924513     -8.1488884e-14 -7.5110101e-14 -144.40901     -3.1319797e-13
    344000   1410.1068      264.58267      1145.5242      322.77091      10126.461      1.0177122      4455.7805     -154.84331     -4.6924513     -8.1968668e-14 -7.5112359e-14 -154.84331     -3.1416206e-13
    344250   1427.0906      259.49674      1167.5938      316.56646      3913.9738      1.0177122      4455.7805     -145.3117      -4.6924513     -8.1692843e-14 -7.5109798e-14 -145.3117      -3.1360528e-13
    344500   1416.9258      250.73091      1166.1949      305.87282      8372.7855      1.0177122      4455.7805     -149.05921     -4.6924513     -8.1586054e-14 -7.5109966e-14 -149.05921     -3.1339204e-13
    344750   1390.0932      242.63745      1147.4558      295.9994       4453.5603      1.0177122      4455.7805     -151.97286     -4.6924513     -8.167787e-14  -7.5108166e-14 -151.97286     -3.1357207e-13
    345000   1431.7346      246.52524      1185.2093      300.74222      5123.1749      1.0177122      4455.7805     -162.7381      -4.6924513     -8.1505801e-14 -7.510982e-14  -162.7381      -3.1323124e-13
    345250   1397.0944      241.52473      1155.5696      294.64197      5489.4119      1.0177122      4455.7805     -151.29041     -4.6924513     -8.1759802e-14 -7.511327e-14  -151.29041     -3.1374615e-13
    345500   1395.1609      250.26376      1144.8972      305.30293      6750.34        1.0177122      4455.7805     -156.14088     -4.6924513     -8.1820002e-14 -7.5110584e-14 -156.14088     -3.1386117e-13
    345750   1433.965       259.08913      1174.8759      316.06921      5505.111       1.0177122      4455.7805     -148.93818     -4.6924513     -8.1671505e-14 -7.5109248e-14 -148.93818     -3.1356151e-13
    346000   1410.4926      261.82437      1148.6683      319.406        7279.5257      1.0177122      4455.7805     -146.4894      -4.6924513     -8.191731e-14  -7.5112901e-14 -146.4894      -3.1406042e-13
    346250   1405.124       247.80216      1157.3219      302.29996      4385.7517      1.0177122      4455.7805     -153.94556     -4.6924513     -8.147475e-14  -7.5111914e-14 -153.94556     -3.1317333e-13
    346500   1393.9177      248.66215      1145.2555      303.34909      8426.4476      1.0177122      4455.7805     -146.56639     -4.6924513     -8.1719585e-14 -7.5112895e-14 -146.56639     -3.1366496e-13
    346750   1375.6248      235.37101      1140.2537      287.1349       8477.2509      1.0177122      4455.7805     -148.90452     -4.6924513     -8.182067e-14  -7.511275e-14  -148.90452     -3.1386684e-13
    347000   1402.1748      250.93845      1151.2364      306.126        7013.4738      1.0177122      4455.7805     -162.29449     -4.6924513     -8.14681e-14   -7.5112832e-14 -162.29449     -3.1316186e-13
    347250   1375.9291      250.13524      1125.7939      305.14614      4954.5385      1.0177122      4455.7805     -147.5447      -4.6924513     -8.1791459e-14 -7.5108669e-14 -147.5447      -3.1380026e-13
    347500   1370.2693      223.61583      1146.6534      272.79447      5372.577       1.0177122      4455.7805     -150.28365     -4.6924513     -8.2026534e-14 -7.5111586e-14 -150.28365     -3.1427624e-13
    347750   1371.0011      234.8996       1136.1015      286.55981      5565.1203      1.0177122      4455.7805     -145.79629     -4.6924513     -8.1643773e-14 -7.5112356e-14 -145.79629     -3.1351226e-13
    348000   1382.7202      238.46063      1144.2596      290.904        9410.157       1.0177122      4455.7805     -146.11761     -4.6924513     -8.1605457e-14 -7.5108344e-14 -146.11761     -3.134276e-13 
    348250   1399.4753      235.20318      1164.2721      286.93015      3031.2779      1.0177122      4455.7805     -155.27386     -4.6924513     -8.1543331e-14 -7.5113087e-14 -155.27386     -3.1331284e-13
    348500   1398.8331      245.34776      1153.4853      299.30578      5563.9309      1.0177122      4455.7805     -148.41647     -4.6924513     -8.1649165e-14 -7.5107282e-14 -148.41647     -3.1351289e-13
    348750   1399.8511      238.16991      1161.6812      290.54934      7657.3062      1.0177122      4455.7805     -152.81605     -4.6924513     -8.1981978e-14 -7.5112083e-14 -152.81605     -3.1418812e-13
    349000   1428.8488      261.35563      1167.4932      318.83417      7471.9019      1.0177122      4455.7805     -153.65698     -4.6924513     -8.1900595e-14 -7.5111719e-14 -153.65698     -3.1402463e-13
    349250   1390.8229      242.62477      1148.1981      295.98393      6264.1993      1.0177122      4455.7805     -147.92593     -4.6924513     -8.1953092e-14 -7.5111671e-14 -147.92593     -3.1412953e-13
    349500   1405.3862      255.95767      1149.4286      312.24907      6649.9156      1.0177122      4455.7805     -154.39258     -4.6924513     -8.1984355e-14 -7.5109608e-14 -154.39258     -3.1418793e-13
    349750   1423.2033      267.54689      1155.6564      326.38704      6376.8975      1.0177122      4455.7805     -149.96845     -4.6924513     -8.1461093e-14 -7.5112401e-14 -149.96845     -3.1314699e-13
    350000   1378.7693      230.38829      1148.381       281.05636      4948.2116      1.0177122      4455.7805     -151.87858     -4.6924513     -8.1883871e-14 -7.5111059e-14 -151.87858     -3.1398986e-13
    350250   1393.8         243.70584      1150.0941      297.30276      9043.7375      1.0177122      4455.7805     -142.80394     -4.6924513     -8.1760198e-14 -7.5111354e-14 -142.80394     -3.1374311e-13
    350500   1423.1291      259.28455      1163.8445      316.30761      9177.3838      1.0177122      4455.7805     -152.55815     -4.6924513     -8.1743657e-14 -7.511113e-14  -152.55815     -3.1370958e-13
    350750   1361.9854      244.78655      1117.1988      298.62115      6463.6588      1.0177122      4455.7805     -149.00961     -4.6924513     -8.1599503e-14 -7.5111e-14    -149.00961     -3.1342101e-13
    351000   1406.5621      252.95972      1153.6024      308.59179      5770.1308      1.0177122      4455.7805     -151.46567     -4.6924513     -8.1670761e-14 -7.5109846e-14 -151.46567     -3.1356121e-13
    351250   1401.1838      235.79716      1165.3866      287.65476      3713.8358      1.0177122      4455.7805     -148.74502     -4.6924513     -8.1746851e-14 -7.5111383e-14 -148.74502     -3.1371647e-13
    351500   1402.0301      240.01438      1162.0158      292.79946      5764.4435      1.0177122      4455.7805     -151.46374     -4.6924513     -8.1831534e-14 -7.5111498e-14 -151.46374     -3.1388606e-13
    351750   1402.5297      227.30358      1175.2261      277.29324      9730.4356      1.0177122      4455.7805     -134.74395     -4.6924513     -8.1845082e-14 -7.5110945e-14 -134.74395     -3.1391205e-13
    352000   1450.6489      258.45551      1192.1934      315.29625      10590.922      1.0177122      4455.7805     -150.32473     -4.6924513     -8.1615548e-14 -7.511364e-14  -150.32473     -3.1345838e-13
    352250   1394.1409      236.46803      1157.6729      288.47318      3190.3929      1.0177122      4455.7805     -147.96507     -4.6924513     -8.1742867e-14 -7.5110751e-14 -147.96507     -3.1370724e-13
    352500   1425.3449      263.09331      1162.2516      320.95402      3911.3626      1.0177122      4455.7805     -147.71446     -4.6924513     -8.1763774e-14 -7.5111167e-14 -147.71446     -3.1374988e-13
    352750   1409.8092      247.78346      1162.0258      302.27715      6030.2615      1.0177122      4455.7805     -153.3285      -4.6924513     -8.1829529e-14 -7.5104526e-14 -153.3285      -3.1386811e-13
    353000   1395.2405      229.98906      1165.2514      280.56933      10802.325      1.0177122      4455.7805     -152.61849     -4.6924513     -8.1820581e-14 -7.5112026e-14 -152.61849     -3.1386521e-13
    353250   1416.737       248.95319      1167.7838      303.70413      9621.0953      1.0177122      4455.7805     -152.14532     -4.6924513     -8.145124e-14  -7.5111725e-14 -152.14532     -3.1312593e-13
    353500   1401.622       254.22656      1147.3954      310.13724      5669.3286      1.0177122      4455.7805     -156.20974     -4.6924513     -8.159935e-14  -7.5113085e-14 -156.20974     -3.1342487e-13
    353750   1403.3982      250.21237      1153.1858      305.24024      6611.7942      1.0177122      4455.7805     -148.42705     -4.6924513     -8.1650801e-14 -7.5113012e-14 -148.42705     -3.1352763e-13
    354000   1431.5666      262.17507      1169.3916      319.83383      7880.9765      1.0177122      4455.7805     -155.27169     -4.6924513     -8.1501882e-14 -7.5107777e-14 -155.27169     -3.1321932e-13
    354250   1400.7784      250.32323      1150.4552      305.37548      4647.2492      1.0177122      4455.7805     -151.85871     -4.6924513     -8.1722912e-14 -7.5112332e-14 -151.85871     -3.1367049e-13
    354500   1393.8838      247.13835      1146.7454      301.49017      3929.0983      1.0177122      4455.7805     -159.29856     -4.6924513     -8.1561607e-14 -7.5110855e-14 -159.29856     -3.1334492e-13
    354750   1422.1493      258.67237      1163.4769      315.5608       8750.7314      1.0177122      4455.7805     -152.33119     -4.6924513     -8.1602493e-14 -7.5109171e-14 -152.33119     -3.1342333e-13
    355000   1392.2741      245.67117      1146.6029      299.70031      5463.1388      1.0177122      4455.7805     -144.1094      -4.6924513     -8.1851032e-14 -7.5109009e-14 -144.1094      -3.1392008e-13
    355250   1390.3525      248.77864      1141.5739      303.49119      6466.8116      1.0177122      4455.7805     -152.68542     -4.6924513     -8.1610613e-14 -7.5110911e-14 -152.68542     -3.1344305e-13
    355500   1428.1193      256.52897      1171.5903      312.94602      5571.5916      1.0177122      4455.7805     -146.25547     -4.6924513     -8.2131541e-14 -7.511044e-14  -146.25547     -3.1448396e-13
    355750   1391.3504      232.02548      1159.3249      283.05361      10009.636      1.0177122      4455.7805     -159.17312     -4.6924513     -8.1821796e-14 -7.5112228e-14 -159.17312     -3.1386805e-13
    356000   1384.6314      243.11253      1141.5188      296.57897      6226.5334      1.0177122      4455.7805     -147.68955     -4.6924513     -8.1423676e-14 -7.5110139e-14 -147.68955     -3.1306763e-13
    356250   1431.9226      274.47416      1157.4485      334.83779      9213.5329      1.0177122      4455.7805     -155.02245     -4.6924513     -8.1601459e-14 -7.510528e-14  -155.02245     -3.1341348e-13
    356500   1407.2228      234.98919      1172.2336      286.6691       2910.6605      1.0177122      4455.7805     -150.49978     -4.6924513     -8.1793745e-14 -7.5110924e-14 -150.49978     -3.1380934e-13
    356750   1423.5166      261.03889      1162.4777      318.44777      9383.1711      1.0177122      4455.7805     -152.02976     -4.6924513     -8.1634361e-14 -7.5112124e-14 -152.02976     -3.1349297e-13
    357000   1409.0037      243.04462      1165.9591      296.49612      9753.6787      1.0177122      4455.7805     -146.31443     -4.6924513     -8.1848013e-14 -7.5112213e-14 -146.31443     -3.1392045e-13
    357250   1386.2085      232.59718      1153.6114      283.75103      5482.2633      1.0177122      4455.7805     -155.2729      -4.6924513     -8.1512706e-14 -7.5112826e-14 -155.2729      -3.1325107e-13
    357500   1409.8062      258.47964      1151.3266      315.32569      7177.7478      1.0177122      4455.7805     -149.79531     -4.6924513     -8.1961243e-14 -7.5112641e-14 -149.79531     -3.1414777e-13
    357750   1423.9446      281.67043      1142.2742      343.6167       6077.5284      1.0177122      4455.7805     -150.5722      -4.6924513     -8.1316419e-14 -7.5111168e-14 -150.5722      -3.1285517e-13
    358000   1395.3222      240.56411      1154.7581      293.47009      8140.8519      1.0177122      4455.7805     -153.86872     -4.6924513     -8.1913291e-14 -7.5107059e-14 -153.86872     -3.140407e-13 
    358250   1450.3037      274.813        1175.4907      335.25115      4387.3658      1.0177122      4455.7805     -154.42783     -4.6924513     -8.1417431e-14 -7.5113315e-14 -154.42783     -3.1306149e-13
    358500   1410.9399      264.53737      1146.4026      322.71566      10279.674      1.0177122      4455.7805     -159.44971     -4.6924513     -8.2097487e-14 -7.5111242e-14 -159.44971     -3.1441746e-13
    358750   1412.6192      268.94933      1143.6699      328.09792      2215.2858      1.0177122      4455.7805     -152.4222      -4.6924513     -8.1608833e-14 -7.5105778e-14 -152.4222      -3.1342922e-13
    359000   1386.2794      237.16803      1149.1113      289.32712      3728.9252      1.0177122      4455.7805     -151.20868     -4.6924513     -8.1659863e-14 -7.5108364e-14 -151.20868     -3.1353645e-13
    359250   1409.2443      253.67916      1155.5652      309.46946      9699.7689      1.0177122      4455.7805     -149.97077     -4.6924513     -8.1712396e-14 -7.51117e-14   -149.97077     -3.1364819e-13
    359500   1434.3463      250.08576      1184.2605      305.08578      7123.1603      1.0177122      4455.7805     -144.27558     -4.6924513     -8.18764e-14   -7.5112661e-14 -144.27558     -3.1397812e-13
    359750   1408.0908      255.04157      1153.0492      311.13149      3460.5651      1.0177122      4455.7805     -153.40825     -4.6924513     -8.140191e-14  -7.511236e-14  -153.40825     -3.1302854e-13
    360000   1399.7651      228.35327      1171.4119      278.57378      8635.8687      1.0177122      4455.7805     -150.13036     -4.6924513     -8.1675736e-14 -7.5111282e-14 -150.13036     -3.1357404e-13
    360250   1408.2774      250.50065      1157.7768      305.59192      6688.2238      1.0177122      4455.7805     -150.86921     -4.6924513     -8.1892911e-14 -7.5107081e-14 -150.86921     -3.1399998e-13
    360500   1429.192       281.65179      1147.5402      343.59396      4291.8857      1.0177122      4455.7805     -148.62947     -4.6924513     -8.1416908e-14 -7.5112164e-14 -148.62947     -3.1305814e-13
    360750   1387.036       230.75592      1156.2801      281.50484      5528.317       1.0177122      4455.7805     -149.0714      -4.6924513     -8.1913963e-14 -7.5112649e-14 -149.0714      -3.1405322e-13
    361000   1433.4612      282.11244      1151.3488      344.15591      10268.149      1.0177122      4455.7805     -153.42302     -4.6924513     -8.1677771e-14 -7.5112243e-14 -153.42302     -3.1358003e-13
    361250   1395.5966      243.42116      1152.1755      296.95547      5290.3671      1.0177122      4455.7805     -148.53142     -4.6924513     -8.1726941e-14 -7.5108942e-14 -148.53142     -3.1367177e-13
    361500   1404.0848      246.18659      1157.8982      300.32909      5043.9285      1.0177122      4455.7805     -148.56929     -4.6924513     -8.1566369e-14 -7.5109542e-14 -148.56929     -3.1335182e-13
    361750   1380.4927      235.29555      1145.1971      287.04284      9841.5268      1.0177122      4455.7805     -153.77913     -4.6924513     -8.1624101e-14 -7.511281e-14  -153.77913     -3.1347382e-13
    362000   1409.2699      259.51247      1149.7574      316.58566      8585.6474      1.0177122      4455.7805     -140.6207      -4.6924513     -8.1828526e-14 -7.5111659e-14 -140.6207      -3.1388037e-13
    362250   1396.5674      248.34084      1148.2265      302.95711      6698.6284      1.0177122      4455.7805     -149.02276     -4.6924513     -8.1847808e-14 -7.5112811e-14 -149.02276     -3.1392124e-13
    362500   1388.0618      244.59848      1143.4634      298.39171      12377.051      1.0177122      4455.7805     -155.19504     -4.6924513     -8.1722885e-14 -7.5112117e-14 -155.19504     -3.1367e-13   
    362750   1397.4638      252.41939      1145.0444      307.93263      7519.3532      1.0177122      4455.7805     -154.63033     -4.6924513     -8.1447366e-14 -7.5111186e-14 -154.63033     -3.131171e-13 
    363000   1411.2251      250.99349      1160.2316      306.19315      3569.1395      1.0177122      4455.7805     -157.02744     -4.6924513     -8.1745081e-14 -7.5111376e-14 -157.02744     -3.1371291e-13
    363250   1422.8828      258.26587      1164.617       315.0649       7999.9153      1.0177122      4455.7805     -145.18093     -4.6924513     -8.2217496e-14 -7.5110426e-14 -145.18093     -3.1465584e-13
    363500   1379.5586      243.59016      1135.9684      297.16164      6505.75        1.0177122      4455.7805     -153.89696     -4.6924513     -8.1456224e-14 -7.5111262e-14 -153.89696     -3.1313497e-13
    363750   1424.1001      255.7054       1168.3947      311.94132      8323.2919      1.0177122      4455.7805     -154.67237     -4.6924513     -8.1556999e-14 -7.5105265e-14 -154.67237     -3.1332453e-13
    364000   1405.7051      263.84159      1141.8635      321.86685      9410.507       1.0177122      4455.7805     -158.13599     -4.6924513     -8.1838862e-14 -7.5110467e-14 -158.13599     -3.1389866e-13
    364250   1401.4085      247.31591      1154.0926      301.70677      4752.3813      1.0177122      4455.7805     -147.88891     -4.6924513     -8.1670353e-14 -7.5109928e-14 -147.88891     -3.1356056e-13
    364500   1383.7982      251.50189      1132.2963      306.81335      3774.8187      1.0177122      4455.7805     -146.2792      -4.6924513     -8.1475027e-14 -7.5112066e-14 -146.2792      -3.1317419e-13
    364750   1367.2193      237.68145      1129.5379      289.95346      3399.5317      1.0177122      4455.7805     -149.05081     -4.6924513     -8.1721997e-14 -7.5113345e-14 -149.05081     -3.1367068e-13
    365000   1407.1095      250.71506      1156.3944      305.85347      10456.244      1.0177122      4455.7805     -149.02758     -4.6924513     -8.1864215e-14 -7.5111188e-14 -149.02758     -3.1395081e-13
    365250   1440.3166      270.09795      1170.2186      329.49915      6619.7976      1.0177122      4455.7805     -152.94143     -4.6924513     -8.164192e-14  -7.5113107e-14 -152.94143     -3.1351005e-13
    365500   1409.5907      239.55536      1170.0354      292.23948      3590.0621      1.0177122      4455.7805     -144.30982     -4.6924513     -8.161787e-14  -7.5113064e-14 -144.30982     -3.1346187e-13
    365750   1408.9142      244.37806      1164.5361      298.12282      12069.23       1.0177122      4455.7805     -154.27125     -4.6924513     -8.172549e-14  -7.5111824e-14 -154.27125     -3.1367463e-13
    366000   1409.4342      256.27414      1153.1601      312.63514      6366.0679      1.0177122      4455.7805     -148.06887     -4.6924513     -8.1599215e-14 -7.5112165e-14 -148.06887     -3.1342276e-13
    366250   1412.9355      237.69465      1175.2408      289.96957      10326.048      1.0177122      4455.7805     -148.16441     -4.6924513     -8.1494117e-14 -7.5110368e-14 -148.16441     -3.1320897e-13
    366500   1386.8216      241.83397      1144.9876      295.01922      6244.0395      1.0177122      4455.7805     -156.12975     -4.6924513     -8.1727388e-14 -7.5110034e-14 -156.12975     -3.1367484e-13
    366750   1389.1544      230.97018      1158.1842      281.76622      10322.681      1.0177122      4455.7805     -159.46305     -4.6924513     -8.1978789e-14 -7.511364e-14  -159.46305     -3.1418486e-13
    367000   1391.699       265.21091      1126.4881      323.53732     -69.715327      1.0177122      4455.7805     -157.63258     -4.6924513     -8.1572671e-14 -7.5110447e-14 -157.63258     -3.1336623e-13
    367250   1400.6308      249.20882      1151.422       304.01599      4365.9416      1.0177122      4455.7805     -164.01427     -4.6924513     -8.1671802e-14 -7.5109468e-14 -164.01427     -3.1356254e-13
    367500   1419.8789      271.26275      1148.6162      330.92012      8291.9069      1.0177122      4455.7805     -149.81645     -4.6924513     -8.1417413e-14 -7.5110456e-14 -149.81645     -3.1305574e-13
    367750   1405.5463      265.44531      1140.101       323.82328      8489.0767      1.0177122      4455.7805     -147.26713     -4.6924513     -8.1756943e-14 -7.5111771e-14 -147.26713     -3.1373743e-13
    368000   1401.7244      251.38586      1150.3386      306.67181      1184.0087      1.0177122      4455.7805     -157.80708     -4.6924513     -8.1618272e-14 -7.5110313e-14 -157.80708     -3.1345717e-13
    368250   1416.6215      272.10958      1144.5119      331.95318      1911.3476      1.0177122      4455.7805     -155.61501     -4.6924513     -8.1360931e-14 -7.5109526e-14 -155.61501     -3.1294091e-13
    368500   1408.5852      261.99171      1146.5935      319.61015      7291.5769      1.0177122      4455.7805     -150.29552     -4.6924513     -8.1941671e-14 -7.5110475e-14 -150.29552     -3.1410429e-13
    368750   1412.1629      257.99008      1154.1728      314.72845      4892.9974      1.0177122      4455.7805     -152.4134      -4.6924513     -8.1490845e-14 -7.5112581e-14 -152.4134      -3.1320685e-13
    369000   1411.2303      264.20496      1147.0254      322.31014      4659.2         1.0177122      4455.7805     -153.54203     -4.6924513     -8.1749459e-14 -7.5111093e-14 -153.54203     -3.137211e-13 
    369250   1456.9718      268.48828      1188.4835      327.53547      8722.3816      1.0177122      4455.7805     -152.95447     -4.6924513     -8.1768868e-14 -7.511084e-14  -152.95447     -3.1375942e-13
    369500   1399.811       238.05373      1161.7573      290.40762      6212.9616      1.0177122      4455.7805     -152.57296     -4.6924513     -8.1814576e-14 -7.5112013e-14 -152.57296     -3.1385318e-13
    369750   1421.0728      260.52527      1160.5475      317.8212       3984.3001      1.0177122      4455.7805     -152.06629     -4.6924513     -8.1633462e-14 -7.5106487e-14 -152.06629     -3.134799e-13 
    370000   1378.5193      228.88591      1149.6334      279.22356      10339.055      1.0177122      4455.7805     -146.78856     -4.6924513     -8.1636432e-14 -7.5111564e-14 -146.78856     -3.1349599e-13
    370250   1411.212       258.72269      1152.4893      315.62218      4237.568       1.0177122      4455.7805     -146.54059     -4.6924513     -8.1694181e-14 -7.5111115e-14 -146.54059     -3.1361059e-13
    370500   1404.454       257.0964       1147.3576      313.63824      10150.999      1.0177122      4455.7805     -153.78947     -4.6924513     -8.1655835e-14 -7.5109687e-14 -153.78947     -3.1353104e-13
    370750   1389.2418      240.30806      1148.9337      293.15773      4218.8434      1.0177122      4455.7805     -144.83047     -4.6924513     -8.1570561e-14 -7.5113634e-14 -144.83047     -3.1336839e-13
    371000   1397.5611      247.32904      1150.232       301.72279      4621.1725      1.0177122      4455.7805     -149.62558     -4.6924513     -8.1758716e-14 -7.5113565e-14 -149.62558     -3.1374456e-13
    371250   1389.6128      239.51684      1150.0959      292.1925       8390.6165      1.0177122      4455.7805     -150.67629     -4.6924513     -8.1727911e-14 -7.5110517e-14 -150.67629     -3.1367686e-13
    371500   1418.6671      259.75844      1158.9086      316.88572      2194.6978      1.0177122      4455.7805     -148.18885     -4.6924513     -8.1804879e-14 -7.5112025e-14 -148.18885     -3.1383381e-13
    371750   1429.0749      245.68192      1183.393       299.71343      5010.8095      1.0177122      4455.7805     -145.12204     -4.6924513     -8.150089e-14  -7.5110337e-14 -145.12204     -3.1322246e-13
    372000   1383.4942      249.53478      1133.9595      304.41363      10603.725      1.0177122      4455.7805     -157.89907     -4.6924513     -8.1642905e-14 -7.5112296e-14 -157.89907     -3.135104e-13 
    372250   1406.0081      266.3541       1139.654       324.93194      9397.9083      1.0177122      4455.7805     -151.10366     -4.6924513     -8.1702922e-14 -7.5111991e-14 -151.10366     -3.1362983e-13
    372500   1406.894       243.26952      1163.6244      296.77048      7610.1599      1.0177122      4455.7805     -149.32039     -4.6924513     -8.1894769e-14 -7.5113035e-14 -149.32039     -3.1401561e-13
    372750   1391.6861      255.86755      1135.8186      312.13913      3483.8859      1.0177122      4455.7805     -153.35606     -4.6924513     -8.1486361e-14 -7.511164e-14  -153.35606     -3.13196e-13  
    373000   1420.6092      269.74116      1150.868       329.06389      8952.0388      1.0177122      4455.7805     -147.23583     -4.6924513     -8.183138e-14  -7.5105758e-14 -147.23583     -3.1387428e-13
    373250   1414.4474      255.38551      1159.0619      311.55108      8410.2099      1.0177122      4455.7805     -147.33239     -4.6924513     -8.1638042e-14 -7.5110205e-14 -147.33239     -3.1349649e-13
    373500   1405.048       248.08394      1156.9641      302.64371      7845.8015      1.0177122      4455.7805     -150.12898     -4.6924513     -8.1727138e-14 -7.5110749e-14 -150.12898     -3.1367577e-13
    373750   1411.3124      250.91781      1160.3946      306.10082      6953.4479      1.0177122      4455.7805     -146.43099     -4.6924513     -8.167058e-14  -7.5111185e-14 -146.43099     -3.1356353e-13
    374000   1416.2185      226.35439      1189.8641      276.13529      8345.3337      1.0177122      4455.7805     -139.91298     -4.6924513     -8.174645e-14  -7.5112834e-14 -139.91298     -3.1371857e-13
    374250   1359.7796      236.6383       1123.1413      288.68089      5145.1711      1.0177122      4455.7805     -151.3046      -4.6924513     -8.1781806e-14 -7.5109597e-14 -151.3046      -3.137828e-13 
    374500   1410.6745      257.03212      1153.6424      313.55982      3817.3982      1.0177122      4455.7805     -150.64084     -4.6924513     -8.1451238e-14 -7.510926e-14  -150.64084     -3.13121e-13  
    374750   1429.3325      250.90438      1178.4281      306.08444      4991.8078      1.0177122      4455.7805     -155.41705     -4.6924513     -8.1893176e-14 -7.5108778e-14 -155.41705     -3.1400391e-13
    375000   1415.8511      269.289        1146.5621      328.51228      7251.743       1.0177122      4455.7805     -151.23965     -4.6924513     -8.1506022e-14 -7.5111784e-14 -151.23965     -3.1323561e-13
    375250   1370.8947      229.77115      1141.1235      280.30349      4961.1255      1.0177122      4455.7805     -161.78981     -4.6924513     -8.1704078e-14 -7.511188e-14  -161.78981     -3.1363192e-13
    375500   1461.5917      279.73322      1181.8585      341.25344      7689.4416      1.0177122      4455.7805     -151.67349     -4.6924513     -8.1892887e-14 -7.5111342e-14 -151.67349     -3.1400846e-13
    375750   1401.8104      258.15516      1143.6553      314.92985      5160.0633      1.0177122      4455.7805     -145.00307     -4.6924513     -8.161296e-14  -7.5111606e-14 -145.00307     -3.1344913e-13
    376000   1394.4558      242.14423      1152.3115      295.39771      3351.0066      1.0177122      4455.7805     -153.694       -4.6924513     -8.1864975e-14 -7.5108713e-14 -153.694       -3.1394738e-13
    376250   1399.0024      256.50903      1142.4934      312.92168      8711.984       1.0177122      4455.7805     -151.35602     -4.6924513     -8.162657e-14  -7.5111674e-14 -151.35602     -3.1347649e-13
    376500   1392.7791      249.25048      1143.5287      304.0668       7793.4256      1.0177122      4455.7805     -145.76099     -4.6924513     -8.1683337e-14 -7.5110414e-14 -145.76099     -3.135875e-13 
    376750   1401.2341      259.42009      1141.814       316.47297      5309.4671      1.0177122      4455.7805     -150.19114     -4.6924513     -8.1951026e-14 -7.5110835e-14 -150.19114     -3.1412372e-13
    377000   1385.3915      231.65299      1153.7385      282.59919      5535.6064      1.0177122      4455.7805     -151.75432     -4.6924513     -8.1729952e-14 -7.5111366e-14 -151.75432     -3.1368263e-13
    377250   1407.0835      257.60831      1149.4752      314.26273      3629.0002      1.0177122      4455.7805     -145.39337     -4.6924513     -8.1670149e-14 -7.5111806e-14 -145.39337     -3.1356391e-13
    377500   1434.0184      265.98819      1168.0302      324.48555      12503.85       1.0177122      4455.7805     -144.55386     -4.6924513     -8.2127033e-14 -7.5106053e-14 -144.55386     -3.1446617e-13
    377750   1398.9414      260.00284      1138.9385      317.18387      8757.5448      1.0177122      4455.7805     -150.89428     -4.6924513     -8.1636529e-14 -7.5110732e-14 -150.89428     -3.1349452e-13
    378000   1414.6414      251.11153      1163.5299      306.33714      5524.1184      1.0177122      4455.7805     -145.62802     -4.6924513     -8.1718998e-14 -7.5108897e-14 -145.62802     -3.1365579e-13
    378250   1401.9024      229.55425      1172.3481      280.03889      4131.7562      1.0177122      4455.7805     -150.79806     -4.6924513     -8.1733499e-14 -7.5110545e-14 -150.79806     -3.1368809e-13
    378500   1421.1245      261.25864      1159.8659      318.71585      4939.836       1.0177122      4455.7805     -146.5335      -4.6924513     -8.1497617e-14 -7.5110932e-14 -146.5335      -3.132171e-13 
    378750   1432.0427      270.93149      1161.1112      330.51601      5556.1266      1.0177122      4455.7805     -149.69433     -4.6924513     -8.180438e-14  -7.5110196e-14 -149.69433     -3.1382915e-13
    379000   1422.1877      258.76167      1163.426       315.66974      6977.9923      1.0177122      4455.7805     -150.61736     -4.6924513     -8.1870054e-14 -7.5107663e-14 -150.61736     -3.1395543e-13
    379250   1421.7995      251.25816      1170.5414      306.51603      2210.8728      1.0177122      4455.7805     -152.86482     -4.6924513     -8.1646245e-14 -7.5112979e-14 -152.86482     -3.1351845e-13
    379500   1405.9967      254.26389      1151.7328      310.18278      8050.4882      1.0177122      4455.7805     -144.44649     -4.6924513     -8.1726649e-14 -7.5107756e-14 -144.44649     -3.1366881e-13
    379750   1396.1001      249.07684      1147.0233      303.85497      5616.3746      1.0177122      4455.7805     -150.61202     -4.6924513     -8.1621228e-14 -7.5108731e-14 -150.61202     -3.1345992e-13
    380000   1393.2278      253.67027      1139.5576      309.45861      2522.7524      1.0177122      4455.7805     -148.30504     -4.6924513     -8.1631401e-14 -7.5109413e-14 -148.30504     -3.1348163e-13
    380250   1419.7149      270.51945      1149.1955      330.01334      7795.272       1.0177122      4455.7805     -147.27024     -4.6924513     -8.1858165e-14 -7.5109653e-14 -147.27024     -3.1393564e-13
    380500   1418.3056      252.63133      1165.6743      308.19119      6812.9283      1.0177122      4455.7805     -156.53221     -4.6924513     -8.1320235e-14 -7.5110985e-14 -156.53221     -3.1286244e-13
    380750   1411.7054      239.85748      1171.8479      292.60806      1711.31        1.0177122      4455.7805     -154.80311     -4.6924513     -8.1385745e-14 -7.5111196e-14 -154.80311     -3.1299388e-13
    381000   1431.4076      270.03566      1161.372       329.42316      5943.5678      1.0177122      4455.7805     -155.25133     -4.6924513     -8.1726762e-14 -7.5111363e-14 -155.25133     -3.1367625e-13
    381250   1409.2538      246.44387      1162.81        300.64295      10244.593      1.0177122      4455.7805     -157.74671     -4.6924513     -8.1654366e-14 -7.5112511e-14 -157.74671     -3.1353375e-13
    381500   1418.5965      248.7485       1169.848       303.45442      6629.865       1.0177122      4455.7805     -152.27354     -4.6924513     -8.1736083e-14 -7.5113528e-14 -152.27354     -3.1369922e-13
    381750   1387.5599      250.38561      1137.1743      305.45157      4221.6412      1.0177122      4455.7805     -151.37991     -4.6924513     -8.1895261e-14 -7.5108822e-14 -151.37991     -3.1400817e-13
    382000   1408.1183      260.33256      1147.7858      317.5861       2843.8931      1.0177122      4455.7805     -153.7711      -4.6924513     -8.1538036e-14 -7.5112514e-14 -153.7711      -3.133011e-13 
    382250   1389.5526      242.52719      1147.0254      295.86489      8276.9044      1.0177122      4455.7805     -151.41923     -4.6924513     -8.1701538e-14 -7.5111342e-14 -151.41923     -3.1362576e-13
    382500   1397.9891      251.93059      1146.0586      307.33634      6273.0606      1.0177122      4455.7805     -148.18759     -4.6924513     -8.1236702e-14 -7.5111025e-14 -148.18759     -3.1269545e-13
    382750   1412.3587      252.10646      1160.2523      307.55088      3821.9776      1.0177122      4455.7805     -150.40253     -4.6924513     -8.1747442e-14 -7.5108586e-14 -150.40253     -3.1371206e-13
    383000   1404.8398      244.35143      1160.4883      298.09033      5813.2747      1.0177122      4455.7805     -152.49072     -4.6924513     -8.1792843e-14 -7.5110855e-14 -152.49072     -3.138074e-13 
    383250   1406.0506      249.66402      1156.3866      304.57129      6397.4658      1.0177122      4455.7805     -150.19779     -4.6924513     -8.1804675e-14 -7.5112527e-14 -150.19779     -3.138344e-13 
    383500   1418.4091      268.98913      1149.4199      328.14647      4886.3098      1.0177122      4455.7805     -152.69647     -4.6924513     -8.1364426e-14 -7.5110781e-14 -152.69647     -3.1295042e-13
    383750   1417.2574      238.13513      1179.1223      290.50692      8536.536       1.0177122      4455.7805     -142.48016     -4.6924513     -8.1988754e-14 -7.5108524e-14 -142.48016     -3.1419456e-13
    384000   1384.7096      244.7415       1139.9681      298.56619      5267.695       1.0177122      4455.7805     -153.67834     -4.6924513     -8.1970378e-14 -7.5111086e-14 -153.67834     -3.1416293e-13
    384250   1405.1937      251.7397       1153.454       307.10347      4811.7174      1.0177122      4455.7805     -153.35228     -4.6924513     -8.1936277e-14 -7.5111806e-14 -153.35228     -3.1409617e-13
    384500   1410.7591      253.4828       1157.2763      309.22992      12285.552      1.0177122      4455.7805     -145.32151     -4.6924513     -8.1730502e-14 -7.5109586e-14 -145.32151     -3.1368018e-13
    384750   1393.6034      236.24782      1157.3556      288.20454      9036.1861      1.0177122      4455.7805     -154.2078      -4.6924513     -8.1994399e-14 -7.5110018e-14 -154.2078      -3.1420883e-13
    385000   1390.9376      239.86672      1151.0708      292.61933      7252.7936      1.0177122      4455.7805     -150.91718     -4.6924513     -8.2060469e-14 -7.5113406e-14 -150.91718     -3.1434775e-13
    385250   1425.323       267.43919      1157.8838      326.25566      3678.1326      1.0177122      4455.7805     -145.35749     -4.6924513     -8.1848607e-14 -7.5110156e-14 -145.35749     -3.1391752e-13
    385500   1411.6521      257.18384      1154.4682      313.7449       3549.0219      1.0177122      4455.7805     -148.26014     -4.6924513     -8.1798577e-14 -7.5112666e-14 -148.26014     -3.1382249e-13
    385750   1410.6426      276.08777      1134.5549      336.80628      7317.3221      1.0177122      4455.7805     -155.00826     -4.6924513     -8.1576723e-14 -7.5109881e-14 -155.00826     -3.1337321e-13
    386000   1418.9241      255.17012      1163.754       311.28831      4041.6663      1.0177122      4455.7805     -153.95074     -4.6924513     -8.162297e-14  -7.5111443e-14 -153.95074     -3.1346882e-13
    386250   1391.5415      246.58024      1144.9613      300.80932      5045.5889      1.0177122      4455.7805     -153.17496     -4.6924513     -8.1614888e-14 -7.5112092e-14 -153.17496     -3.1345396e-13
    386500   1443.575       280.37414      1163.2009      342.03533      6881.7427      1.0177122      4455.7805     -150.49299     -4.6924513     -8.1981947e-14 -7.511254e-14  -150.49299     -3.1418897e-13
    386750   1426.7045      269.71072      1156.9938      329.02675      4940.2099      1.0177122      4455.7805     -151.76257     -4.6924513     -8.1224587e-14 -7.5110572e-14 -151.76257     -3.1267032e-13
    387000   1430.5475      269.61044      1160.937       328.90442      3725.8029      1.0177122      4455.7805     -144.29554     -4.6924513     -8.1513181e-14 -7.5110844e-14 -144.29554     -3.1324805e-13
    387250   1403.4176      252.09142      1151.3262      307.53253      3073.3258      1.0177122      4455.7805     -154.24826     -4.6924513     -8.1649598e-14 -7.5109011e-14 -154.24826     -3.1351722e-13
    387500   1421.6547      249.72893      1171.9258      304.65047      8478.1379      1.0177122      4455.7805     -152.69022     -4.6924513     -8.1838421e-14 -7.5109346e-14 -152.69022     -3.1389553e-13
    387750   1429.7755      255.33814      1174.4374      311.49328      2507.1411      1.0177122      4455.7805     -157.56375     -4.6924513     -8.1330756e-14 -7.5107049e-14 -157.56375     -3.1287561e-13
    388000   1413.0573      247.66006      1165.3972      302.12661      10567.821      1.0177122      4455.7805     -153.79639     -4.6924513     -8.1849988e-14 -7.5110623e-14 -153.79639     -3.1392122e-13
    388250   1401.9725      255.61234      1146.3602      311.82779      7110.4909      1.0177122      4455.7805     -150.09193     -4.6924513     -8.1765831e-14 -7.5111239e-14 -150.09193     -3.1375414e-13
    388500   1427.563       275.5135       1152.0495      336.10571      12076.356      1.0177122      4455.7805     -154.12875     -4.6924513     -8.2026922e-14 -7.510852e-14  -154.12875     -3.1427088e-13
    388750   1407.3762      243.37138      1164.0048      296.89475      7713.3317      1.0177122      4455.7805     -154.08915     -4.6924513     -8.1617597e-14 -7.5113532e-14 -154.08915     -3.1346226e-13
    389000   1404.5563      245.0276       1159.5287      298.91521      7605.2151      1.0177122      4455.7805     -143.23973     -4.6924513     -8.1831506e-14 -7.5109242e-14 -143.23973     -3.138815e-13 
    389250   1403.5026      249.90375      1153.5988      304.86374      8736.7309      1.0177122      4455.7805     -146.99067     -4.6924513     -8.1599014e-14 -7.5112955e-14 -146.99067     -3.1342394e-13
    389500   1417.1032      264.42106      1152.6821      322.57376      7072.6272      1.0177122      4455.7805     -148.73297     -4.6924513     -8.1672331e-14 -7.5112841e-14 -148.73297     -3.1357035e-13
    389750   1406.3961      250.68666      1155.7094      305.81883      5955.6137      1.0177122      4455.7805     -158.13278     -4.6924513     -8.1584159e-14 -7.5112677e-14 -158.13278     -3.1339367e-13
    390000   1411.9664      250.00354      1161.9628      304.98548      6739.4179      1.0177122      4455.7805     -158.56698     -4.6924513     -8.1752424e-14 -7.5111147e-14 -158.56698     -3.1372714e-13
    390250   1368.5372      230.17908      1138.3581      280.80114      11666.604      1.0177122      4455.7805     -153.79121     -4.6924513     -8.1942871e-14 -7.5111105e-14 -153.79121     -3.1410795e-13
    390500   1397.2999      247.03279      1150.2671      301.36139      6050.4112      1.0177122      4455.7805     -151.98121     -4.6924513     -8.1190018e-14 -7.5108087e-14 -151.98121     -3.1259621e-13
    390750   1429.6772      259.41861      1170.2586      316.47115      4910.8683      1.0177122      4455.7805     -155.26124     -4.6924513     -8.166753e-14  -7.5107203e-14 -155.26124     -3.1354947e-13
    391000   1406.5703      244.17523      1162.395       297.87538      8989.5716      1.0177122      4455.7805     -149.86104     -4.6924513     -8.199793e-14  -7.5111822e-14 -149.86104     -3.142195e-13 
    391250   1434.1917      270.05442      1164.1373      329.44605      5303.3406      1.0177122      4455.7805     -150.55366     -4.6924513     -8.1691073e-14 -7.5112183e-14 -150.55366     -3.1360651e-13
    391500   1413.8955      235.59972      1178.2958      287.4139       6935.6242      1.0177122      4455.7805     -148.24021     -4.6924513     -8.1627218e-14 -7.5110535e-14 -148.24021     -3.1347551e-13
    391750   1404.7375      263.4473       1141.2902      321.38585      5248.5426      1.0177122      4455.7805     -151.98738     -4.6924513     -8.1827299e-14 -7.5112375e-14 -151.98738     -3.1387935e-13
    392000   1402.4092      252.5346       1149.8746      308.07318      7916.7714      1.0177122      4455.7805     -145.64674     -4.6924513     -8.1775772e-14 -7.5112076e-14 -145.64674     -3.137757e-13 
    392250   1448.088       275.51899      1172.569       336.1124       7284.1316      1.0177122      4455.7805     -150.04938     -4.6924513     -8.1710234e-14 -7.5109871e-14 -150.04938     -3.1364021e-13
    392500   1440.5717      266.63343      1173.9383      325.2727       9269.8012      1.0177122      4455.7805     -149.38774     -4.6924513     -8.1611309e-14 -7.5113331e-14 -149.38774     -3.1344928e-13
    392750   1403.5294      256.97123      1146.5581      313.48554      2302.5147      1.0177122      4455.7805     -146.05316     -4.6924513     -8.1720089e-14 -7.5111002e-14 -146.05316     -3.1366218e-13
    393000   1430.0561      274.72133      1155.3347      335.13932      8713.3813      1.0177122      4455.7805     -153.93035     -4.6924513     -8.1633823e-14 -7.5110087e-14 -153.93035     -3.1348782e-13
    393250   1425.7137      260.11982      1165.5939      317.32658      2645.5043      1.0177122      4455.7805     -151.2311      -4.6924513     -8.1625967e-14 -7.5111536e-14 -151.2311      -3.13475e-13  
    393500   1389.9569      241.53655      1148.4203      294.65639      5854.3175      1.0177122      4455.7805     -154.8395      -4.6924513     -8.1521641e-14 -7.5111863e-14 -154.8395      -3.1326701e-13
    393750   1409.3305      267.69109      1141.6394      326.56295      8275.0542      1.0177122      4455.7805     -150.6928      -4.6924513     -8.2007128e-14 -7.5108104e-14 -150.6928      -3.1423046e-13
    394000   1388.0653      240.73775      1147.3276      293.68192      7116.9944      1.0177122      4455.7805     -157.08239     -4.6924513     -8.1840246e-14 -7.5112897e-14 -157.08239     -3.1390629e-13
    394250   1383.2189      219.46407      1163.7548      267.72962      7200.4674      1.0177122      4455.7805     -145.8671      -4.6924513     -8.1730179e-14 -7.5108496e-14 -145.8671      -3.1367735e-13
    394500   1404.309       247.84687      1156.4621      302.3545       8065.2312      1.0177122      4455.7805     -152.98499     -4.6924513     -8.1637741e-14 -7.5110625e-14 -152.98499     -3.1349673e-13
    394750   1428.4505      252.6974       1175.7531      308.27179      5477.4412      1.0177122      4455.7805     -152.03212     -4.6924513     -8.1688207e-14 -7.5111349e-14 -152.03212     -3.1359911e-13
    395000   1418.5837      256.87121      1161.7125      313.36351      8513.6732      1.0177122      4455.7805     -153.75035     -4.6924513     -8.1533067e-14 -7.5112223e-14 -153.75035     -3.1329058e-13
    395250   1400.5792      259.95166      1140.6275      317.12144      4019.5611      1.0177122      4455.7805     -150.6551      -4.6924513     -8.1779805e-14 -7.5111798e-14 -150.6551      -3.1378321e-13
    395500   1385.2534      244.18256      1141.0708      297.88432      5357.7225      1.0177122      4455.7805     -154.38081     -4.6924513     -8.1796861e-14 -7.5110974e-14 -154.38081     -3.1381567e-13
    395750   1410.8492      252.75397      1158.0952      308.3408       8833.5681      1.0177122      4455.7805     -149.79785     -4.6924513     -8.1712889e-14 -7.511096e-14  -149.79785     -3.136477e-13 
    396000   1423.929       258.29518      1165.6339      315.10066      7439.6748      1.0177122      4455.7805     -149.09598     -4.6924513     -8.1501883e-14 -7.5109395e-14 -149.09598     -3.1322256e-13
    396250   1417.0721      250.11313      1166.959       305.11918      4142.6577      1.0177122      4455.7805     -148.09873     -4.6924513     -8.1787346e-14 -7.5111738e-14 -148.09873     -3.1379817e-13
    396500   1405.5461      255.02517      1150.521       311.11148      7579.9099      1.0177122      4455.7805     -148.06284     -4.6924513     -8.1971322e-14 -7.5107503e-14 -148.06284     -3.1415765e-13
    396750   1435.7108      266.70063      1169.0102      325.35467      4617.0408      1.0177122      4455.7805     -152.65979     -4.6924513     -8.196945e-14  -7.5113229e-14 -152.65979     -3.1416536e-13
    397000   1393.5893      236.75307      1156.8363      288.8209       3848.1452      1.0177122      4455.7805     -150.95947     -4.6924513     -8.1891613e-14 -7.5108109e-14 -150.95947     -3.1399944e-13
    397250   1384.3426      239.65917      1144.6835      292.36613      9325.4584      1.0177122      4455.7805     -157.96962     -4.6924513     -8.1704251e-14 -7.511238e-14  -157.96962     -3.1363326e-13
    397500   1403.8391      240.74148      1163.0977      293.68647      3093.0393      1.0177122      4455.7805     -141.30969     -4.6924513     -8.1833815e-14 -7.5113139e-14 -141.30969     -3.1389391e-13
    397750   1417.8869      261.9409       1155.946       319.54816      8222.9664      1.0177122      4455.7805     -150.81559     -4.6924513     -8.1579799e-14 -7.511202e-14  -150.81559     -3.1338364e-13
    398000   1400.3588      251.78068      1148.5781      307.15346      7616.5343      1.0177122      4455.7805     -155.51801     -4.6924513     -8.1664434e-14 -7.5109745e-14 -155.51801     -3.1354836e-13
    398250   1432.8724      273.55458      1159.3178      333.71598      4762.5024      1.0177122      4455.7805     -140.04871     -4.6924513     -8.1618417e-14 -7.5108091e-14 -140.04871     -3.1345302e-13
    398500   1403.826       243.27579      1160.5502      296.77813      5190.385       1.0177122      4455.7805     -146.51136     -4.6924513     -8.1717576e-14 -7.5112172e-14 -146.51136     -3.1365949e-13
    398750   1369.9026      233.17891      1136.7237      284.4607       6685.8013      1.0177122      4455.7805     -151.4626      -4.6924513     -8.1668678e-14 -7.5109972e-14 -151.4626      -3.135573e-13 
    399000   1413.7201      254.12657      1159.5935      310.01526      3389.1323      1.0177122      4455.7805     -139.97965     -4.6924513     -8.177648e-14  -7.5108719e-14 -139.97965     -3.137704e-13 
    399250   1409.7643      253.65485      1156.1094      309.4398       7333.5546      1.0177122      4455.7805     -151.85673     -4.6924513     -8.1722466e-14 -7.5109634e-14 -151.85673     -3.136642e-13 
    399500   1422.3644      259.83147      1162.5329      316.97481      4926.9971      1.0177122      4455.7805     -148.88619     -4.6924513     -8.1703629e-14 -7.5105409e-14 -148.88619     -3.1361808e-13
    399750   1415.827       251.39218      1164.4348      306.67952      8508.1205      1.0177122      4455.7805     -146.93301     -4.6924513     -8.2021986e-14 -7.5111151e-14 -146.93301     -3.1426627e-13
    400000   1417.5201      267.72131      1149.7988      326.59983      5848.7906      1.0177122      4455.7805     -146.54118     -4.6924513     -8.1547696e-14 -7.5111075e-14 -146.54118     -3.1331754e-13
    400250   1443.4495      273.97736      1169.4721      334.23173      6273.3063      1.0177122      4455.7805     -144.44041     -4.6924513     -8.1581328e-14 -7.5109918e-14 -144.44041     -3.1338249e-13
    400500   1410.6634      250.53789      1160.1256      305.63735      8907.0477      1.0177122      4455.7805     -150.85295     -4.6924513     -8.1620958e-14 -7.5111163e-14 -150.85295     -3.1346424e-13
    400750   1406.0474      241.88905      1164.1584      295.08641      11960.346      1.0177122      4455.7805     -147.89334     -4.6924513     -8.1905401e-14 -7.5110337e-14 -147.89334     -3.1403148e-13
    401000   1398.3403      239.69011      1158.6502      292.40387      2362.6899      1.0177122      4455.7805     -152.2661      -4.6924513     -8.1543553e-14 -7.511176e-14  -152.2661      -3.1331063e-13
    401250   1395.6566      246.09565      1149.5609      300.21815      6317.1216      1.0177122      4455.7805     -150.88217     -4.6924513     -8.1679171e-14 -7.5112042e-14 -150.88217     -3.1358242e-13
    401500   1397.8824      246.72932      1151.1531      300.99118      8234.83        1.0177122      4455.7805     -148.93212     -4.6924513     -8.1697623e-14 -7.5109627e-14 -148.93212     -3.136145e-13 
    401750   1392.0755      240.60063      1151.4749      293.51464      6526.7641      1.0177122      4455.7805     -158.24112     -4.6924513     -8.181151e-14  -7.5113168e-14 -158.24112     -3.1384936e-13
    402000   1402.5204      245.83669      1156.6837      299.90223      11076.751      1.0177122      4455.7805     -146.67683     -4.6924513     -8.178653e-14  -7.5112307e-14 -146.67683     -3.1379767e-13
    402250   1407.866       248.86243      1159.0035      303.59341      5286.6505      1.0177122      4455.7805     -153.30292     -4.6924513     -8.1706889e-14 -7.5110777e-14 -153.30292     -3.1363533e-13
    402500   1409.3436      258.80615      1150.5375      315.724        9053.2686      1.0177122      4455.7805     -154.83133     -4.6924513     -8.1728008e-14 -7.5110947e-14 -154.83133     -3.1367791e-13
    402750   1387.663       242.55578      1145.1072      295.89977      8336.6773      1.0177122      4455.7805     -151.88929     -4.6924513     -8.1402296e-14 -7.5111838e-14 -151.88929     -3.1302827e-13
    403000   1416.4789      268.85231      1147.6266      327.97956      7343.3766      1.0177122      4455.7805     -148.94859     -4.6924513     -8.1572859e-14 -7.5112863e-14 -148.94859     -3.1337144e-13
    403250   1428.8884      267.61817      1161.2703      326.47401      6140.0825      1.0177122      4455.7805     -150.93048     -4.6924513     -8.1808005e-14 -7.5110926e-14 -150.93048     -3.1383786e-13
    403500   1414.3595      249.17992      1165.1796      303.98073      7392.9748      1.0177122      4455.7805     -160.07456     -4.6924513     -8.1285822e-14 -7.5110854e-14 -160.07456     -3.1279335e-13
    403750   1401.7732      245.11289      1156.6603      299.01925      5281.8538      1.0177122      4455.7805     -148.67676     -4.6924513     -8.1523411e-14 -7.5110416e-14 -148.67676     -3.1326765e-13
    404000   1389.133       236.04414      1153.0888      287.95606      7428.0069      1.0177122      4455.7805     -150.29928     -4.6924513     -8.1940213e-14 -7.5108247e-14 -150.29928     -3.1409692e-13
    404250   1396.8717      251.69013      1145.1815      307.04299      6504.2859      1.0177122      4455.7805     -153.14239     -4.6924513     -8.1785364e-14 -7.5113495e-14 -153.14239     -3.1379772e-13
    404500   1398.6069      248.03417      1150.5727      302.58299      6592.1231      1.0177122      4455.7805     -153.3058      -4.6924513     -8.1909584e-14 -7.5112437e-14 -153.3058      -3.1404404e-13
    404750   1423.5282      258.72067      1164.8076      315.61972      7801.5695      1.0177122      4455.7805     -150.84416     -4.6924513     -8.2144879e-14 -7.511186e-14  -150.84416     -3.1451348e-13
    405000   1386.4107      245.16495      1141.2457      299.08277      5589.4704      1.0177122      4455.7805     -154.79021     -4.6924513     -8.1586775e-14 -7.5106691e-14 -154.79021     -3.1338693e-13
    405250   1401.8103      248.56847      1153.2418      303.2348       4641.1299      1.0177122      4455.7805     -146.64002     -4.6924513     -8.1760158e-14 -7.5110451e-14 -146.64002     -3.1374122e-13
    405500   1399.3974      253.21661      1146.1808      308.90519      9256.9072      1.0177122      4455.7805     -156.79156     -4.6924513     -8.138678e-14  -7.5112574e-14 -156.79156     -3.1299871e-13
    405750   1399.8037      231.12092      1168.6828      281.95011      5465.9557      1.0177122      4455.7805     -148.67514     -4.6924513     -8.1291985e-14 -7.5109575e-14 -148.67514     -3.1280312e-13
    406000   1411.0348      249.04414      1161.9907      303.81508      5378.4114      1.0177122      4455.7805     -157.55553     -4.6924513     -8.146437e-14  -7.5112925e-14 -157.55553     -3.1315459e-13
    406250   1391.2188      233.28735      1157.9315      284.59299      4788.2882      1.0177122      4455.7805     -154.28435     -4.6924513     -8.1723018e-14 -7.510958e-14  -154.28435     -3.136652e-13 
    406500   1405.7428      252.40589      1153.3369      307.91616      9680.539       1.0177122      4455.7805     -145.54308     -4.6924513     -8.1893691e-14 -7.5111562e-14 -145.54308     -3.1401051e-13
    406750   1405.7032      250.03925      1155.6639      305.02904      6355.6168      1.0177122      4455.7805     -149.38455     -4.6924513     -8.1749835e-14 -7.5109777e-14 -149.38455     -3.1371922e-13
    407000   1406.4214      272.26804      1134.1534      332.14649      7417.7209      1.0177122      4455.7805     -155.73509     -4.6924513     -8.1918379e-14 -7.5112487e-14 -155.73509     -3.1406173e-13
    407250   1387.5313      263.39959      1124.1317      321.32765      3835.9865      1.0177122      4455.7805     -151.29571     -4.6924513     -8.1644943e-14 -7.5111835e-14 -151.29571     -3.1351356e-13
    407500   1382.9827      244.26651      1138.7162      297.98674      6781.3375      1.0177122      4455.7805     -150.75212     -4.6924513     -8.1502842e-14 -7.511198e-14  -150.75212     -3.1322964e-13
    407750   1403.4439      262.35574      1141.0882      320.05423      6656.8131      1.0177122      4455.7805     -155.98902     -4.6924513     -8.1793303e-14 -7.5111876e-14 -155.98902     -3.1381036e-13
    408000   1439.5335      273.68872      1165.8448      333.87961      13301.146      1.0177122      4455.7805     -154.9067      -4.6924513     -8.167429e-14  -7.5110528e-14 -154.9067      -3.1356964e-13
    408250   1400.018       238.23123      1161.7868      290.62414      5826.3303      1.0177122      4455.7805     -149.86002     -4.6924513     -8.1780459e-14 -7.5109821e-14 -149.86002     -3.1378056e-13
    408500   1394.9538      241.74096      1153.2129      294.90575      6889.7789      1.0177122      4455.7805     -144.19055     -4.6924513     -8.1659011e-14 -7.5111169e-14 -144.19055     -3.1354036e-13
    408750   1402.6884      247.06183      1155.6266      301.39681      6967.8075      1.0177122      4455.7805     -149.58597     -4.6924513     -8.1566011e-14 -7.5111453e-14 -149.58597     -3.1335493e-13
    409000   1416.925       273.52701      1143.398       333.68234      9758.0601      1.0177122      4455.7805     -151.78272     -4.6924513     -8.174929e-14  -7.5112381e-14 -151.78272     -3.1372334e-13
    409250   1387.3112      234.88257      1152.4287      286.53904      3564.3192      1.0177122      4455.7805     -144.88985     -4.6924513     -8.1716805e-14 -7.5109237e-14 -144.88985     -3.1365208e-13
    409500   1404.2939      245.12747      1159.1665      299.03705      7611.7848      1.0177122      4455.7805     -149.30333     -4.6924513     -8.1616474e-14 -7.5112357e-14 -149.30333     -3.1345766e-13
    409750   1400.6266      237.72415      1162.9024      290.00555      9793.5723      1.0177122      4455.7805     -151.37124     -4.6924513     -8.1977332e-14 -7.5110032e-14 -151.37124     -3.1417473e-13
    410000   1372.0773      226.46911      1145.6082      276.27524      7861.8407      1.0177122      4455.7805     -146.84657     -4.6924513     -8.1949057e-14 -7.5106575e-14 -146.84657     -3.1411127e-13
    410250   1394.7202      237.06561      1157.6546      289.20217      5793.5115      1.0177122      4455.7805     -149.94709     -4.6924513     -8.1659338e-14 -7.5110631e-14 -149.94709     -3.1353994e-13
    410500   1381.2828      248.12539      1133.1574      302.69428      5098.878       1.0177122      4455.7805     -150.24576     -4.6924513     -8.1680538e-14 -7.5107139e-14 -150.24576     -3.1357535e-13
    410750   1412.3634      255.23116      1157.1323      311.36278      6277.175       1.0177122      4455.7805     -153.45089     -4.6924513     -8.1716055e-14 -7.5112501e-14 -153.45089     -3.1365711e-13
    411000   1398.1167      247.55132      1150.5654      301.99395      4766.9093      1.0177122      4455.7805     -154.01788     -4.6924513     -8.1775731e-14 -7.5112334e-14 -154.01788     -3.1377613e-13
    411250   1403.8693      251.58936      1152.2799      306.92006      8997.764       1.0177122      4455.7805     -146.00742     -4.6924513     -8.1896043e-14 -7.5112702e-14 -146.00742     -3.1401749e-13
    411500   1433.5821      268.62089      1164.9612      327.69724      4166.5889      1.0177122      4455.7805     -148.89046     -4.6924513     -8.1715548e-14 -7.511192e-14  -148.89046     -3.1365494e-13
    411750   1435.7245      268.71705      1167.0074      327.81455      8795.4126      1.0177122      4455.7805     -152.64091     -4.6924513     -8.1888886e-14 -7.5109401e-14 -152.64091     -3.1399657e-13
    412000   1410.6592      260.41066      1150.2485      317.68138      6511.7228      1.0177122      4455.7805     -151.39715     -4.6924513     -8.168232e-14  -7.5112248e-14 -151.39715     -3.1358914e-13
    412250   1400.0299      247.79589      1152.234       302.29231      4535.0575      1.0177122      4455.7805     -150.91484     -4.6924513     -8.1553944e-14 -7.5112596e-14 -150.91484     -3.1333308e-13
    412500   1407.3153      248.38064      1158.9346      303.00566      7290.7856      1.0177122      4455.7805     -152.80583     -4.6924513     -8.1708408e-14 -7.5112089e-14 -152.80583     -3.1364099e-13
    412750   1398.2303      244.91616      1153.3142      298.77926      2888.9401      1.0177122      4455.7805     -143.11453     -4.6924513     -8.1496874e-14 -7.5110747e-14 -143.11453     -3.1321524e-13
    413000   1406.3117      242.78867      1163.5231      296.18388      5899.5508      1.0177122      4455.7805     -149.61331     -4.6924513     -8.1684769e-14 -7.5108823e-14 -149.61331     -3.1358718e-13
    413250   1394.0624      231.6924       1162.37        282.64727      7633.0468      1.0177122      4455.7805     -153.94324     -4.6924513     -8.1858654e-14 -7.5109073e-14 -153.94324     -3.1393545e-13
    413500   1400.2436      237.8904       1162.3532      290.20836      3848.0737      1.0177122      4455.7805     -154.01903     -4.6924513     -8.1807887e-14 -7.5111066e-14 -154.01903     -3.1383791e-13
    413750   1409.8838      261.97518      1147.9086      319.58997      8068.2651      1.0177122      4455.7805     -154.34859     -4.6924513     -8.1776409e-14 -7.510947e-14  -154.34859     -3.1377176e-13
    414000   1439.9822      258.51756      1181.4646      315.37194      5475.9158      1.0177122      4455.7805     -146.20119     -4.6924513     -8.1773536e-14 -7.5112655e-14 -146.20119     -3.1377238e-13
    414250   1400.9156      247.3187       1153.5969      301.71018      5319.4101      1.0177122      4455.7805     -150.6847      -4.6924513     -8.1648706e-14 -7.5108894e-14 -150.6847      -3.135152e-13 
    414500   1421.9852      266.5201       1155.4651      325.13443      5248.3221      1.0177122      4455.7805     -145.72455     -4.6924513     -8.145353e-14  -7.5109093e-14 -145.72455     -3.1312524e-13
    414750   1381.3299      251.56588      1129.764       306.89142      7699.1306      1.0177122      4455.7805     -153.09153     -4.6924513     -8.1867948e-14 -7.5109928e-14 -153.09153     -3.1395575e-13
    415000   1369.8611      235.35462      1134.5065      287.1149       3053.339       1.0177122      4455.7805     -155.11493     -4.6924513     -8.1672994e-14 -7.5111097e-14 -155.11493     -3.1356818e-13
    415250   1418.9696      264.68495      1154.2847      322.8957       6050.5692      1.0177122      4455.7805     -151.25543     -4.6924513     -8.2047084e-14 -7.5112024e-14 -151.25543     -3.1431822e-13
    415500   1417.2671      256.70219      1160.5649      313.15733      9565.1035      1.0177122      4455.7805     -154.43143     -4.6924513     -8.1711985e-14 -7.5111914e-14 -154.43143     -3.136478e-13 
    415750   1427.2039      248.6997       1178.5042      303.3949       2637.0853      1.0177122      4455.7805     -153.96451     -4.6924513     -8.1269876e-14 -7.5111432e-14 -153.96451     -3.1276262e-13
    416000   1376.5367      246.4249       1130.1118      300.61981      7292.6272      1.0177122      4455.7805     -151.82672     -4.6924513     -8.1853481e-14 -7.5112026e-14 -151.82672     -3.1393101e-13
    416250   1422.3383      271.69813      1150.6401      331.45124      2933.3981      1.0177122      4455.7805     -159.7503      -4.6924513     -8.1613127e-14 -7.5113114e-14 -159.7503      -3.1345248e-13
    416500   1412.9398      256.01942      1156.9204      312.3244       8315.3635      1.0177122      4455.7805     -158.87362     -4.6924513     -8.165542e-14  -7.5111829e-14 -158.87362     -3.135345e-13 
    416750   1403.8101      243.7797       1160.0304      297.39286      7715.0954      1.0177122      4455.7805     -150.15951     -4.6924513     -8.171902e-14  -7.5111338e-14 -150.15951     -3.1366072e-13
    417000   1412.3368      254.4618       1157.875       310.42422      4825.1317      1.0177122      4455.7805     -152.15601     -4.6924513     -8.1723222e-14 -7.5110938e-14 -152.15601     -3.1366832e-13
    417250   1381.5619      224.11629      1157.4457      273.40499      10051.427      1.0177122      4455.7805     -150.38101     -4.6924513     -8.1742673e-14 -7.5108234e-14 -150.38101     -3.1370181e-13
    417500   1429.9472      254.44424      1175.503       310.4028       11673.732      1.0177122      4455.7805     -148.11955     -4.6924513     -8.2111942e-14 -7.5108279e-14 -148.11955     -3.1444044e-13
    417750   1437.9753      264.88716      1173.0882      323.14237      9018.2589      1.0177122      4455.7805     -154.98862     -4.6924513     -8.1483479e-14 -7.5109647e-14 -154.98862     -3.1318625e-13
    418000   1412.4061      245.56447      1166.8416      299.57015      5396.7169      1.0177122      4455.7805     -145.64231     -4.6924513     -8.1990517e-14 -7.5113672e-14 -145.64231     -3.1420838e-13
    418250   1389.1116      243.56395      1145.5477      297.12967      5684.8398      1.0177122      4455.7805     -151.24452     -4.6924513     -8.1444514e-14 -7.5108732e-14 -151.24452     -3.1310649e-13
    418500   1414.1365      268.86902      1145.2675      327.99994      8227.4893      1.0177122      4455.7805     -154.1507      -4.6924513     -8.172769e-14  -7.5109694e-14 -154.1507      -3.1367477e-13
    418750   1391.6525      242.44462      1149.2079      295.76417      8197.9439      1.0177122      4455.7805     -148.95705     -4.6924513     -8.1799238e-14 -7.5112662e-14 -148.95705     -3.138238e-13 
    419000   1413.2557      260.66073      1152.595       317.98645      6387.6327      1.0177122      4455.7805     -147.34846     -4.6924513     -8.1855559e-14 -7.5109409e-14 -147.34846     -3.1392994e-13
    419250   1398.1714      247.4027       1150.7687      301.81265      9767.2871      1.0177122      4455.7805     -151.14074     -4.6924513     -8.1746674e-14 -7.5110043e-14 -151.14074     -3.1371343e-13
    419500   1434.1284      274.64331      1159.4851      335.04415      8008.015       1.0177122      4455.7805     -152.50071     -4.6924513     -8.1704203e-14 -7.5110613e-14 -152.50071     -3.1362963e-13
    419750   1391.401       237.06051      1154.3405      289.19596      7433.1884      1.0177122      4455.7805     -157.9127      -4.6924513     -8.1524808e-14 -7.5112505e-14 -157.9127      -3.1327463e-13
    420000   1391.9143      237.87543      1154.0389      290.1901       6604.1857      1.0177122      4455.7805     -149.71356     -4.6924513     -8.1769623e-14 -7.5113228e-14 -149.71356     -3.137657e-13 
    420250   1389.7206      239.14553      1150.575       291.73953      9101.774       1.0177122      4455.7805     -158.67792     -4.6924513     -8.1636325e-14 -7.5108235e-14 -158.67792     -3.1348912e-13
    420500   1415.6585      256.43434      1159.2242      312.83057      2904.9238      1.0177122      4455.7805     -148.32905     -4.6924513     -8.1736116e-14 -7.5111343e-14 -148.32905     -3.1369492e-13
    420750   1408.089       253.5994       1154.4896      309.37216      6157.5706      1.0177122      4455.7805     -141.80369     -4.6924513     -8.1678662e-14 -7.5109653e-14 -141.80369     -3.1357663e-13
    421000   1385.564       237.47712      1148.0868      289.7042       12331.779      1.0177122      4455.7805     -149.15159     -4.6924513     -8.1996935e-14 -7.5112012e-14 -149.15159     -3.1421789e-13
    421250   1414.8687      252.9679       1161.9008      308.60178      4530.1339      1.0177122      4455.7805     -155.12686     -4.6924513     -8.1259617e-14 -7.5112027e-14 -155.12686     -3.1274329e-13
    421500   1419.3012      242.25542      1177.0458      295.53336      9242.1346      1.0177122      4455.7805     -151.77775     -4.6924513     -8.1965946e-14 -7.5105724e-14 -151.77775     -3.1414334e-13
    421750   1392.255       245.67148      1146.5836      299.70069      7532.9731      1.0177122      4455.7805     -155.92549     -4.6924513     -8.1613846e-14 -7.5111823e-14 -155.92549     -3.1345134e-13
    422000   1405.1849      244.56249      1160.6224      298.34781      7209.159       1.0177122      4455.7805     -154.60758     -4.6924513     -8.1747753e-14 -7.5108841e-14 -154.60758     -3.1371319e-13
    422250   1408.8665      259.54245      1149.324       316.62223      7066.0954      1.0177122      4455.7805     -151.05699     -4.6924513     -8.1751276e-14 -7.5110145e-14 -151.05699     -3.1372284e-13
    422500   1425.2197      268.96777      1156.252       328.12041      13427.72       1.0177122      4455.7805     -147.96915     -4.6924513     -8.1622686e-14 -7.5108072e-14 -147.96915     -3.1346152e-13
    422750   1400.1466      231.59632      1168.5503      282.53006      5417.581       1.0177122      4455.7805     -148.02772     -4.6924513     -8.1585322e-14 -7.5105517e-14 -148.02772     -3.1338168e-13
    423000   1451.9913      281.22059      1170.7707      343.06793      4439.3328      1.0177122      4455.7805     -147.21304     -4.6924513     -8.1898355e-14 -7.5110503e-14 -147.21304     -3.1401772e-13
    423250   1423.0044      264.75996      1158.2444      322.9872       7228.2924      1.0177122      4455.7805     -153.28867     -4.6924513     -8.1568356e-14 -7.5111943e-14 -153.28867     -3.133606e-13 
    423500   1389.1027      256.05442      1133.0483      312.36709      9326.8549      1.0177122      4455.7805     -160.34209     -4.6924513     -8.1604228e-14 -7.5111936e-14 -160.34209     -3.1343233e-13
    423750   1371.4962      223.79666      1147.6996      273.01506      4178.1119      1.0177122      4455.7805     -149.25207     -4.6924513     -8.1749002e-14 -7.5108679e-14 -149.25207     -3.1371536e-13
    424000   1399.359       243.46093      1155.8981      297.00399      9144.3079      1.0177122      4455.7805     -150.18863     -4.6924513     -8.1775497e-14 -7.511178e-14  -150.18863     -3.1377456e-13
    424250   1407.0573      263.51276      1143.5446      321.4657       4770.3007      1.0177122      4455.7805     -146.67105     -4.6924513     -8.1618776e-14 -7.5110266e-14 -146.67105     -3.1345808e-13
    424500   1400.8968      242.68071      1158.2161      296.05218      6888.329       1.0177122      4455.7805     -146.13134     -4.6924513     -8.1764543e-14 -7.5106427e-14 -146.13134     -3.1374194e-13
    424750   1416.4257      242.0053       1174.4204      295.22823      7488.0845      1.0177122      4455.7805     -140.17698     -4.6924513     -8.1994537e-14 -7.511037e-14  -140.17698     -3.1420981e-13
    425000   1400.1887      247.25551      1152.9332      301.63309      7822.26        1.0177122      4455.7805     -150.02447     -4.6924513     -8.1521166e-14 -7.5112109e-14 -150.02447     -3.1326655e-13
    425250   1403.0804      229.49249      1173.5879      279.96354      6322.7735      1.0177122      4455.7805     -152.54447     -4.6924513     -8.1911029e-14 -7.5106562e-14 -152.54447     -3.1403518e-13
    425500   1410.9753      256.60673      1154.3685      313.04088      7638.0782      1.0177122      4455.7805     -150.82184     -4.6924513     -8.1551464e-14 -7.5111502e-14 -150.82184     -3.1332593e-13
    425750   1407.776       242.49637      1165.2796      295.8273       6987.9919      1.0177122      4455.7805     -152.41894     -4.6924513     -8.1877736e-14 -7.5109541e-14 -152.41894     -3.1397455e-13
    426000   1370.2325      238.73754      1131.4949      291.24181      7720.9465      1.0177122      4455.7805     -155.95579     -4.6924513     -8.1779592e-14 -7.5111842e-14 -155.95579     -3.1378287e-13
    426250   1387.0294      242.96495      1144.0644      296.39893      12391.27       1.0177122      4455.7805     -147.50563     -4.6924513     -8.1921601e-14 -7.5109072e-14 -147.50563     -3.1406135e-13
    426500   1369.6873      224.16109      1145.5262      273.45964      7223.3898      1.0177122      4455.7805     -152.79664     -4.6924513     -8.1946046e-14 -7.5109906e-14 -152.79664     -3.1411191e-13
    426750   1399.2893      241.46927      1157.82        294.57432      9553.0189      1.0177122      4455.7805     -143.79715     -4.6924513     -8.1559224e-14 -7.5112145e-14 -143.79715     -3.1334274e-13
    427000   1431.1042      264.59831      1166.5058      322.79         10248.582      1.0177122      4455.7805     -145.83715     -4.6924513     -8.1962149e-14 -7.511197e-14  -145.83715     -3.1414824e-13
    427250   1375.3455      227.86123      1147.4842      277.97353      4407.1666      1.0177122      4455.7805     -148.33937     -4.6924513     -8.1632379e-14 -7.5111541e-14 -148.33937     -3.1348784e-13
    427500   1418.6728      261.93745      1156.7354      319.54395      6927.596       1.0177122      4455.7805     -148.40112     -4.6924513     -8.1462576e-14 -7.5110346e-14 -148.40112     -3.1314585e-13
    427750   1410.7617      250.83362      1159.9281      305.99812      3820.7574      1.0177122      4455.7805     -153.31106     -4.6924513     -8.1497879e-14 -7.5111546e-14 -153.31106     -3.1321885e-13
    428000   1396.4387      249.76302      1146.6757      304.69206      11131.836      1.0177122      4455.7805     -148.93509     -4.6924513     -8.176179e-14  -7.5110475e-14 -148.93509     -3.1374453e-13
    428250   1384.5968      240.28707      1144.3098      293.13212      7718.9349      1.0177122      4455.7805     -149.04841     -4.6924513     -8.1656866e-14 -7.5111502e-14 -149.04841     -3.1353674e-13
    428500   1408.7828      247.90225      1160.8806      302.42206      5866.1976      1.0177122      4455.7805     -154.80914     -4.6924513     -8.1589024e-14 -7.5109355e-14 -154.80914     -3.1339676e-13
    428750   1417.1179      243.10124      1174.0167      296.56519      5605.1797      1.0177122      4455.7805     -145.94102     -4.6924513     -8.1734149e-14 -7.5113065e-14 -145.94102     -3.1369443e-13
    429000   1388.0442      234.62281      1153.4214      286.22214      1246.9583      1.0177122      4455.7805     -150.97571     -4.6924513     -8.1683153e-14 -7.5111451e-14 -150.97571     -3.1358921e-13
    429250   1398.2629      243.58609      1154.6768      297.15667      6850.969       1.0177122      4455.7805     -147.34772     -4.6924513     -8.1821219e-14 -7.5112673e-14 -147.34772     -3.1386778e-13
    429500   1373.801       242.86631      1130.9347      296.2786       9412.8845      1.0177122      4455.7805     -165.20366     -4.6924513     -8.1722653e-14 -7.510991e-14  -165.20366     -3.1366513e-13
    429750   1384.1187      237.15225      1146.9664      289.30787      5196.7107      1.0177122      4455.7805     -153.84671     -4.6924513     -8.1639789e-14 -7.5112112e-14 -153.84671     -3.135038e-13 
    430000   1409.1884      248.77058      1160.4178      303.48136      196.115        1.0177122      4455.7805     -148.28301     -4.6924513     -8.1846936e-14 -7.5111006e-14 -148.28301     -3.1391588e-13
    430250   1432.8894      269.79133      1163.0981      329.12509      5923.254       1.0177122      4455.7805     -156.90177     -4.6924513     -8.1902586e-14 -7.5113174e-14 -156.90177     -3.1403152e-13
    430500   1387.3702      249.15953      1138.2106      303.95585      6647.6483      1.0177122      4455.7805     -147.88822     -4.6924513     -8.1922804e-14 -7.5111015e-14 -147.88822     -3.1406764e-13
    430750   1373.3959      223.48341      1149.9125      272.63292      9924.3517      1.0177122      4455.7805     -150.34067     -4.6924513     -8.1991103e-14 -7.5106803e-14 -150.34067     -3.1419581e-13
    431000   1402.321       261.42867      1140.8923      318.92328      3516.4205      1.0177122      4455.7805     -157.75304     -4.6924513     -8.1445935e-14 -7.5108635e-14 -157.75304     -3.1310914e-13
    431250   1400.0353      241.5548       1158.4805      294.67866      7989.1778      1.0177122      4455.7805     -148.07747     -4.6924513     -8.1803167e-14 -7.5113035e-14 -148.07747     -3.1383241e-13
    431500   1396.2043      241.43369      1154.7706      294.53091      7927.1194      1.0177122      4455.7805     -145.82653     -4.6924513     -8.1758231e-14 -7.5112951e-14 -145.82653     -3.1374236e-13
    431750   1396.9382      249.63964      1147.2986      304.54155     -847.92104      1.0177122      4455.7805     -163.61631     -4.6924513     -8.1611591e-14 -7.5110213e-14 -163.61631     -3.1344361e-13
    432000   1384.3432      245.0574       1139.2858      298.95156      8821.7362      1.0177122      4455.7805     -151.05912     -4.6924513     -8.1739323e-14 -7.5112477e-14 -151.05912     -3.137036e-13 
    432250   1428.7042      250.10252      1178.6017      305.10623      6347.859       1.0177122      4455.7805     -155.58386     -4.6924513     -8.1939004e-14 -7.5112052e-14 -155.58386     -3.1410211e-13
    432500   1418.3019      239.89715      1178.4047      292.65645      2101.895       1.0177122      4455.7805     -149.33769     -4.6924513     -8.1984304e-14 -7.5112525e-14 -149.33769     -3.1419366e-13
    432750   1394.851       253.24952      1141.6015      308.94533      6308.9326      1.0177122      4455.7805     -159.52452     -4.6924513     -8.1311261e-14 -7.5112206e-14 -159.52452     -3.1284693e-13
    433000   1384.4032      243.72045      1140.6828      297.32058      6992.0379      1.0177122      4455.7805     -155.21847     -4.6924513     -8.1753069e-14 -7.5110212e-14 -155.21847     -3.1372656e-13
    433250   1396.5505      226.42058      1170.13        276.21605      8785.2995      1.0177122      4455.7805     -149.47915     -4.6924513     -8.1587509e-14 -7.5113995e-14 -149.47915     -3.1340301e-13
    433500   1386.7939      231.47         1155.3239      282.37596      4696.9012      1.0177122      4455.7805     -151.64246     -4.6924513     -8.1652816e-14 -7.5112655e-14 -151.64246     -3.1353094e-13
    433750   1399.8839      254.10516      1145.7788      309.98914      6177.7226      1.0177122      4455.7805     -147.67086     -4.6924513     -8.172072e-14  -7.5110691e-14 -147.67086     -3.1366282e-13
    434000   1422.8383      259.6653       1163.1731      316.77209      6767.3555      1.0177122      4455.7805     -147.02394     -4.6924513     -8.1916887e-14 -7.5112703e-14 -147.02394     -3.1405918e-13
    434250   1402.3851      245.79131      1156.5938      299.84687      7074.7933      1.0177122      4455.7805     -151.85118     -4.6924513     -8.1733086e-14 -7.5110335e-14 -151.85118     -3.1368684e-13
    434500   1399.0119      244.58707      1154.4248      298.3778       6543.8643      1.0177122      4455.7805     -156.73042     -4.6924513     -8.1638668e-14 -7.5110628e-14 -156.73042     -3.1349859e-13
    434750   1366.5839      242.38679      1124.1971      295.69361      7562.3213      1.0177122      4455.7805     -152.62595     -4.6924513     -8.146781e-14  -7.5111545e-14 -152.62595     -3.1315871e-13
    435000   1400.8995      244.90453      1155.995       298.76507      4815.8425      1.0177122      4455.7805     -146.56774     -4.6924513     -8.1772359e-14 -7.5112328e-14 -146.56774     -3.1376937e-13
    435250   1398.9352      255.7691       1143.1661      312.01902      4992.8631      1.0177122      4455.7805     -156.48599     -4.6924513     -8.1316536e-14 -7.5112444e-14 -156.48599     -3.1285796e-13
    435500   1398.5749      251.35854      1147.2164      306.63848      6395.1268      1.0177122      4455.7805     -154.54664     -4.6924513     -8.1547589e-14 -7.5107493e-14 -154.54664     -3.1331016e-13
    435750   1412.6963      266.22703      1146.4693      324.77691      9093.4551      1.0177122      4455.7805     -152.81802     -4.6924513     -8.1964146e-14 -7.5113503e-14 -152.81802     -3.141553e-13 
    436000   1409.6676      253.66832      1155.9993      309.45624      8643.0727      1.0177122      4455.7805     -150.78192     -4.6924513     -8.1395453e-14 -7.5109053e-14 -150.78192     -3.1300901e-13
    436250   1394.4447      249.96897      1144.4757      304.94331      9721.034       1.0177122      4455.7805     -155.19904     -4.6924513     -8.1868815e-14 -7.5113147e-14 -155.19904     -3.1396392e-13
    436500   1405.5618      258.45869      1147.1031      315.30012      5982.2066      1.0177122      4455.7805     -153.3015      -4.6924513     -8.1542185e-14 -7.5111188e-14 -153.3015      -3.1330675e-13
    436750   1429.5274      273.59745      1155.93        333.76827      6925.2288      1.0177122      4455.7805     -150.19957     -4.6924513     -8.1734248e-14 -7.5109103e-14 -150.19957     -3.136867e-13 
    437000   1407.695       263.02143      1144.6736      320.86632      1904.5481      1.0177122      4455.7805     -154.88347     -4.6924513     -8.1956008e-14 -7.5112317e-14 -154.88347     -3.1413665e-13
    437250   1414.6135      271.16734      1143.4462      330.80373      7588.0985      1.0177122      4455.7805     -152.75089     -4.6924513     -8.1719654e-14 -7.5107612e-14 -152.75089     -3.1365453e-13
    437500   1406.6765      235.21537      1171.4612      286.94503      6502.6902      1.0177122      4455.7805     -144.00295     -4.6924513     -8.1771272e-14 -7.5111159e-14 -144.00295     -3.1376486e-13
    437750   1419.2063      255.73784      1163.4685      311.98089      9896.7119      1.0177122      4455.7805     -152.80716     -4.6924513     -8.1685221e-14 -7.5109833e-14 -152.80716     -3.1359011e-13
    438000   1425.9492      252.9926       1172.9566      308.63191      10723.801      1.0177122      4455.7805     -146.16566     -4.6924513     -8.1701445e-14 -7.5112091e-14 -146.16566     -3.1362707e-13
    438250   1413.8289      253.60568      1160.2233      309.37982      10261.155      1.0177122      4455.7805     -145.00098     -4.6924513     -8.2079121e-14 -7.5111359e-14 -145.00098     -3.1438096e-13
    438500   1414.8395      229.31124      1185.5282      279.74243      6551.7211      1.0177122      4455.7805     -153.7952      -4.6924513     -8.1685408e-14 -7.5112433e-14 -153.7952      -3.1359568e-13
    438750   1390.8058      247.16095      1143.6448      301.51774      5803.7986      1.0177122      4455.7805     -149.70724     -4.6924513     -8.1640143e-14 -7.5112716e-14 -149.70724     -3.1350572e-13
    439000   1415.0821      257.02422      1158.0579      313.55018      9550.8976      1.0177122      4455.7805     -144.4599      -4.6924513     -8.1605678e-14 -7.5109474e-14 -144.4599      -3.134303e-13 
    439250   1393.0529      231.9508       1161.1021      282.9625       5682.0288      1.0177122      4455.7805     -154.49564     -4.6924513     -8.1618208e-14 -7.511312e-14  -154.49564     -3.1346266e-13
    439500   1399.5005      254.43686      1145.0637      310.39379      6824.4172      1.0177122      4455.7805     -150.90911     -4.6924513     -8.1653542e-14 -7.5108239e-14 -150.90911     -3.1352356e-13
    439750   1399.1961      249.15856      1150.0375      303.95467      3374.2808      1.0177122      4455.7805     -147.56894     -4.6924513     -8.1706806e-14 -7.5112814e-14 -147.56894     -3.1363924e-13
    440000   1423.577       262.43255      1161.1444      320.14794      10538.088      1.0177122      4455.7805     -150.41791     -4.6924513     -8.1685469e-14 -7.5108506e-14 -150.41791     -3.1358795e-13
    440250   1373.6358      242.58989      1131.0459      295.94138      6501.9703      1.0177122      4455.7805     -149.58839     -4.6924513     -8.1630634e-14 -7.5111653e-14 -149.58839     -3.1348457e-13
    440500   1396.8254      247.05877      1149.7666      301.39309      8725.1953      1.0177122      4455.7805     -150.40434     -4.6924513     -8.1932614e-14 -7.5109446e-14 -150.40434     -3.1408412e-13
    440750   1406.5082      244.80891      1161.6993      298.64842      2979.9238      1.0177122      4455.7805     -145.34513     -4.6924513     -8.1605123e-14 -7.5110193e-14 -145.34513     -3.1343063e-13
    441000   1414.8203      261.64738      1153.173       319.19008      9789.3745      1.0177122      4455.7805     -153.30828     -4.6924513     -8.1884478e-14 -7.5112548e-14 -153.30828     -3.1399405e-13
    441250   1416.8413      249.05834      1167.7829      303.83241      7878.5366      1.0177122      4455.7805     -160.7519      -4.6924513     -8.1632974e-14 -7.5105724e-14 -160.7519      -3.134774e-13 
    441500   1416.0194      260.41878      1155.6006      317.69128      2828.154       1.0177122      4455.7805     -149.48861     -4.6924513     -8.1954537e-14 -7.510841e-14  -149.48861     -3.141259e-13 
    441750   1403.2885      260.99735      1142.2912      318.3971       11494.484      1.0177122      4455.7805     -148.29406     -4.6924513     -8.1877782e-14 -7.5110031e-14 -148.29406     -3.1397563e-13
    442000   1404.0564      257.04677      1147.0096      313.57768      11784.954      1.0177122      4455.7805     -150.22472     -4.6924513     -8.1939108e-14 -7.5113047e-14 -150.22472     -3.1410431e-13
    442250   1389.6767      238.0893       1151.5874      290.451        6229.1508      1.0177122      4455.7805     -146.9254      -4.6924513     -8.1790342e-14 -7.5110725e-14 -146.9254      -3.1380213e-13
    442500   1389.4319      256.3146       1133.1173      312.6845       6853.2213      1.0177122      4455.7805     -154.66589     -4.6924513     -8.1782884e-14 -7.5111793e-14 -154.66589     -3.1378936e-13
    442750   1437.5068      263.96364      1173.5432      322.01575      12850.883      1.0177122      4455.7805     -153.18042     -4.6924513     -8.1529733e-14 -7.5112706e-14 -153.18042     -3.1328488e-13
    443000   1422.785       260.46221      1162.3228      317.74427      2366.149       1.0177122      4455.7805     -153.74597     -4.6924513     -8.1273368e-14 -7.5112484e-14 -153.74597     -3.127717e-13 
    443250   1376.4707      248.04515      1128.4256      302.59639      4900.6586      1.0177122      4455.7805     -149.16738     -4.6924513     -8.2004873e-14 -7.5107402e-14 -149.16738     -3.1422455e-13
    443500   1442.8805      275.36435      1167.5161      335.92376      13492.145      1.0177122      4455.7805     -157.48507     -4.6924513     -8.1938991e-14 -7.511354e-14  -157.48507     -3.1410506e-13
    443750   1425.3955      259.44217      1165.9533      316.4999       6681.6627      1.0177122      4455.7805     -147.86568     -4.6924513     -8.1670631e-14 -7.511258e-14  -147.86568     -3.1356642e-13
    444000   1399.4872      256.20641      1143.2808      312.55251      6064.9565      1.0177122      4455.7805     -158.69965     -4.6924513     -8.1918071e-14 -7.5110503e-14 -158.69965     -3.1405715e-13
    444250   1409.0498      268.41033      1140.6394      327.44037      6032.8324      1.0177122      4455.7805     -159.88582     -4.6924513     -8.1362657e-14 -7.5110739e-14 -159.88582     -3.1294679e-13
    444500   1411.3167      261.23893      1150.0777      318.6918       3056.5216      1.0177122      4455.7805     -154.89399     -4.6924513     -8.1544534e-14 -7.511088e-14  -154.89399     -3.1331083e-13
    444750   1420.976       253.046        1167.93        308.69705      5889.1742      1.0177122      4455.7805     -150.1638      -4.6924513     -8.1683991e-14 -7.5111589e-14 -150.1638      -3.1359116e-13
    445000   1373.8633      227.1699       1146.6934      277.13016      5617.662       1.0177122      4455.7805     -153.12602     -4.6924513     -8.1406797e-14 -7.5110184e-14 -153.12602     -3.1303396e-13
    445250   1411.4859      263.59464      1147.8913      321.5656       10635.837      1.0177122      4455.7805     -151.69821     -4.6924513     -8.1743656e-14 -7.5111594e-14 -151.69821     -3.137105e-13 
    445500   1404.1606      243.12508      1161.0356      296.59427      8269.7258      1.0177122      4455.7805     -151.19194     -4.6924513     -8.1448871e-14 -7.5109865e-14 -151.19194     -3.1311747e-13
    445750   1419.0033      239.85095      1179.1523      292.60008      3948.4385      1.0177122      4455.7805     -156.7329      -4.6924513     -8.131383e-14  -7.5109619e-14 -156.7329      -3.128469e-13 
    446000   1429.1868      267.40875      1161.7781      326.21852      4476.3268      1.0177122      4455.7805     -148.32997     -4.6924513     -8.1610655e-14 -7.5111482e-14 -148.32997     -3.1344427e-13
    446250   1412.6891      263.64501      1149.0441      321.62704      5395.9329      1.0177122      4455.7805     -152.54548     -4.6924513     -8.1907831e-14 -7.5111244e-14 -152.54548     -3.1403815e-13
    446500   1409.4314      250.48904      1158.9423      305.57776      11283.855      1.0177122      4455.7805     -155.84774     -4.6924513     -8.1828754e-14 -7.5110984e-14 -155.84774     -3.1387948e-13
    446750   1396.6695      231.09376      1165.5757      281.91697      3134.6012      1.0177122      4455.7805     -153.82479     -4.6924513     -8.1763394e-14 -7.5112871e-14 -153.82479     -3.1375253e-13
    447000   1392.6883      248.18575      1144.5025      302.76792      10566.727      1.0177122      4455.7805     -147.10396     -4.6924513     -8.1698102e-14 -7.5108042e-14 -147.10396     -3.1361229e-13
    447250   1408.1572      250.69113      1157.4661      305.82428      8575.7158      1.0177122      4455.7805     -156.35356     -4.6924513     -8.1548341e-14 -7.5112922e-14 -156.35356     -3.1332253e-13
    447500   1399.3472      252.69338      1146.6538      308.26688      6280.1474      1.0177122      4455.7805     -147.1515      -4.6924513     -8.1655934e-14 -7.5109792e-14 -147.1515      -3.1353145e-13
    447750   1387.497       248.25248      1139.2446      302.84932      6308.8629      1.0177122      4455.7805     -155.42959     -4.6924513     -8.1916841e-14 -7.5112542e-14 -155.42959     -3.1405877e-13
    448000   1408.4585      256.45928      1151.9993      312.86099      5680.4211      1.0177122      4455.7805     -156.75094     -4.6924513     -8.1854488e-14 -7.5111948e-14 -156.75094     -3.1393287e-13
    448250   1431.2747      262.97796      1168.2968      320.81329      8016.4503      1.0177122      4455.7805     -146.80985     -4.6924513     -8.162669e-14  -7.5110849e-14 -146.80985     -3.1347508e-13
    448500   1400.5981      258.3521       1142.246       315.1701       11566.009      1.0177122      4455.7805     -154.18317     -4.6924513     -8.1713664e-14 -7.5108885e-14 -154.18317     -3.136451e-13 
    448750   1397.0691      235.87961      1161.1895      287.75534      7574.5761      1.0177122      4455.7805     -155.03116     -4.6924513     -8.1466601e-14 -7.5111112e-14 -155.03116     -3.1315543e-13
    449000   1414.8338      250.83023      1164.0036      305.99398      6828.0984      1.0177122      4455.7805     -149.91652     -4.6924513     -8.1927389e-14 -7.5109422e-14 -149.91652     -3.1407362e-13
    449250   1398.7405      258.61286      1140.1276      315.4882       500.43813      1.0177122      4455.7805     -155.03574     -4.6924513     -8.1605502e-14 -7.5111105e-14 -155.03574     -3.1343321e-13
    449500   1408.2105      245.68927      1162.5213      299.72239      7002.6805      1.0177122      4455.7805     -149.03215     -4.6924513     -8.1647659e-14 -7.510789e-14  -149.03215     -3.135111e-13 
    449750   1359.271       239.51974      1119.7512      292.19603      8816.6111      1.0177122      4455.7805     -153.0446      -4.6924513     -8.1603449e-14 -7.5110258e-14 -153.0446      -3.1342741e-13
    450000   1407.4817      240.29564      1167.1861      293.14258      5557.493       1.0177122      4455.7805     -152.84097     -4.6924513     -8.164441e-14  -7.5106342e-14 -152.84097     -3.1350151e-13
    450250   1385.1751      222.31208      1162.863       271.20398      4871.5148      1.0177122      4455.7805     -155.64356     -4.6924513     -8.1865424e-14 -7.5110904e-14 -155.64356     -3.1395265e-13
    450500   1440.7719      285.97945      1154.7924      348.87338      6267.8256      1.0177122      4455.7805     -149.21645     -4.6924513     -8.1755368e-14 -7.5111726e-14 -149.21645     -3.1373419e-13
    450750   1429.3596      242.44969      1186.9099      295.77036      9867.3901      1.0177122      4455.7805     -144.80265     -4.6924513     -8.188292e-14  -7.5104107e-14 -144.80265     -3.1397405e-13
    451000   1386.7947      236.75533      1150.0394      288.82366      8586.8954      1.0177122      4455.7805     -154.65182     -4.6924513     -8.1821221e-14 -7.5111096e-14 -154.65182     -3.1386463e-13
    451250   1376.6018      226.6234       1149.9784      276.46346      8208.7832      1.0177122      4455.7805     -156.04871     -4.6924513     -8.1976997e-14 -7.5113071e-14 -156.04871     -3.1418014e-13
    451500   1400.8093      249.81119      1150.9981      304.75082      4657.1683      1.0177122      4455.7805     -155.34916     -4.6924513     -8.140778e-14  -7.5110162e-14 -155.34916     -3.1303588e-13
    451750   1403.081       257.14793      1145.933       313.70109      8246.0946      1.0177122      4455.7805     -153.07159     -4.6924513     -8.1837111e-14 -7.5111252e-14 -153.07159     -3.1389673e-13
    452000   1392.3911      237.00869      1155.3824      289.13274      6485.1251      1.0177122      4455.7805     -154.84128     -4.6924513     -8.1709701e-14 -7.5110405e-14 -154.84128     -3.1364021e-13
    452250   1389.8672      248.29404      1141.5732      302.90002      4913.3838      1.0177122      4455.7805     -147.40719     -4.6924513     -8.1683617e-14 -7.5113568e-14 -147.40719     -3.1359437e-13
    452500   1427.0515      253.6167       1173.4348      309.39327      4940.2428      1.0177122      4455.7805     -145.82314     -4.6924513     -8.1707964e-14 -7.5109897e-14 -145.82314     -3.1363572e-13
    452750   1406.8432      242.74928      1164.0939      296.13583      2300.2536      1.0177122      4455.7805     -154.48074     -4.6924513     -8.1794425e-14 -7.5112151e-14 -154.48074     -3.1381315e-13
    453000   1401.7109      252.55051      1149.1604      308.09259      8453.906       1.0177122      4455.7805     -150.77195     -4.6924513     -8.1780467e-14 -7.5109732e-14 -150.77195     -3.137804e-13 
    453250   1394.2848      253.506        1140.7788      309.25822      9691.3602      1.0177122      4455.7805     -153.42314     -4.6924513     -8.1898396e-14 -7.5111562e-14 -153.42314     -3.1401991e-13
    453500   1406.0677      248.25338      1157.8143      302.85041      6177.2087      1.0177122      4455.7805     -143.09045     -4.6924513     -8.171823e-14  -7.5112639e-14 -143.09045     -3.1366174e-13
    453750   1412.528       232.1011       1180.4269      283.14586      8727.6405      1.0177122      4455.7805     -149.22093     -4.6924513     -8.1659291e-14 -7.511149e-14  -149.22093     -3.1354156e-13
    454000   1404.5034      265.40614      1139.0973      323.77548      9719.7433      1.0177122      4455.7805     -156.19241     -4.6924513     -8.1716466e-14 -7.5110488e-14 -156.19241     -3.1365391e-13
    454250   1393.0737      245.72579      1147.3479      299.76695      3179.6159      1.0177122      4455.7805     -151.14652     -4.6924513     -8.1821094e-14 -7.5112364e-14 -151.14652     -3.1386692e-13
    454500   1413.2502      266.69286      1146.5574      325.3452       9695.6128      1.0177122      4455.7805     -153.49551     -4.6924513     -8.1749239e-14 -7.5110966e-14 -153.49551     -3.1372041e-13
    454750   1388.5401      253.35967      1135.1804      309.07971      6564.2289      1.0177122      4455.7805     -152.19614     -4.6924513     -8.179649e-14  -7.5113595e-14 -152.19614     -3.1382017e-13
    455000   1434.5914      268.23147      1166.3599      327.22218      12727.838      1.0177122      4455.7805     -158.56523     -4.6924513     -8.1735939e-14 -7.5111867e-14 -158.56523     -3.1369561e-13
    455250   1413.9543      246.08648      1167.8679      300.20696      9182.7577      1.0177122      4455.7805     -141.37644     -4.6924513     -8.1720283e-14 -7.5111302e-14 -141.37644     -3.1366317e-13
    455500   1399.4978      238.67554      1160.8222      291.16618      8155.6177      1.0177122      4455.7805     -154.58228     -4.6924513     -8.1694011e-14 -7.5112498e-14 -154.58228     -3.1361302e-13
    455750   1427.0281      253.05785      1173.9703      308.7115       6501.3748      1.0177122      4455.7805     -156.0435      -4.6924513     -8.157677e-14  -7.510966e-14  -156.0435      -3.1337286e-13
    456000   1399.646       257.90586      1141.7401      314.62571      9414.1188      1.0177122      4455.7805     -154.20202     -4.6924513     -8.1648669e-14 -7.5112235e-14 -154.20202     -3.1352181e-13
    456250   1400.4871      244.88931      1155.5978      298.7465       4625.4733      1.0177122      4455.7805     -154.42614     -4.6924513     -8.1673917e-14 -7.5111811e-14 -154.42614     -3.1357146e-13
    456500   1377.6538      228.44357      1149.2102      278.68394      2292.1316      1.0177122      4455.7805     -156.17706     -4.6924513     -8.1618882e-14 -7.5110933e-14 -156.17706     -3.1345963e-13
    456750   1404.9526      249.58565      1155.367       304.47569      6445.0393      1.0177122      4455.7805     -148.11345     -4.6924513     -8.1745545e-14 -7.5113539e-14 -148.11345     -3.1371817e-13
    457000   1410.2556      252.22594      1158.0297      307.69664      4963.0061      1.0177122      4455.7805     -150.31496     -4.6924513     -8.1692368e-14 -7.5109044e-14 -150.31496     -3.1360282e-13
    457250   1397.1602      248.2547       1148.9055      302.85203      7669.0416      1.0177122      4455.7805     -153.43271     -4.6924513     -8.1700983e-14 -7.5111851e-14 -153.43271     -3.1362567e-13
    457500   1401.7592      262.8838       1138.8754      320.69843      5900.7161      1.0177122      4455.7805     -155.54097     -4.6924513     -8.1708814e-14 -7.5108332e-14 -155.54097     -3.1363429e-13
    457750   1407.5479      255.66722      1151.8807      311.89475      7690.4994      1.0177122      4455.7805     -154.02293     -4.6924513     -8.1871525e-14 -7.5109604e-14 -154.02293     -3.1396226e-13
    458000   1411.389       264.29541      1147.0936      322.42048      7379.6373      1.0177122      4455.7805     -155.30265     -4.6924513     -8.1478401e-14 -7.5110787e-14 -155.30265     -3.1317838e-13
    458250   1428.8949      288.94877      1139.9461      352.49573      8109.1743      1.0177122      4455.7805     -152.75111     -4.6924513     -8.1528016e-14 -7.5107843e-14 -152.75111     -3.1327172e-13
    458500   1400.6947      253.78576      1146.909       309.5995       7105.3359      1.0177122      4455.7805     -146.6134      -4.6924513     -8.1729833e-14 -7.5109541e-14 -146.6134      -3.1367875e-13
    458750   1384.1049      238.46587      1145.6391      290.91039      3675.1213      1.0177122      4455.7805     -146.59491     -4.6924513     -8.1547129e-14 -7.5110804e-14 -146.59491     -3.1331587e-13
    459000   1393.1313      244.71082      1148.4205      298.52877      6514.4367      1.0177122      4455.7805     -154.20603     -4.6924513     -8.1626646e-14 -7.5111021e-14 -154.20603     -3.1347533e-13
    459250   1371.2048      248.78201      1122.4228      303.4953       8691.0252      1.0177122      4455.7805     -158.07616     -4.6924513     -8.1774089e-14 -7.5113189e-14 -158.07616     -3.1377456e-13
    459500   1417.7761      256.59207      1161.1841      313.02299      8902.5517      1.0177122      4455.7805     -153.17281     -4.6924513     -8.1586607e-14 -7.5111339e-14 -153.17281     -3.1339589e-13
    459750   1397.2949      244.96757      1152.3273      298.84198      3145.7762      1.0177122      4455.7805     -148.60713     -4.6924513     -8.1722599e-14 -7.5112671e-14 -148.60713     -3.1367054e-13
    460000   1427.2319      253.96416      1173.2678      309.81714      6506.7952      1.0177122      4455.7805     -150.17868     -4.6924513     -8.1716039e-14 -7.5108165e-14 -150.17868     -3.1364841e-13
    460250   1423.9225      250.88908      1173.0334      306.06577      8763.5447      1.0177122      4455.7805     -146.29624     -4.6924513     -8.1888665e-14 -7.5109537e-14 -146.29624     -3.1399641e-13
    460500   1398.7357      237.68766      1161.048       289.96103      14185.087      1.0177122      4455.7805     -156.29913     -4.6924513     -8.1714549e-14 -7.5109427e-14 -156.29913     -3.1364795e-13
    460750   1431.2492      278.44992      1152.7993      339.68792      9711.6721      1.0177122      4455.7805     -141.07358     -4.6924513     -8.1755705e-14 -7.511086e-14  -141.07358     -3.1373313e-13
    461000   1380.3046      243.3449       1136.9597      296.86245      3745.2732      1.0177122      4455.7805     -152.18874     -4.6924513     -8.1256499e-14 -7.5111469e-14 -152.18874     -3.1273594e-13
    461250   1399.2554      254.76467      1144.4907      310.7937       8084.7007      1.0177122      4455.7805     -147.84476     -4.6924513     -8.1812147e-14 -7.5109021e-14 -147.84476     -3.1384234e-13
    461500   1410.3001      247.63287      1162.6672      302.09344      6995.5488      1.0177122      4455.7805     -148.33391     -4.6924513     -8.1405131e-14 -7.5111644e-14 -148.33391     -3.1303355e-13
    461750   1390.2388      260.0924       1130.1464      317.29313      12096.236      1.0177122      4455.7805     -153.11271     -4.6924513     -8.2090276e-14 -7.5111878e-14 -153.11271     -3.1440431e-13
    462000   1414.6621      253.66454      1160.9975      309.45162      11517.571      1.0177122      4455.7805     -153.6605      -4.6924513     -8.1573008e-14 -7.5110603e-14 -153.6605      -3.1336722e-13
    462250   1413.6647      245.53868      1168.126       299.53869      8640.409       1.0177122      4455.7805     -149.05693     -4.6924513     -8.1937745e-14 -7.5110429e-14 -149.05693     -3.1409635e-13
    462500   1416.294       262.80538      1153.4886      320.60275      11784.241      1.0177122      4455.7805     -155.85049     -4.6924513     -8.1715344e-14 -7.5108806e-14 -155.85049     -3.136483e-13 
    462750   1426.8462      269.31654      1157.5296      328.54589      7310.9265      1.0177122      4455.7805     -157.29997     -4.6924513     -8.1745761e-14 -7.5113088e-14 -157.29997     -3.137177e-13 
    463000   1429.5607      270.22903      1159.3317      329.65905      8075.5478      1.0177122      4455.7805     -150.16825     -4.6924513     -8.1723319e-14 -7.5112726e-14 -150.16825     -3.1367209e-13
    463250   1416.8416      267.20707      1149.6346      325.97249      8514.5287      1.0177122      4455.7805     -148.68936     -4.6924513     -8.1958109e-14 -7.5111827e-14 -148.68936     -3.1413987e-13
    463500   1423.2423      272.59522      1150.647       332.54563      7933.7849      1.0177122      4455.7805     -156.69463     -4.6924513     -8.1889746e-14 -7.5113226e-14 -156.69463     -3.1400594e-13
    463750   1405.5378      232.39888      1173.139       283.50912      10531.82       1.0177122      4455.7805     -148.35055     -4.6924513     -8.1968742e-14 -7.5108351e-14 -148.35055     -3.1415419e-13
    464000   1412.0379      268.50229      1143.5356      327.55256      7495.6415      1.0177122      4455.7805     -145.39082     -4.6924513     -8.1797483e-14 -7.5111606e-14 -145.39082     -3.1381818e-13
    464250   1408.8409      246.06562      1162.7753      300.18151      8086.0943      1.0177122      4455.7805     -152.40091     -4.6924513     -8.1765875e-14 -7.5110126e-14 -152.40091     -3.13752e-13  
    464500   1416.7335      255.28399      1161.4495      311.42723      6885.5978      1.0177122      4455.7805     -157.86682     -4.6924513     -8.1707788e-14 -7.5111845e-14 -157.86682     -3.1363927e-13
    464750   1424.0291      264.11135      1159.9178      322.19595      4420.8942      1.0177122      4455.7805     -154.16481     -4.6924513     -8.1580989e-14 -7.5108968e-14 -154.16481     -3.1337991e-13
    465000   1402.2877      252.19657      1150.0912      307.66081      5430.1606      1.0177122      4455.7805     -153.3095      -4.6924513     -8.1511031e-14 -7.5112172e-14 -153.3095      -3.1324641e-13
    465250   1427.6448      258.04265      1169.6021      314.79259      5040.221       1.0177122      4455.7805     -156.63327     -4.6924513     -8.169031e-14  -7.5110319e-14 -156.63327     -3.1360126e-13
    465500   1366.4418      216.4647       1149.9771      264.07063      3167.5407      1.0177122      4455.7805     -149.49937     -4.6924513     -8.1964435e-14 -7.5111067e-14 -149.49937     -3.14151e-13  
    465750   1414.8948      257.14239      1157.7524      313.69434      7690.4371      1.0177122      4455.7805     -148.91231     -4.6924513     -8.1589713e-14 -7.5108664e-14 -148.91231     -3.1339676e-13
    466000   1394.2564      235.96188      1158.2945      287.85572      7336.7963      1.0177122      4455.7805     -152.66734     -4.6924513     -8.1883873e-14 -7.5111653e-14 -152.66734     -3.1399105e-13
    466250   1421.0403      250.18836      1170.8519      305.21095      6079.9082      1.0177122      4455.7805     -152.21982     -4.6924513     -8.1528786e-14 -7.5111657e-14 -152.21982     -3.1328089e-13
    466500   1425.8024      264.55209      1161.2503      322.73361      7599.0145      1.0177122      4455.7805     -155.89934     -4.6924513     -8.1560361e-14 -7.5109891e-14 -155.89934     -3.133405e-13 
    466750   1390.3972      233.39497      1157.0022      284.72428      8408.487       1.0177122      4455.7805     -151.78348     -4.6924513     -8.1826525e-14 -7.5111959e-14 -151.78348     -3.1387697e-13
    467000   1420.7883      278.82146      1141.9669      340.14117      3675.3727      1.0177122      4455.7805     -158.20418     -4.6924513     -8.1452571e-14 -7.510901e-14  -158.20418     -3.1312316e-13
    467250   1407.9054      270.50646      1137.399       329.99749      7307.4925      1.0177122      4455.7805     -148.90903     -4.6924513     -8.1790107e-14 -7.5111985e-14 -148.90903     -3.1380418e-13
    467500   1399.6504      241.31976      1158.3307      294.39192      1922.0584      1.0177122      4455.7805     -152.59061     -4.6924513     -8.1973698e-14 -7.5111703e-14 -152.59061     -3.141708e-13 
    467750   1425.1927      258.9749       1166.2178      315.92986      7965.0923      1.0177122      4455.7805     -155.36635     -4.6924513     -8.16726e-14   -7.5108593e-14 -155.36635     -3.1356239e-13
    468000   1418.2751      269.81898      1148.4562      329.15883      7093.5361      1.0177122      4455.7805     -159.56976     -4.6924513     -8.1533476e-14 -7.5110095e-14 -159.56976     -3.1328714e-13
    468250   1400.347       254.62782      1145.7192      310.62675      10515.177      1.0177122      4455.7805     -151.48859     -4.6924513     -8.1514091e-14 -7.5112135e-14 -151.48859     -3.1325245e-13
    468500   1393.9965      236.15968      1157.8368      288.09701      3054.3411      1.0177122      4455.7805     -145.27367     -4.6924513     -8.1782513e-14 -7.5110464e-14 -145.27367     -3.1378595e-13
    468750   1368.4659      232.05303      1136.4128      283.08721      5766.2223      1.0177122      4455.7805     -154.20131     -4.6924513     -8.1464137e-14 -7.511195e-14  -154.20131     -3.1315217e-13
    469000   1386.3835      249.69299      1136.6905      304.60663      9993.648       1.0177122      4455.7805     -147.88442     -4.6924513     -8.1454567e-14 -7.5111329e-14 -147.88442     -3.1313179e-13
    469250   1405.894       243.37457      1162.5194      296.89864      5838.4828      1.0177122      4455.7805     -150.31178     -4.6924513     -8.1633941e-14 -7.5109513e-14 -150.31178     -3.1348691e-13
    469500   1398.121       252.33574      1145.7853      307.83058      8014.3997      1.0177122      4455.7805     -156.06024     -4.6924513     -8.1905916e-14 -7.5111913e-14 -156.06024     -3.1403566e-13
    469750   1400.092       251.71085      1148.3811      307.06827      4409.3883      1.0177122      4455.7805     -149.76182     -4.6924513     -8.1648037e-14 -7.5109319e-14 -149.76182     -3.1351471e-13
    470000   1416.815       257.62354      1159.1914      314.28131      8324.8606      1.0177122      4455.7805     -147.68981     -4.6924513     -8.1651536e-14 -7.5110516e-14 -147.68981     -3.135241e-13 
    470250   1373.028       227.70026      1145.3278      277.77716      5521.1997      1.0177122      4455.7805     -148.51214     -4.6924513     -8.1647267e-14 -7.5112414e-14 -148.51214     -3.1351936e-13
    470500   1384.6952      237.79789      1146.8973      290.09551      6036.732       1.0177122      4455.7805     -157.04569     -4.6924513     -8.1636526e-14 -7.5112193e-14 -157.04569     -3.1349744e-13
    470750   1381.393       242.70066      1138.6924      296.07651      7184.6921      1.0177122      4455.7805     -151.75479     -4.6924513     -8.1838128e-14 -7.5110928e-14 -151.75479     -3.1389811e-13
    471000   1452.7502      277.2675       1175.4827      338.24545      4069.2462      1.0177122      4455.7805     -148.31338     -4.6924513     -8.1762207e-14 -7.5111058e-14 -148.31338     -3.1374653e-13
    471250   1386.7819      235.78572      1150.9962      287.6408       5070.4018      1.0177122      4455.7805     -155.946       -4.6924513     -8.1466022e-14 -7.5108479e-14 -155.946       -3.13149e-13  
    471500   1418.3032      255.63461      1162.6686      311.85496      4027.2024      1.0177122      4455.7805     -153.49743     -4.6924513     -8.1662238e-14 -7.5111752e-14 -153.49743     -3.1354798e-13
    471750   1430.4828      257.42904      1173.0538      314.04403      8576.3659      1.0177122      4455.7805     -151.81272     -4.6924513     -8.1411243e-14 -7.5110316e-14 -151.81272     -3.1304312e-13
    472000   1401.1559      239.80061      1161.3552      292.53867      4911.0476      1.0177122      4455.7805     -156.66772     -4.6924513     -8.1495776e-14 -7.5113204e-14 -156.66772     -3.1321796e-13
    472250   1411.3895      256.91519      1154.4744      313.41717      4581.1887      1.0177122      4455.7805     -154.74902     -4.6924513     -8.1875811e-14 -7.511364e-14  -154.74902     -3.139789e-13 
    472500   1435.8574      261.69777      1174.1597      319.25155      8681.5853      1.0177122      4455.7805     -144.85234     -4.6924513     -8.1917489e-14 -7.5113186e-14 -144.85234     -3.1406135e-13
    472750   1421.6819      268.73194      1152.95        327.83272      4883.3117      1.0177122      4455.7805     -151.58857     -4.6924513     -8.2077888e-14 -7.5109829e-14 -151.58857     -3.1437543e-13
    473000   1397.9638      242.58238      1155.3814      295.93222      6794.8314      1.0177122      4455.7805     -153.53745     -4.6924513     -8.1607919e-14 -7.5111645e-14 -153.53745     -3.1343913e-13
    473250   1389.7362      237.50063      1152.2355      289.73287      8895.1264      1.0177122      4455.7805     -151.1078      -4.6924513     -8.1935079e-14 -7.5107725e-14 -151.1078      -3.1408561e-13
    473500   1411.9371      273.33185      1138.6052      333.44426      7192.7969      1.0177122      4455.7805     -142.0894      -4.6924513     -8.1510109e-14 -7.5111116e-14 -142.0894      -3.1324245e-13
    473750   1439.8483      279.15084      1160.6974      340.54299      7754.0006      1.0177122      4455.7805     -149.28426     -4.6924513     -8.1471727e-14 -7.5111782e-14 -149.28426     -3.1316702e-13
    474000   1417.5325      249.78006      1167.7524      304.71285      6206.853       1.0177122      4455.7805     -158.45378     -4.6924513     -8.1427458e-14 -7.5110253e-14 -158.45378     -3.1307542e-13
    474250   1413.6968      251.12698      1162.5699      306.35599      8599.1936      1.0177122      4455.7805     -144.72599     -4.6924513     -8.1654435e-14 -7.5110988e-14 -144.72599     -3.1353085e-13
    474500   1407.2649      257.43409      1149.8308      314.0502       6750.5785      1.0177122      4455.7805     -147.04565     -4.6924513     -8.2055093e-14 -7.5106332e-14 -147.04565     -3.1432285e-13
    474750   1377.2096      233.35191      1143.8577      284.67174      7811.5575      1.0177122      4455.7805     -159.56392     -4.6924513     -8.1795717e-14 -7.5110921e-14 -159.56392     -3.1381328e-13
    475000   1399.504       257.45726      1142.0468      314.07846      10070.726      1.0177122      4455.7805     -151.58401     -4.6924513     -8.1483093e-14 -7.5110176e-14 -151.58401     -3.1318654e-13
    475250   1403.355       249.36953      1153.9854      304.21204      5207.6766      1.0177122      4455.7805     -153.03963     -4.6924513     -8.179318e-14  -7.5107915e-14 -153.03963     -3.1380219e-13
    475500   1418.3367      257.09025      1161.2464      313.63073      6817.9367      1.0177122      4455.7805     -157.45567     -4.6924513     -8.1790677e-14 -7.5110567e-14 -157.45567     -3.1380249e-13
    475750   1386.4469      235.52429      1150.9226      287.32189      1955.9285      1.0177122      4455.7805     -158.60054     -4.6924513     -8.1378769e-14 -7.5112298e-14 -158.60054     -3.1298213e-13
    476000   1412.5254      262.90746      1149.6179      320.72729      5589.1929      1.0177122      4455.7805     -154.11855     -4.6924513     -8.1632147e-14 -7.5112038e-14 -154.11855     -3.1348837e-13
    476250   1431.6659      262.35104      1169.3149      320.0485       2298.3701      1.0177122      4455.7805     -147.66651     -4.6924513     -8.1850741e-14 -7.5109049e-14 -147.66651     -3.1391958e-13
    476500   1398.8008      237.44179      1161.3591      289.66109      795.33618      1.0177122      4455.7805     -153.07574     -4.6924513     -8.1795055e-14 -7.5110822e-14 -153.07574     -3.1381175e-13
    476750   1425.3097      257.77181      1167.5379      314.46219      10424.743      1.0177122      4455.7805     -148.59079     -4.6924513     -8.1951907e-14 -7.5112271e-14 -148.59079     -3.1412835e-13
    477000   1381.6866      238.94697      1142.7396      291.4973       7362.4292      1.0177122      4455.7805     -151.26766     -4.6924513     -8.1413266e-14 -7.5107851e-14 -151.26766     -3.1304223e-13
    477250   1392.2547      231.87701      1160.3777      282.87248      1359.0346      1.0177122      4455.7805     -141.57916     -4.6924513     -8.1510243e-14 -7.51115e-14   -141.57916     -3.1324349e-13
    477500   1379.8695      234.64863      1145.2209      286.25364      8602.9452      1.0177122      4455.7805     -156.11858     -4.6924513     -8.1554411e-14 -7.511266e-14  -156.11858     -3.1333414e-13
    477750   1398.4101      243.26979      1155.1403      296.77081      11955.917      1.0177122      4455.7805     -149.88382     -4.6924513     -8.1764897e-14 -7.5112283e-14 -149.88382     -3.1375436e-13
    478000   1433.1271      270.99708      1162.13        330.59601      10905.882      1.0177122      4455.7805     -146.66015     -4.6924513     -8.1586959e-14 -7.5108925e-14 -146.66015     -3.1339177e-13
    478250   1403.9678      258.00647      1145.9613      314.74846      7154.2034      1.0177122      4455.7805     -153.39447     -4.6924513     -8.1629595e-14 -7.5109621e-14 -153.39447     -3.1347843e-13
    478500   1421.3902      260.62601      1160.7642      317.94409      9126.1798      1.0177122      4455.7805     -153.06803     -4.6924513     -8.1716983e-14 -7.5113772e-14 -153.06803     -3.1366151e-13
    478750   1388.6675      242.5857       1146.0818      295.93627      8200.4765      1.0177122      4455.7805     -147.65787     -4.6924513     -8.1625968e-14 -7.510727e-14  -147.65787     -3.1346648e-13
    479000   1433.7173      282.25857      1151.4587      344.33419      6945.2975      1.0177122      4455.7805     -156.85376     -4.6924513     -8.1474551e-14 -7.5108847e-14 -156.85376     -3.131668e-13 
    479250   1405.7621      250.75122      1155.0109      305.89759      9455.5116      1.0177122      4455.7805     -150.0582      -4.6924513     -8.1878665e-14 -7.5113895e-14 -150.0582      -3.1398512e-13
    479500   1395.4502      231.05482      1164.3954      281.86947      7564.7555      1.0177122      4455.7805     -148.80209     -4.6924513     -8.204146e-14  -7.5110963e-14 -148.80209     -3.1430485e-13
    479750   1437.9933      276.82698      1161.1663      337.70805      1158.7652      1.0177122      4455.7805     -150.01419     -4.6924513     -8.1572878e-14 -7.5111783e-14 -150.01419     -3.1336932e-13
    480000   1397.1554      237.5797       1159.5757      289.82933      10867.287      1.0177122      4455.7805     -151.13653     -4.6924513     -8.1709917e-14 -7.511037e-14  -151.13653     -3.1364057e-13
    480250   1441.8533      261.06955      1180.7837      318.48518      5987.4872      1.0177122      4455.7805     -158.94953     -4.6924513     -8.1622108e-14 -7.5112942e-14 -158.94953     -3.134701e-13 
    480500   1386.68        247.90473      1138.7753      302.42509      7558.8283      1.0177122      4455.7805     -146.76929     -4.6924513     -8.1832813e-14 -7.5110617e-14 -146.76929     -3.1388686e-13
    480750   1402.7553      241.64308      1161.1122      294.78635      109.45523      1.0177122      4455.7805     -152.50724     -4.6924513     -8.1733672e-14 -7.5110112e-14 -152.50724     -3.1368757e-13
    481000   1393.8096      244.7969       1149.0127      298.63377      7049.7392      1.0177122      4455.7805     -153.32364     -4.6924513     -8.1483046e-14 -7.5111241e-14 -153.32364     -3.1318857e-13
    481250   1382.5939      228.93958      1153.6543      279.28903      5600.9209      1.0177122      4455.7805     -143.41257     -4.6924513     -8.1732128e-14 -7.5108794e-14 -143.41257     -3.1368184e-13
    481500   1405.6701      261.51744      1144.1526      319.03157      8834.5573      1.0177122      4455.7805     -151.49593     -4.6924513     -8.1767154e-14 -7.5113543e-14 -151.49593     -3.137614e-13 
    481750   1435.2696      273.52306      1161.7466      333.67752      6413.9209      1.0177122      4455.7805     -148.10853     -4.6924513     -8.1599938e-14 -7.5111694e-14 -148.10853     -3.1342326e-13
    482000   1409.5023      242.10287      1167.3995      295.34726      5805.7637      1.0177122      4455.7805     -155.51934     -4.6924513     -8.1458842e-14 -7.5111865e-14 -155.51934     -3.1314141e-13
    482250   1424.742       245.72124      1179.0208      299.7614       4027.3099      1.0177122      4455.7805     -151.00496     -4.6924513     -8.1605256e-14 -7.5109544e-14 -151.00496     -3.134296e-13 
    482500   1429.1121      248.55511      1180.5569      303.21851      4664.002       1.0177122      4455.7805     -149.59762     -4.6924513     -8.1662911e-14 -7.5110825e-14 -149.59762     -3.1354747e-13
    482750   1378.2484      221.75586      1156.4925      270.52543      4265.0025      1.0177122      4455.7805     -143.87371     -4.6924513     -8.1806477e-14 -7.5112012e-14 -143.87371     -3.1383698e-13
    483000   1416.3732      268.8627       1147.5105      327.99224      7596.0233      1.0177122      4455.7805     -142.42807     -4.6924513     -8.1912864e-14 -7.5108164e-14 -142.42807     -3.1404205e-13
    483250   1429.6647      279.29712      1150.3676      340.72143      1935.9463      1.0177122      4455.7805     -144.42031     -4.6924513     -8.1727474e-14 -7.5111411e-14 -144.42031     -3.1367777e-13
    483500   1400.9759      251.00027      1149.9756      306.20141      8505.4206      1.0177122      4455.7805     -149.03746     -4.6924513     -8.1664139e-14 -7.511118e-14  -149.03746     -3.1355064e-13
    483750   1406.5362      240.14693      1166.3893      292.96116      12622.688      1.0177122      4455.7805     -150.53365     -4.6924513     -8.186067e-14  -7.5111932e-14 -150.53365     -3.139452e-13 
    484000   1426.4378      266.40237      1160.0354      324.99081      6567.9472      1.0177122      4455.7805     -152.15155     -4.6924513     -8.1352682e-14 -7.5111018e-14 -152.15155     -3.129274e-13 
    484250   1384.0647      235.57967      1148.4851      287.38945      4400.261       1.0177122      4455.7805     -149.87209     -4.6924513     -8.1779451e-14 -7.5111604e-14 -149.87209     -3.1378211e-13
    484500   1413.9327      252.52987      1161.4028      308.06741      6341.1654      1.0177122      4455.7805     -151.70904     -4.6924513     -8.1655873e-14 -7.5112118e-14 -151.70904     -3.1353598e-13
    484750   1421.3935      250.04143      1171.352       305.0317       5043.8983      1.0177122      4455.7805     -151.36643     -4.6924513     -8.1639688e-14 -7.5111475e-14 -151.36643     -3.1350233e-13
    485000   1418.7075      261.27709      1157.4305      318.73837      5231.6217      1.0177122      4455.7805     -155.96199     -4.6924513     -8.1485127e-14 -7.5109226e-14 -155.96199     -3.131887e-13 
    485250   1409.2217      249.58604      1159.6356      304.47616      7843.5985      1.0177122      4455.7805     -151.37023     -4.6924513     -8.173312e-14  -7.510894e-14  -151.37023     -3.1368412e-13
    485500   1367.7871      231.42544      1136.3617      282.32159      5627.5788      1.0177122      4455.7805     -152.72103     -4.6924513     -8.1595952e-14 -7.5110633e-14 -152.72103     -3.1341317e-13
    485750   1370.948       222.20519      1148.7428      271.07358      6444.8956      1.0177122      4455.7805     -154.3922      -4.6924513     -8.1754972e-14 -7.5107325e-14 -154.3922      -3.1372459e-13
    486000   1421.1385      272.45349      1148.685       332.37272      4083.6045      1.0177122      4455.7805     -143.82461     -4.6924513     -8.1789487e-14 -7.5111869e-14 -143.82461     -3.1380271e-13
    486250   1387.158       234.14132      1153.0167      285.63477      8176.696       1.0177122      4455.7805     -154.30432     -4.6924513     -8.1673789e-14 -7.5110381e-14 -154.30432     -3.1356834e-13
    486500   1425.4709      258.57265      1166.8983      315.43915      7479.794       1.0177122      4455.7805     -156.02411     -4.6924513     -8.1566202e-14 -7.5108636e-14 -156.02411     -3.1334968e-13
    486750   1428.4572      265.01925      1163.438       323.30351      1547.6398      1.0177122      4455.7805     -158.63878     -4.6924513     -8.1409046e-14 -7.5113265e-14 -158.63878     -3.1304462e-13
    487000   1414.9634      257.01491      1157.9485      313.53882      6879.4563      1.0177122      4455.7805     -150.97557     -4.6924513     -8.1748071e-14 -7.511168e-14  -150.97557     -3.137195e-13 
    487250   1433.6825      260.376        1173.3065      317.6391       4524.297       1.0177122      4455.7805     -148.64254     -4.6924513     -8.1605157e-14 -7.5110604e-14 -148.64254     -3.1343152e-13
    487500   1430.5874      267.45225      1163.1352      326.27159      6563.7364      1.0177122      4455.7805     -153.57119     -4.6924513     -8.14454e-14   -7.5107181e-14 -153.57119     -3.1310516e-13
    487750   1416.878       264.69759      1152.1804      322.91111      389.88743      1.0177122      4455.7805     -157.15478     -4.6924513     -8.1755806e-14 -7.5108396e-14 -157.15478     -3.137284e-13 
    488000   1432.2258      274.68626      1157.5395      335.09654      4119.7622      1.0177122      4455.7805     -150.43583     -4.6924513     -8.1802277e-14 -7.5108985e-14 -150.43583     -3.1382252e-13
    488250   1398.9236      247.97343      1150.9502      302.50889      5713.9832      1.0177122      4455.7805     -154.59002     -4.6924513     -8.155634e-14  -7.5109976e-14 -154.59002     -3.1333263e-13
    488500   1415.1729      238.1242       1177.0487      290.49358      5246.2942      1.0177122      4455.7805     -155.49278     -4.6924513     -8.1752119e-14 -7.5112124e-14 -155.49278     -3.1372849e-13
    488750   1403.6514      249.21106      1154.4404      304.01871      7248.4227      1.0177122      4455.7805     -148.86643     -4.6924513     -8.1688005e-14 -7.5110971e-14 -148.86643     -3.1359795e-13
    489000   1403.5255      257.32405      1146.2014      313.91595      11555.559      1.0177122      4455.7805     -152.6174      -4.6924513     -8.1844257e-14 -7.5112776e-14 -152.6174      -3.1391406e-13
    489250   1394.0826      243.98236      1150.1003      297.6401       9977.9388      1.0177122      4455.7805     -159.54094     -4.6924513     -8.164224e-14  -7.5112985e-14 -159.54094     -3.1351045e-13
    489500   1407.8683      252.72243      1155.1459      308.30232      7068.5184      1.0177122      4455.7805     -148.59945     -4.6924513     -8.1852397e-14 -7.5110446e-14 -148.59945     -3.1392568e-13
    489750   1404.609       250.21539      1154.3936      305.24392      6758.4737      1.0177122      4455.7805     -158.62103     -4.6924513     -8.1873893e-14 -7.5111288e-14 -158.62103     -3.1397036e-13
    490000   1401.855       246.67475      1155.1803      300.9246       9329.2489      1.0177122      4455.7805     -149.59149     -4.6924513     -8.1977381e-14 -7.5112997e-14 -149.59149     -3.1418076e-13
    490250   1433.783       267.38772      1166.3952      326.19286      8011.512       1.0177122      4455.7805     -150.35046     -4.6924513     -8.1928921e-14 -7.51105e-14   -150.35046     -3.1407884e-13
    490500   1387.262       229.22258      1158.0394      279.63427      9226.8456      1.0177122      4455.7805     -145.68494     -4.6924513     -8.1784985e-14 -7.5109703e-14 -145.68494     -3.1378938e-13
    490750   1403.499       248.89609      1154.6029      303.63447      9725.9996      1.0177122      4455.7805     -155.29109     -4.6924513     -8.1439345e-14 -7.5112318e-14 -155.29109     -3.1310333e-13
    491000   1392.9155      247.84092      1145.0746      302.34725      6834.123       1.0177122      4455.7805     -145.7029      -4.6924513     -8.1672902e-14 -7.5111308e-14 -145.7029      -3.1356842e-13
    491250   1406.5399      249.03015      1157.5097      303.79802      9517.9352      1.0177122      4455.7805     -151.01861     -4.6924513     -8.1478256e-14 -7.5109203e-14 -151.01861     -3.1317492e-13
    491500   1413.9614      246.56265      1167.3987      300.78785      4238.4796      1.0177122      4455.7805     -151.61224     -4.6924513     -8.174333e-14  -7.5108586e-14 -151.61224     -3.1370383e-13
    491750   1397.0159      228.22011      1168.7958      278.41134      12237.752      1.0177122      4455.7805     -151.76874     -4.6924513     -8.1754282e-14 -7.511022e-14  -151.76874     -3.13729e-13  
    492000   1377.6166      247.96218      1129.6545      302.49518      5287.0905      1.0177122      4455.7805     -153.29325     -4.6924513     -8.1562217e-14 -7.5113059e-14 -153.29325     -3.1335055e-13
    492250   1408.9027      260.71103      1148.1916      318.04781      9903.0387      1.0177122      4455.7805     -150.0618      -4.6924513     -8.1702536e-14 -7.5111913e-14 -150.0618      -3.136289e-13 
    492500   1411.8621      253.49374      1158.3683      309.24326      7394.5074      1.0177122      4455.7805     -148.3933      -4.6924513     -8.178343e-14  -7.5107627e-14 -148.3933      -3.1378211e-13
    492750   1424.168       257.63265      1166.5354      314.29242      11107.127      1.0177122      4455.7805     -154.20241     -4.6924513     -8.2010226e-14 -7.5112727e-14 -154.20241     -3.1424591e-13
    493000   1432.443       264.6747       1167.7683      322.88318      8954.5596      1.0177122      4455.7805     -153.047       -4.6924513     -8.1692483e-14 -7.5110268e-14 -153.047       -3.136055e-13 
    493250   1394.6529      245.22348      1149.4294      299.15417      6520.2608      1.0177122      4455.7805     -148.63071     -4.6924513     -8.1693382e-14 -7.5111431e-14 -148.63071     -3.1360963e-13
    493500   1419.1016      248.23344      1170.8682      302.82609      8146.7357      1.0177122      4455.7805     -152.02265     -4.6924513     -8.147073e-14  -7.5110961e-14 -152.02265     -3.1316338e-13
    493750   1390.0226      248.33474      1141.6878      302.94967      7951.1986      1.0177122      4455.7805     -159.16085     -4.6924513     -8.1634565e-14 -7.511274e-14  -159.16085     -3.1349461e-13
    494000   1400.3565      250.70535      1149.6512      305.84163      2952.7576      1.0177122      4455.7805     -155.72674     -4.6924513     -8.177078e-14  -7.5110947e-14 -155.72674     -3.1376345e-13
    494250   1437.6563      272.62274      1165.0335      332.5792       8605.6816      1.0177122      4455.7805     -147.2508      -4.6924513     -8.1757668e-14 -7.5111101e-14 -147.2508      -3.1373754e-13
    494500   1358.4491      227.23491      1131.2142      277.20947      7035.4964      1.0177122      4455.7805     -154.21895     -4.6924513     -8.1798613e-14 -7.5110388e-14 -154.21895     -3.13818e-13  
    494750   1403.5727      256.35541      1147.2173      312.73428      7746.1975      1.0177122      4455.7805     -153.69032     -4.6924513     -8.1526732e-14 -7.5109137e-14 -153.69032     -3.1327174e-13
    495000   1436.7668      269.0981       1167.6687      328.27941      6245.064       1.0177122      4455.7805     -152.51071     -4.6924513     -8.1913112e-14 -7.5108254e-14 -152.51071     -3.1404273e-13
    495250   1420.3751      252.55808      1167.817       308.10183      7843.2359      1.0177122      4455.7805     -149.27433     -4.6924513     -8.1718932e-14 -7.5111371e-14 -149.27433     -3.1366061e-13
    495500   1372.2779      232.11847      1140.1594      283.16704      3949.6337      1.0177122      4455.7805     -148.65466     -4.6924513     -8.208729e-14  -7.5113596e-14 -148.65466     -3.1440177e-13
    495750   1392.5478      244.8564       1147.6914      298.70635      789.76673      1.0177122      4455.7805     -157.84014     -4.6924513     -8.1346142e-14 -7.5111163e-14 -157.84014     -3.1291461e-13
    496000   1399.4884      234.16926      1165.3192      285.66886      7616.3906      1.0177122      4455.7805     -152.13134     -4.6924513     -8.1671964e-14 -7.5111659e-14 -152.13134     -3.1356725e-13
    496250   1434.3853      268.23365      1166.1517      327.22484      4223.5797      1.0177122      4455.7805     -157.03986     -4.6924513     -8.1578232e-14 -7.5111685e-14 -157.03986     -3.1337983e-13
    496500   1412.1596      247.86138      1164.2982      302.37221      6556.9485      1.0177122      4455.7805     -145.27133     -4.6924513     -8.1751858e-14 -7.5110679e-14 -145.27133     -3.1372507e-13
    496750   1388.2931      234.08786      1154.2052      285.56955      7569.2497      1.0177122      4455.7805     -149.37319     -4.6924513     -8.1915026e-14 -7.5111284e-14 -149.37319     -3.1405262e-13
    497000   1401.1221      244.94772      1156.1744      298.81776      4248.2629      1.0177122      4455.7805     -150.119       -4.6924513     -8.1335029e-14 -7.5109525e-14 -150.119       -3.1288911e-13
    497250   1387.6395      249.13957      1138.4999      303.9315       5582.9532      1.0177122      4455.7805     -154.36059     -4.6924513     -8.1719263e-14 -7.5108993e-14 -154.36059     -3.1365651e-13
    497500   1404.4271      233.2965       1171.1306      284.60414      9965.3394      1.0177122      4455.7805     -149.40501     -4.6924513     -8.1277867e-14 -7.511197e-14  -149.40501     -3.1277967e-13
    497750   1421.5768      260.67741      1160.8994      318.00679      4338.2112      1.0177122      4455.7805     -149.86108     -4.6924513     -8.1909866e-14 -7.5112189e-14 -149.86108     -3.1404411e-13
    498000   1426.7687      256.41552      1170.3531      312.80761      6772.8385      1.0177122      4455.7805     -151.51848     -4.6924513     -8.1608958e-14 -7.5109294e-14 -151.51848     -3.134365e-13 
    498250   1397.9637      262.20888      1135.7548      319.87507      8915.4138      1.0177122      4455.7805     -151.99039     -4.6924513     -8.162235e-14  -7.5112598e-14 -151.99039     -3.134699e-13 
    498500   1423.8151      264.75562      1159.0595      322.98191      5946.2763      1.0177122      4455.7805     -157.78751     -4.6924513     -8.1600025e-14 -7.511078e-14  -157.78751     -3.1342161e-13
    498750   1426.257       269.54383      1156.7132      328.82316      6915.1199      1.0177122      4455.7805     -154.65474     -4.6924513     -8.1773108e-14 -7.5111887e-14 -154.65474     -3.1376999e-13
    499000   1395.9608      240.73716      1155.2236      293.68119      6372.2588      1.0177122      4455.7805     -158.908       -4.6924513     -8.1535068e-14 -7.510962e-14  -158.908       -3.1328938e-13
    499250   1432.2515      260.51448      1171.737       317.80803      10880.659      1.0177122      4455.7805     -142.8132      -4.6924513     -8.1853464e-14 -7.5109527e-14 -142.8132      -3.1392598e-13
    499500   1379.0562      235.257        1143.7992      286.99581      7256.2325      1.0177122      4455.7805     -142.63832     -4.6924513     -8.2043249e-14 -7.5112032e-14 -142.63832     -3.1431056e-13
    499750   1408.3726      256.18477      1152.1879      312.52612      5849.9743      1.0177122      4455.7805     -150.91578     -4.6924513     -8.1516511e-14 -7.5109651e-14 -150.91578     -3.1325232e-13
    500000   1436.5022      273.14407      1163.3581      333.21519      4956.3809      1.0177122      4455.7805     -148.76597     -4.6924513     -8.1471532e-14 -7.5106982e-14 -148.76597     -3.1315703e-13
Loop time of 78.6228 on 4 procs for 500000 steps with 276 atoms

Performance: 549.459 ns/day, 0.044 hours/ns, 6359.477 timesteps/s
99.7% CPU use with 4 MPI tasks x no OpenMP threads

MPI task timing breakdown:
Section |  min time  |  avg time  |  max time  |%varavg| %total
---------------------------------------------------------------
Pair    | 48.689     | 54.583     | 58.613     |  57.0 | 69.42
Bond    | 2.4968     | 2.6972     | 2.9395     |   9.7 |  3.43
Kspace  | 2.5056     | 6.6972     | 12.771     | 167.3 |  8.52
Neigh   | 0.027416   | 0.027437   | 0.027458   |   0.0 |  0.03
Comm    | 12.21      | 12.257     | 12.285     |   0.9 | 15.59
Output  | 0.013934   | 0.02447    | 0.027997   |   3.9 |  0.03
Modify  | 1.7529     | 1.7877     | 1.8181     |   1.8 |  2.27
Other   |            | 0.549      |            |       |  0.70

Nlocal:             69 ave          71 max          66 min
Histogram: 1 0 0 0 1 0 0 0 0 2
Nghost:         3712.5 ave        3751 max        3683 min
Histogram: 2 0 0 0 0 0 1 0 0 1
Neighs:        27323.2 ave       28354 max       26108 min
Histogram: 1 0 1 0 0 0 0 0 0 2

Total # of neighbors = 109293
Ave neighs/atom = 395.98913
Ave special neighs/atom = 6.4347826
Neighbor list builds = 49
Dangerous builds = 0

unfix			f1
unfix			f2

Total wall time: 0:01:49
