
#------------------------------------------------------------------------------#
# simulation settings
#------------------------------------------------------------------------------#

##### simulation variables

variable        seed 	equal  20902
variable        T       equal  300	    #K
variable        p       equal  0.0 	#bar
variable        damp_T  equal  100 		  	#K
variable        damp_P  equal  1000.0	  	#bar
variable        dT      equal  1.0 		 	#fs
variable        kb      equal  0.0019872041

## system setup ##

units           real
atom_style      full
boundary        p p p

pair_style      zero 12.5 nocoeff
bond_style      harmonic
angle_style     hybrid cosine/periodic fourier
dihedral_style  harmonic
improper_style  fourier

pair_modify 	tail yes mix arithmetic
special_bonds 	lj/coul 0.0 0.0 1.0

read_data 	 	../data.emin_sod-4c_Zn-2c_mim_fe
Reading data file ...
  triclinic box = (4.5054746 4.3760097 4.4164229) to (20.786525 20.913779 20.965143) with tilt (-0.95270579 -0.51398262 -1.0127119)
  1 by 2 by 2 MPI processor grid
  reading atoms ...
  276 atoms
  reading velocities ...
  276 velocities
  scanning bonds ...
  3 = max bonds/atom
  scanning angles ...
  6 = max angles/atom
  scanning dihedrals ...
  10 = max dihedrals/atom
  scanning impropers ...
  4 = max impropers/atom
  reading bonds ...
  312 bonds
  reading angles ...
  576 angles
  reading dihedrals ...
  624 dihedrals
  reading impropers ...
  360 impropers
Finding 1-2 1-3 1-4 neighbors ...
  special bond factors lj:    0        0        1       
  special bond factors coul:  0        0        1       
     4 = max # of 1-2 neighbors
     8 = max # of 1-3 neighbors
    12 = max # of special neighbors
  special bonds CPU = 0.000 seconds
  read_data CPU = 0.004 seconds
include 	 	../bonded_sod-4c_Zn-2c_mim.param
### Parameters for Equilibration ###

### Parameters for MOF ###

mass 1 65.380000000
mass 2 14.006700000
mass 3 12.010700000
mass 4 1.007940000
mass 5 12.010700000


variable b1 equal ${lambda}*165.837318
variable b1 equal 1e-08*165.837318
bond_coeff 1 ${b1} 1.881712
bond_coeff 1 1.65837318e-06 1.881712
variable b2 equal ${lambda}*663.718927
variable b2 equal 1e-08*663.718927
bond_coeff 2 ${b2} 1.345073
bond_coeff 2 6.63718927e-06 1.345073
variable b3 equal ${lambda}*369.943935
variable b3 equal 1e-08*369.943935
bond_coeff 3 ${b3} 1.486000
bond_coeff 3 3.69943935e-06 1.486000
variable b4 equal ${lambda}*462.655054
variable b4 equal 1e-08*462.655054
bond_coeff 4 ${b4} 1.379256
bond_coeff 4 4.62655054e-06 1.379256
variable b5 equal ${lambda}*357.440381
variable b5 equal 1e-08*357.440381
bond_coeff 5 ${b5} 1.081418
bond_coeff 5 3.57440381e-06 1.081418
variable b6 equal ${lambda}*331.069389
variable b6 equal 1e-08*331.069389
bond_coeff 6 ${b6} 1.109401
bond_coeff 6 3.31069389e-06 1.109401

variable a1 equal ${lambda}*197.524216
variable a1 equal 1e-08*197.524216
angle_coeff 1 fourier ${a1} 0.343737 0.374972 0.281246
angle_coeff 1 fourier 1.97524216e-06 0.343737 0.374972 0.281246
variable a2 equal ${lambda}*45.889625
variable a2 equal 1e-08*45.889625
angle_coeff 2 cosine/periodic ${a2} -1 3
angle_coeff 2 cosine/periodic 4.5889625e-07 -1 3
variable a3 equal ${lambda}*120.000516
variable a3 equal 1e-08*120.000516
angle_coeff 3 cosine/periodic ${a3} -1 3
angle_coeff 3 cosine/periodic 1.20000516e-06 -1 3
variable a4 equal ${lambda}*212.442573
variable a4 equal 1e-08*212.442573
angle_coeff 4 cosine/periodic ${a4} -1 3
angle_coeff 4 cosine/periodic 2.12442573e-06 -1 3
variable a5 equal ${lambda}*136.548728
variable a5 equal 1e-08*136.548728
angle_coeff 5 cosine/periodic ${a5} -1 3
angle_coeff 5 cosine/periodic 1.36548728e-06 -1 3
variable a6 equal ${lambda}*153.699352
variable a6 equal 1e-08*153.699352
angle_coeff 6 cosine/periodic ${a6} -1 3
angle_coeff 6 cosine/periodic 1.53699352e-06 -1 3
variable a7 equal ${lambda}*79.786967
variable a7 equal 1e-08*79.786967
angle_coeff 7 cosine/periodic ${a7} -1 3
angle_coeff 7 cosine/periodic 7.9786967e-07 -1 3
variable a8 equal ${lambda}*57.289016
variable a8 equal 1e-08*57.289016
angle_coeff 8 cosine/periodic ${a8} -1 3
angle_coeff 8 cosine/periodic 5.7289016e-07 -1 3
variable a9 equal ${lambda}*121.777217
variable a9 equal 1e-08*121.777217
angle_coeff 9 fourier ${a9} 0.343737 0.374972 0.281246
angle_coeff 9 fourier 1.21777217e-06 0.343737 0.374972 0.281246
variable a10 equal ${lambda}*75.498766
variable a10 equal 1e-08*75.498766
angle_coeff 10 fourier ${a10} 0.343737 0.374972 0.281246
angle_coeff 10 fourier 7.5498766e-07 0.343737 0.374972 0.281246

variable d1 equal ${lambda}*3.368555
variable d1 equal 1e-08*3.368555
dihedral_coeff 1 ${d1} -1 2
dihedral_coeff 1 3.368555e-08 -1 2
variable d2 equal ${lambda}*0.166667
variable d2 equal 1e-08*0.166667
dihedral_coeff 2 ${d2} 1 3
dihedral_coeff 2 1.66667e-09 1 3

variable i1 equal ${lambda}*2.000000
variable i1 equal 1e-08*2.000000
improper_coeff 1 ${i1} 1.000000 -1.000000 0.000000 0
improper_coeff 1 2e-08 1.000000 -1.000000 0.000000 0

pair_coeff * *

group			fram type < 6
276 atoms in group fram

fix				SPRING fram spring/self 10 	# harmonic restraint to framework



#------------------------------------------------------------------------------#
# equilibration
#------------------------------------------------------------------------------#

reset_timestep	0

thermo_style	custom step etotal ke pe temp press density vol ebond eangle edihed eimp emol
thermo 			5000

velocity 		all create ${T} ${seed}
velocity 		all create 300 ${seed}
velocity 		all create 300 20902

fix				f1 all nve
fix 			f2 all langevin ${T} ${T} ${damp_T} ${seed} zero yes
fix 			f2 all langevin 300 ${T} ${damp_T} ${seed} zero yes
fix 			f2 all langevin 300 300 ${damp_T} ${seed} zero yes
fix 			f2 all langevin 300 300 100 ${seed} zero yes
fix 			f2 all langevin 300 300 100 20902 zero yes
compute 		c1 all temp/com
fix_modify		f2 temp c1

run				200000
Generated 0 of 10 mixed pair_coeff terms from arithmetic mixing rule
Neighbor list info ...
  update every 1 steps, delay 10 steps, check yes
  max neighbors/atom: 2000, page size: 100000
  master list distance cutoff = 14.5
  ghost atom cutoff = 14.5
  binsize = 7.25, bins = 3 3 3
  1 neighbor lists, perpetual/occasional/extra = 1 0 0
  (1) pair zero, perpetual
      attributes: half, newton on
      pair build: half/bin/newton/tri
      stencil: half/bin/3d/tri
      bin: standard
WARNING: Inconsistent image flags (../domain.cpp:819)
Per MPI rank memory allocation (min/avg/max) = 13.55 | 13.56 | 13.56 Mbytes
   Step         TotEng         KinEng         PotEng          Temp          Press         Density         Volume         E_bond        E_angle        E_dihed        E_impro         E_mol     
         0   245.91684      245.91683      1.0933332e-05  300            2522.8842      1.0177122      4455.7805      7.3886194e-08  9.8503634e-06  9.2943137e-07  7.9650956e-08  1.0933332e-05
      5000   234.19923      234.19901      0.00021804264  285.70514      2402.6668      1.0177122      4455.7805      0.00015022457  5.7741424e-05  8.5413841e-06  1.5352569e-06  0.00021804264
     10000   275.13202      275.1318       0.000221475    335.64006      2822.6001      1.0177122      4455.7805      0.00015764292  5.4330809e-05  8.1014795e-06  1.3997975e-06  0.000221475  
     15000   265.39353      265.39331      0.00021969315  323.75984      2722.6922      1.0177122      4455.7805      0.00015480743  5.5281295e-05  8.2349273e-06  1.3695007e-06  0.00021969315
     20000   273.01464      273.01443      0.0002137985   333.05703      2800.8781      1.0177122      4455.7805      0.00014663637  5.8112268e-05  7.7120621e-06  1.3377998e-06  0.0002137985 
     25000   261.75625      261.75603      0.00021972417  319.32263      2685.3768      1.0177122      4455.7805      0.00015249644  5.795572e-05   7.9454295e-06  1.3265846e-06  0.00021972417
     30000   262.02626      262.02604      0.00021852083  319.65203      2688.1471      1.0177122      4455.7805      0.00014666113  6.239003e-05   8.1330475e-06  1.3366247e-06  0.00021852083
     35000   259.86024      259.86004      0.00020676622  317.00966      2665.926       1.0177122      4455.7805      0.00013665756  6.0387255e-05  8.1476036e-06  1.5737987e-06  0.00020676622
     40000   269.77605      269.77584      0.00021900036  329.10619      2767.6531      1.0177122      4455.7805      0.00014972311  5.9784631e-05  8.1542128e-06  1.3384071e-06  0.00021900036
     45000   220.87044      220.87023      0.00020584778  269.44504      2265.9255      1.0177122      4455.7805      0.00013823862  5.749541e-05   8.6537082e-06  1.4600371e-06  0.00020584778
     50000   252.83741      252.83717      0.00024455358  308.44229      2593.877       1.0177122      4455.7805      0.00017142911  6.3199251e-05  8.2733156e-06  1.6519029e-06  0.00024455358
     55000   230.11058      230.11033      0.00024672733  280.71727      2360.7205      1.0177122      4455.7805      0.00017435907  6.3191934e-05  7.8569395e-06  1.3193798e-06  0.00024672733
     60000   234.8668       234.86656      0.00024279233  286.5195       2409.5149      1.0177122      4455.7805      0.00016854573  6.4008719e-05  8.8267593e-06  1.411118e-06   0.00024279233
     65000   243.22159      243.22136      0.00023261383  296.71173      2495.228       1.0177122      4455.7805      0.00016142511  6.1821467e-05  7.6998542e-06  1.6673964e-06  0.00023261383
     70000   243.79086      243.79063      0.00023325482  297.4062       2501.068       1.0177122      4455.7805      0.00016121949  6.2333909e-05  8.137792e-06   1.5636304e-06  0.00023325482
     75000   245.33958      245.33936      0.00021925717  299.29554      2516.9569      1.0177122      4455.7805      0.00015004022  5.9680825e-05  8.1337894e-06  1.4023428e-06  0.00021925717
     80000   264.49792      264.49769      0.00023076837  322.66725      2713.5034      1.0177122      4455.7805      0.00016743373  5.5104935e-05  7.1180451e-06  1.1116546e-06  0.00023076837
     85000   262.01507      262.01483      0.00024150928  319.63835      2688.0319      1.0177122      4455.7805      0.00016428697  6.6199855e-05  9.3113281e-06  1.711124e-06   0.00024150928
     90000   251.39856      251.39833      0.0002280731   306.68702      2579.1162      1.0177122      4455.7805      0.00015963521  5.8890184e-05  8.1482255e-06  1.3994786e-06  0.0002280731 
     95000   239.28048      239.28028      0.00019971544  291.90391      2454.7962      1.0177122      4455.7805      0.00013160303  5.7997282e-05  8.5382452e-06  1.5768825e-06  0.00019971544
    100000   254.42822      254.42802      0.00020313232  310.38301      2610.1983      1.0177122      4455.7805      0.0001367196   5.7378434e-05  7.584417e-06   1.4498621e-06  0.00020313232
    105000   250.05106      250.05083      0.0002241419   305.04317      2565.2922      1.0177122      4455.7805      0.00015825906  5.7169422e-05  7.4307905e-06  1.2826272e-06  0.0002241419 
    110000   243.25866      243.25842      0.00023526462  296.75695      2495.6081      1.0177122      4455.7805      0.00016686465  5.9046849e-05  7.9579623e-06  1.3951565e-06  0.00023526462
    115000   248.77245      248.77223      0.00021803324  303.48337      2552.1747      1.0177122      4455.7805      0.00014296968  6.3978024e-05  9.3642913e-06  1.7212466e-06  0.00021803324
    120000   247.56038      247.56017      0.00020508044  302.00476      2539.7402      1.0177122      4455.7805      0.00013788863  5.7660012e-05  8.0701282e-06  1.4616649e-06  0.00020508044
    125000   254.37571      254.3755       0.00020675046  310.31895      2609.6596      1.0177122      4455.7805      0.00013814841  5.901632e-05   8.176704e-06   1.4090252e-06  0.00020675046
    130000   259.76763      259.76741      0.00021710909  316.89667      2664.9756      1.0177122      4455.7805      0.00014966662  5.7837974e-05  8.2424154e-06  1.3620817e-06  0.00021710909
    135000   279.01616      279.01591      0.00024071217  340.37839      2862.4476      1.0177122      4455.7805      0.00017453625  5.6060515e-05  8.6793439e-06  1.436055e-06   0.00024071217
    140000   252.0979       252.09768      0.00022385737  307.54017      2586.2909      1.0177122      4455.7805      0.00014970012  6.4258953e-05  8.5303057e-06  1.3679962e-06  0.00022385737
    145000   232.94733      232.94708      0.00024439769  284.17789      2389.8229      1.0177122      4455.7805      0.00016317456  6.9497977e-05  9.7025341e-06  2.0226236e-06  0.00024439769
    150000   250.09957      250.09934      0.00022813014  305.10235      2565.7896      1.0177122      4455.7805      0.00016316415  5.4571828e-05  8.640893e-06   1.7532605e-06  0.00022813014
    155000   273.48502      273.48481      0.00021167568  333.63086      2805.7035      1.0177122      4455.7805      0.00014589584  5.4968218e-05  9.1346912e-06  1.6769302e-06  0.00021167568
    160000   249.53604      249.53581      0.00022271116  304.41489      2560.0087      1.0177122      4455.7805      0.00015246361  6.091824e-05   8.0021324e-06  1.3271811e-06  0.00022271116
    165000   243.10423      243.104        0.00022380986  296.56856      2494.0238      1.0177122      4455.7805      0.00015297665  6.1322647e-05  8.1857244e-06  1.3248386e-06  0.00022380986
    170000   221.90819      221.90797      0.00022322446  270.711        2276.5716      1.0177122      4455.7805      0.00015531091  5.8490861e-05  8.1691653e-06  1.2535295e-06  0.00022322446
    175000   237.82289      237.82268      0.00021058148  290.12575      2439.8426      1.0177122      4455.7805      0.000138696    6.2751776e-05  7.8306756e-06  1.3030234e-06  0.00021058148
    180000   263.57144      263.57123      0.00021813796  321.53703      2703.9993      1.0177122      4455.7805      0.00015491106  5.3464141e-05  8.3776722e-06  1.3850864e-06  0.00021813796
    185000   237.62545      237.62521      0.00023554645  289.88486      2437.8162      1.0177122      4455.7805      0.00015827465  6.7436654e-05  8.3617111e-06  1.4734292e-06  0.00023554645
    190000   254.49508      254.49483      0.00025172564  310.46452      2610.8828      1.0177122      4455.7805      0.00017415004  6.6159624e-05  9.7196679e-06  1.6963095e-06  0.00025172564
    195000   240.79244      240.79219      0.00024804774  293.74833      2470.3066      1.0177122      4455.7805      0.0001757847   6.1685746e-05  8.9499687e-06  1.6273199e-06  0.00024804774
    200000   223.80179      223.80156      0.0002378552   273.02103      2295.9982      1.0177122      4455.7805      0.00017250053  5.6520315e-05  7.5268372e-06  1.3075256e-06  0.0002378552 
WARNING: Bond/angle/dihedral extent > half of periodic box length (../domain.cpp:940)
Loop time of 12.8543 on 4 procs for 200000 steps with 276 atoms

Performance: 1344.297 ns/day, 0.018 hours/ns, 15558.996 timesteps/s
99.8% CPU use with 4 MPI tasks x no OpenMP threads

MPI task timing breakdown:
Section |  min time  |  avg time  |  max time  |%varavg| %total
---------------------------------------------------------------
Pair    | 0.0087436  | 0.0091931  | 0.0097143  |   0.4 |  0.07
Bond    | 0.99827    | 1.0576     | 1.1393     |   5.0 |  8.23
Neigh   | 5.6109     | 5.6125     | 5.6137     |   0.0 | 43.66
Comm    | 5.2094     | 5.2943     | 5.3544     |   2.3 | 41.19
Output  | 0.0004105  | 0.00043103 | 0.00049008 |   0.0 |  0.00
Modify  | 0.69193    | 0.6961     | 0.70382    |   0.6 |  5.42
Other   |            | 0.1843     |            |       |  1.43

Nlocal:             69 ave          76 max          64 min
Histogram: 2 0 0 0 0 0 1 0 0 1
Nghost:         3688.5 ave        3719 max        3658 min
Histogram: 1 0 0 1 0 0 1 0 0 1
Neighs:        27107.5 ave       30060 max       24790 min
Histogram: 2 0 0 0 0 0 1 0 0 1

Total # of neighbors = 108430
Ave neighs/atom = 392.86232
Ave special neighs/atom = 6.4347826
Neighbor list builds = 9974
Dangerous builds = 0

#------------------------------------------------------------------------------#
# sampling
#------------------------------------------------------------------------------#

reset_timestep	0

compute 		MOF_pe_a fram pe/atom bond angle dihedral improper	# per atom quantity
compute			MOF_pe all reduce sum c_MOF_pe_a	# reduce to bulk quantity

variable 		dudlam	equal c_MOF_pe/${lambda}
variable 		dudlam	equal c_MOF_pe/1e-08

fix				BOND all ave/time 250 1 250 v_dudlam file bond_${lambda}.lmp
fix				BOND all ave/time 250 1 250 v_dudlam file bond_1e-08.lmp

thermo_style	custom step etotal ke pe temp press density vol c_MOF_pe v_dudlam
thermo 			250

run 			500000
Generated 0 of 10 mixed pair_coeff terms from arithmetic mixing rule
WARNING: Inconsistent image flags (../domain.cpp:819)
WARNING: Bond/angle/dihedral extent > half of periodic box length (../domain.cpp:940)
Per MPI rank memory allocation (min/avg/max) = 14.56 | 14.56 | 14.56 Mbytes
   Step         TotEng         KinEng         PotEng          Temp          Press         Density         Volume        c_MOF_pe       v_dudlam   
         0   223.80179      223.80156      0.0002378552   273.02103      2295.9982      1.0177122      4455.7805      0.0002378552   23785.52     
       250   253.85982      253.85962      0.00019865163  309.68961      2604.3674      1.0177122      4455.7805      0.00019865163  19865.163    
       500   275.56129      275.56107      0.0002186991   336.16374      2827.0041      1.0177122      4455.7805      0.0002186991   21869.91     
       750   239.20755      239.20734      0.00020879258  291.81492      2454.0478      1.0177122      4455.7805      0.00020879258  20879.258    
      1000   242.22436      242.22413      0.0002230736   295.49519      2484.9978      1.0177122      4455.7805      0.0002230736   22307.36     
      1250   249.96394      249.9637       0.00023196269  304.93688      2564.3983      1.0177122      4455.7805      0.00023196269  23196.269    
      1500   246.59117      246.59094      0.00022871149  300.82237      2529.7969      1.0177122      4455.7805      0.00022871149  22871.149    
      1750   216.37009      216.36985      0.00023934329  263.95491      2219.7557      1.0177122      4455.7805      0.00023934329  23934.329    
      2000   236.52089      236.52067      0.00021837685  288.53739      2426.4852      1.0177122      4455.7805      0.00021837685  21837.685    
      2250   234.86723      234.86702      0.00020668988  286.52006      2409.5203      1.0177122      4455.7805      0.00020668988  20668.988    
      2500   254.93607      254.93586      0.00020706598  311.00254      2615.4083      1.0177122      4455.7805      0.00020706598  20706.598    
      2750   257.84924      257.84902      0.00022169446  314.55637      2645.2944      1.0177122      4455.7805      0.00022169446  22169.446    
      3000   234.86595      234.86572      0.00023416324  286.51848      2409.5067      1.0177122      4455.7805      0.00023416324  23416.324    
      3250   248.70916      248.7089       0.00025959543  303.40612      2551.525       1.0177122      4455.7805      0.00025959543  25959.543    
      3500   252.6048       252.60458      0.0002165449   308.15855      2591.4916      1.0177122      4455.7805      0.0002165449   21654.49     
      3750   250.53527      250.53503      0.00024589016  305.63385      2570.2589      1.0177122      4455.7805      0.00024589016  24589.016    
      4000   252.98665      252.98641      0.00023264733  308.62436      2595.4084      1.0177122      4455.7805      0.00023264733  23264.733    
      4250   270.49303      270.4928       0.00023038375  329.98083      2775.0084      1.0177122      4455.7805      0.00023038375  23038.375    
      4500   252.76168      252.76148      0.00020047245  308.34996      2593.101       1.0177122      4455.7805      0.00020047245  20047.245    
      4750   249.60218      249.60195      0.00023026599  304.49557      2560.6871      1.0177122      4455.7805      0.00023026599  23026.599    
      5000   265.81561      265.81537      0.00024158834  324.27472      2727.022       1.0177122      4455.7805      0.00024158834  24158.834    
      5250   264.90554      264.90532      0.00022386305  323.16453      2717.6857      1.0177122      4455.7805      0.00022386305  22386.305    
      5500   234.42538      234.42517      0.0002078504   285.98104      2404.9872      1.0177122      4455.7805      0.0002078504   20785.04     
      5750   243.61211      243.61188      0.00023578266  297.18813      2499.2344      1.0177122      4455.7805      0.00023578266  23578.266    
      6000   265.9696       265.96936      0.00024232452  324.46258      2728.6014      1.0177122      4455.7805      0.00024232452  24232.452    
      6250   240.12586      240.12561      0.00025506985  292.93514      2463.4681      1.0177122      4455.7805      0.00025506985  25506.985    
      6500   253.39014      253.38991      0.00022706685  309.1166       2599.548       1.0177122      4455.7805      0.00022706685  22706.685    
      6750   246.86104      246.86082      0.00021900556  301.1516       2532.5656      1.0177122      4455.7805      0.00021900556  21900.556    
      7000   237.26515      237.26495      0.000196603    289.44537      2434.121       1.0177122      4455.7805      0.000196603    19660.3      
      7250   227.54579      227.54559      0.0001996107   277.58847      2334.4091      1.0177122      4455.7805      0.0001996107   19961.07     
      7500   257.80783      257.80761      0.00021715136  314.50586      2644.8698      1.0177122      4455.7805      0.00021715136  21715.136    
      7750   247.22186      247.22164      0.00022703281  301.59177      2536.2671      1.0177122      4455.7805      0.00022703281  22703.281    
      8000   231.29691      231.29669      0.00021991846  282.16454      2372.892       1.0177122      4455.7805      0.00021991846  21991.846    
      8250   227.79637      227.79616      0.00021042727  277.89414      2336.9797      1.0177122      4455.7805      0.00021042727  21042.727    
      8500   236.58384      236.58362      0.00021712587  288.61419      2427.1312      1.0177122      4455.7805      0.00021712587  21712.587    
      8750   255.13661      255.13638      0.00022734111  311.24716      2617.4651      1.0177122      4455.7805      0.00022734111  22734.111    
      9000   228.18119      228.18094      0.00024886351  278.36355      2340.9264      1.0177122      4455.7805      0.00024886351  24886.351    
      9250   247.62441      247.62419      0.00022235698  302.08285      2540.3972      1.0177122      4455.7805      0.00022235698  22235.698    
      9500   232.14636      232.14613      0.00023586875  283.20078      2381.6055      1.0177122      4455.7805      0.00023586875  23586.875    
      9750   244.16122      244.16098      0.00024008407  297.858        2504.8676      1.0177122      4455.7805      0.00024008407  24008.407    
     10000   240.75689      240.75666      0.00023561048  293.70498      2469.9423      1.0177122      4455.7805      0.00023561048  23561.048    
     10250   241.10454      241.10435      0.00019481573  294.12914      2473.51        1.0177122      4455.7805      0.00019481573  19481.573    
     10500   248.34517      248.34494      0.00023221539  302.96211      2547.7913      1.0177122      4455.7805      0.00023221539  23221.539    
     10750   243.57317      243.57293      0.00023985156  297.14062      2498.8343      1.0177122      4455.7805      0.00023985156  23985.156    
     11000   268.32533      268.3251       0.00022360471  327.33641      2752.7698      1.0177122      4455.7805      0.00022360471  22360.471    
     11250   265.94715      265.94693      0.00022594335  324.43521      2728.3718      1.0177122      4455.7805      0.00022594335  22594.335    
     11500   242.90693      242.90671      0.00021951246  296.32788      2491.9999      1.0177122      4455.7805      0.00021951246  21951.246    
     11750   247.35532      247.35509      0.00023161275  301.75457      2537.636       1.0177122      4455.7805      0.00023161275  23161.275    
     12000   229.59449      229.59426      0.00023475143  280.08769      2355.4264      1.0177122      4455.7805      0.00023475143  23475.143    
     12250   261.64579      261.64558      0.00020472072  319.1879       2684.244       1.0177122      4455.7805      0.00020472072  20472.072    
     12500   252.32659      252.32637      0.00021090936  307.81916      2588.6376      1.0177122      4455.7805      0.00021090936  21090.936    
     12750   245.88489      245.88468      0.0002050282   299.96078      2522.5514      1.0177122      4455.7805      0.0002050282   20502.82     
     13000   256.34724      256.34699      0.00024455714  312.72401      2629.8852      1.0177122      4455.7805      0.00024455714  24455.714    
     13250   247.24692      247.2467       0.00022388013  301.62234      2536.5242      1.0177122      4455.7805      0.00022388013  22388.013    
     13500   263.58082      263.5806       0.00021218249  321.54847      2704.0957      1.0177122      4455.7805      0.00021218249  21218.249    
     13750   268.16285      268.16262      0.00022832576  327.13819      2751.1024      1.0177122      4455.7805      0.00022832576  22832.576    
     14000   224.07811      224.07787      0.00023767637  273.35812      2298.8329      1.0177122      4455.7805      0.00023767637  23767.637    
     14250   237.82937      237.82915      0.00021621493  290.13364      2439.9091      1.0177122      4455.7805      0.00021621493  21621.493    
     14500   244.344        244.34379      0.00021122952  298.08101      2506.7431      1.0177122      4455.7805      0.00021122952  21122.952    
     14750   221.30339      221.30316      0.00023522804  269.97318      2270.3666      1.0177122      4455.7805      0.00023522804  23522.804    
     15000   282.75335      282.75311      0.00023231293  344.93749      2900.788       1.0177122      4455.7805      0.00023231293  23231.293    
     15250   239.43354      239.43328      0.00026189433  292.09056      2456.3653      1.0177122      4455.7805      0.00026189433  26189.433    
     15500   247.66952      247.6693       0.00021367675  302.13789      2540.8603      1.0177122      4455.7805      0.00021367675  21367.675    
     15750   255.59398      255.59375      0.00022955373  311.80512      2622.1572      1.0177122      4455.7805      0.00022955373  22955.373    
     16000   245.75985      245.75963      0.00022139658  299.80823      2521.2685      1.0177122      4455.7805      0.00022139658  22139.658    
     16250   242.99011      242.98988      0.00022974031  296.42935      2492.8535      1.0177122      4455.7805      0.00022974031  22974.031    
     16500   250.59505      250.59479      0.00026179269  305.70676      2570.872       1.0177122      4455.7805      0.00026179269  26179.269    
     16750   241.31139      241.31118      0.00020628863  294.38146      2475.6317      1.0177122      4455.7805      0.00020628863  20628.863    
     17000   267.8106       267.81038      0.00022090367  326.70848      2747.4891      1.0177122      4455.7805      0.00022090367  22090.367    
     17250   250.00518      250.00491      0.00026436652  304.98715      2564.8203      1.0177122      4455.7805      0.00026436652  26436.652    
     17500   261.92848      261.92825      0.00023079465  319.53273      2687.1434      1.0177122      4455.7805      0.00023079465  23079.465    
     17750   276.80795      276.80773      0.00021367937  337.68457      2839.7942      1.0177122      4455.7805      0.00021367937  21367.937    
     18000   268.05501      268.05478      0.00022716274  327.00663      2749.9963      1.0177122      4455.7805      0.00022716274  22716.274    
     18250   263.77627      263.77603      0.00024074613  321.78688      2706.1002      1.0177122      4455.7805      0.00024074613  24074.613    
     18500   246.56802      246.5678       0.00022093805  300.79414      2529.5594      1.0177122      4455.7805      0.00022093805  22093.805    
     18750   232.97713      232.97689      0.00023711651  284.21425      2390.1289      1.0177122      4455.7805      0.00023711651  23711.651    
     19000   256.66784      256.66762      0.00021521399  313.11516      2633.1746      1.0177122      4455.7805      0.00021521399  21521.399    
     19250   244.3102       244.30997      0.00022364861  298.03976      2506.3962      1.0177122      4455.7805      0.00022364861  22364.861    
     19500   238.05527      238.05504      0.00023441442  290.40921      2442.2263      1.0177122      4455.7805      0.00023441442  23441.442    
     19750   278.94092      278.94068      0.00024082417  340.28661      2861.6755      1.0177122      4455.7805      0.00024082417  24082.417    
     20000   256.73572      256.73547      0.00024906559  313.19792      2633.8703      1.0177122      4455.7805      0.00024906559  24906.559    
     20250   261.39187      261.39162      0.00025523584  318.87808      2681.6375      1.0177122      4455.7805      0.00025523584  25523.584    
     20500   228.39095      228.39072      0.00022920942  278.61946      2343.0788      1.0177122      4455.7805      0.00022920942  22920.942    
     20750   251.30248      251.30227      0.00020386912  306.56983      2578.1313      1.0177122      4455.7805      0.00020386912  20386.912    
     21000   266.73972      266.73949      0.00022467319  325.40208      2736.5029      1.0177122      4455.7805      0.00022467319  22467.319    
     21250   242.36232      242.36208      0.00023169106  295.66348      2486.4127      1.0177122      4455.7805      0.00023169106  23169.106    
     21500   230.32476      230.32453      0.00023320864  280.97856      2362.918       1.0177122      4455.7805      0.00023320864  23320.864    
     21750   239.23586      239.23564      0.00021743314  291.84946      2454.3382      1.0177122      4455.7805      0.00021743314  21743.314    
     22000   226.79399      226.79376      0.00023359734  276.67129      2326.696       1.0177122      4455.7805      0.00023359734  23359.734    
     22250   231.86102      231.86079      0.00022723876  282.85269      2378.6785      1.0177122      4455.7805      0.00022723876  22723.876    
     22500   247.52726      247.52701      0.00025140194  301.96429      2539.3996      1.0177122      4455.7805      0.00025140194  25140.194    
     22750   246.40682      246.40661      0.00020558746  300.5975       2527.906       1.0177122      4455.7805      0.00020558746  20558.746    
     23000   239.98279      239.98254      0.00024812089  292.76062      2462.0006      1.0177122      4455.7805      0.00024812089  24812.089    
     23250   238.78285      238.78263      0.00022191244  291.29682      2449.6906      1.0177122      4455.7805      0.00022191244  22191.244    
     23500   252.03857      252.03833      0.00023357302  307.46777      2585.6821      1.0177122      4455.7805      0.00023357302  23357.302    
     23750   266.02984      266.0296       0.00023587879  324.53607      2729.2203      1.0177122      4455.7805      0.00023587879  23587.879    
     24000   257.12365      257.12343      0.00022333576  313.6712       2637.8505      1.0177122      4455.7805      0.00022333576  22333.576    
     24250   250.31559      250.31535      0.00023506905  305.36587      2568.0057      1.0177122      4455.7805      0.00023506905  23506.905    
     24500   250.384        250.38378      0.00022158618  305.44934      2568.7079      1.0177122      4455.7805      0.00022158618  22158.618    
     24750   257.59031      257.59004      0.00027607563  314.24043      2642.6366      1.0177122      4455.7805      0.00027607563  27607.563    
     25000   253.47543      253.47522      0.00021666748  309.22066      2600.4235      1.0177122      4455.7805      0.00021666748  21666.748    
     25250   237.193        237.19275      0.00024460363  289.35729      2433.3796      1.0177122      4455.7805      0.00024460363  24460.363    
     25500   259.15137      259.15114      0.00022711416  316.14486      2658.6528      1.0177122      4455.7805      0.00022711416  22711.416    
     25750   242.21599      242.21577      0.00021485947  295.48499      2484.912       1.0177122      4455.7805      0.00021485947  21485.947    
     26000   246.60039      246.60014      0.00024434868  300.83359      2529.8913      1.0177122      4455.7805      0.00024434868  24434.868    
     26250   260.81238      260.81214      0.0002376131   318.17116      2675.6931      1.0177122      4455.7805      0.0002376131   23761.31     
     26500   252.78875      252.78851      0.00024399928  308.38293      2593.3782      1.0177122      4455.7805      0.00024399928  24399.928    
     26750   244.10294      244.10272      0.0002195032   297.78693      2504.2701      1.0177122      4455.7805      0.0002195032   21950.32     
     27000   250.76185      250.76162      0.00023514611  305.91028      2572.5841      1.0177122      4455.7805      0.00023514611  23514.611    
     27250   257.74638      257.74615      0.00022633217  314.43088      2644.2391      1.0177122      4455.7805      0.00022633217  22633.217    
     27500   254.81813      254.81793      0.00020088731  310.85867      2614.1984      1.0177122      4455.7805      0.00020088731  20088.731    
     27750   251.41132      251.41109      0.00022710943  306.70258      2579.2467      1.0177122      4455.7805      0.00022710943  22710.943    
     28000   255.76919      255.76894      0.00025410888  312.01883      2623.9546      1.0177122      4455.7805      0.00025410888  25410.888    
     28250   255.85636      255.85614      0.00022602898  312.12521      2624.8492      1.0177122      4455.7805      0.00022602898  22602.898    
     28500   246.12134      246.12111      0.00023054953  300.24921      2524.9767      1.0177122      4455.7805      0.00023054953  23054.953    
     28750   246.16334      246.1631       0.00024373658  300.30043      2525.4072      1.0177122      4455.7805      0.00024373658  24373.658    
     29000   242.47314      242.47291      0.00023245095  295.79868      2487.5498      1.0177122      4455.7805      0.00023245095  23245.095    
     29250   238.36431      238.36408      0.00023118344  290.78622      2445.3968      1.0177122      4455.7805      0.00023118344  23118.344    
     29500   252.54748      252.54726      0.00022088004  308.08862      2590.9031      1.0177122      4455.7805      0.00022088004  22088.004    
     29750   240.51703      240.51681      0.00022095878  293.41239      2467.482       1.0177122      4455.7805      0.00022095878  22095.878    
     30000   239.31207      239.31186      0.00020920319  291.94243      2455.1204      1.0177122      4455.7805      0.00020920319  20920.319    
     30250   234.80792      234.80768      0.00023752163  286.44768      2408.9108      1.0177122      4455.7805      0.00023752163  23752.163    
     30500   271.53612      271.53588      0.00023955923  331.25331      2785.7093      1.0177122      4455.7805      0.00023955923  23955.923    
     30750   261.35683      261.3566       0.00022710329  318.83536      2681.2791      1.0177122      4455.7805      0.00022710329  22710.329    
     31000   236.02944      236.02919      0.00025814283  287.93782      2421.4419      1.0177122      4455.7805      0.00025814283  25814.283    
     31250   235.88667      235.88642      0.00024722568  287.76366      2419.978       1.0177122      4455.7805      0.00024722568  24722.568    
     31500   249.12181      249.12158      0.00023009512  303.90955      2555.7587      1.0177122      4455.7805      0.00023009512  23009.512    
     31750   237.50316      237.50293      0.00022452846  289.73568      2436.5618      1.0177122      4455.7805      0.00022452846  22452.846    
     32000   241.82931      241.82909      0.00022534334  295.01327      2480.945       1.0177122      4455.7805      0.00022534334  22534.334    
     32250   224.57223      224.57202      0.00021589222  273.96094      2303.9028      1.0177122      4455.7805      0.00021589222  21589.222    
     32500   258.83027      258.83003      0.0002393179   315.75313      2655.3586      1.0177122      4455.7805      0.0002393179   23931.79     
     32750   262.8958       262.89558      0.00022336151  320.7128       2697.0677      1.0177122      4455.7805      0.00022336151  22336.151    
     33000   267.07722      267.077        0.0002233274   325.81381      2739.965       1.0177122      4455.7805      0.0002233274   22332.74     
     33250   259.73497      259.7347       0.0002637515   316.85677      2664.6398      1.0177122      4455.7805      0.0002637515   26375.15     
     33500   215.35174      215.35151      0.00023696442  262.71261      2209.3077      1.0177122      4455.7805      0.00023696442  23696.442    
     33750   255.76804      255.76781      0.0002313747   312.01745      2623.9433      1.0177122      4455.7805      0.0002313747   23137.47     
     34000   303.52688      303.52665      0.0002227046   370.27964      3113.906       1.0177122      4455.7805      0.0002227046   22270.46     
     34250   267.09854      267.09831      0.00022388491  325.83982      2740.1837      1.0177122      4455.7805      0.00022388491  22388.491    
     34500   250.28911      250.28891      0.00020634617  305.33361      2567.735       1.0177122      4455.7805      0.00020634617  20634.617    
     34750   268.89609      268.89587      0.00021855128  328.0327       2758.6255      1.0177122      4455.7805      0.00021855128  21855.128    
     35000   247.57332      247.57311      0.00021491604  302.02053      2539.873       1.0177122      4455.7805      0.00021491604  21491.604    
     35250   258.4583       258.45807      0.00023016912  315.29937      2651.5425      1.0177122      4455.7805      0.00023016912  23016.912    
     35500   253.80921      253.809        0.00020962456  309.62785      2603.848       1.0177122      4455.7805      0.00020962456  20962.456    
     35750   266.79344      266.79323      0.00021854306  325.46763      2737.0542      1.0177122      4455.7805      0.00021854306  21854.306    
     36000   270.21425      270.21401      0.00023928072  329.64073      2772.1479      1.0177122      4455.7805      0.00023928072  23928.072    
     36250   248.87025      248.87002      0.00022800163  303.60267      2553.1779      1.0177122      4455.7805      0.00022800163  22800.163    
     36500   251.11058      251.11036      0.00022440772  306.33571      2576.1618      1.0177122      4455.7805      0.00022440772  22440.772    
     36750   243.70855      243.7083       0.00024458903  297.30577      2500.2236      1.0177122      4455.7805      0.00024458903  24458.903    
     37000   244.9904       244.99017      0.00023119982  298.86955      2513.3741      1.0177122      4455.7805      0.00023119982  23119.982    
     37250   245.84904      245.84881      0.00023092509  299.91702      2522.1838      1.0177122      4455.7805      0.00023092509  23092.509    
     37500   244.35011      244.34989      0.00022710742  298.08845      2506.8054      1.0177122      4455.7805      0.00022710742  22710.742    
     37750   233.05242      233.05219      0.00023228188  284.30611      2390.9013      1.0177122      4455.7805      0.00023228188  23228.188    
     38000   241.51255      241.51232      0.00022623977  294.62683      2477.6942      1.0177122      4455.7805      0.00022623977  22623.977    
     38250   246.33258      246.33236      0.00021736376  300.50691      2527.1441      1.0177122      4455.7805      0.00021736376  21736.376    
     38500   238.59787      238.59767      0.00020742611  291.07117      2447.7934      1.0177122      4455.7805      0.00020742611  20742.611    
     38750   233.34987      233.34965      0.00021542341  284.66899      2393.953       1.0177122      4455.7805      0.00021542341  21542.341    
     39000   248.91043      248.9102       0.00023294728  303.65169      2553.5901      1.0177122      4455.7805      0.00023294728  23294.728    
     39250   238.67848      238.67823      0.00024192216  291.16946      2448.6194      1.0177122      4455.7805      0.00024192216  24192.216    
     39500   248.44162      248.44138      0.00023484631  303.07977      2548.7804      1.0177122      4455.7805      0.00023484631  23484.631    
     39750   270.524        270.52377      0.0002289135   330.01861      2775.3261      1.0177122      4455.7805      0.0002289135   22891.35     
     40000   229.3024       229.30219      0.0002109375   279.73139      2352.43        1.0177122      4455.7805      0.0002109375   21093.75     
     40250   227.64084      227.6406       0.00023924648  277.70438      2335.3833      1.0177122      4455.7805      0.00023924648  23924.648    
     40500   234.84436      234.84414      0.00021631295  286.49216      2409.2856      1.0177122      4455.7805      0.00021631295  21631.295    
     40750   276.73956      276.73935      0.00021246529  337.60115      2839.0922      1.0177122      4455.7805      0.00021246529  21246.529    
     41000   257.6821       257.68187      0.00023660433  314.35246      2643.5797      1.0177122      4455.7805      0.00023660433  23660.433    
     41250   250.31349      250.31327      0.00022280532  305.36332      2567.9844      1.0177122      4455.7805      0.00022280532  22280.532    
     41500   249.30758      249.30735      0.00022828727  304.13618      2557.6644      1.0177122      4455.7805      0.00022828727  22828.727    
     41750   261.66371      261.66346      0.0002471825   319.2097       2684.427       1.0177122      4455.7805      0.0002471825   24718.25     
     42000   253.12598      253.12576      0.0002240874   308.79435      2596.8381      1.0177122      4455.7805      0.0002240874   22408.74     
     42250   235.33027      235.33004      0.0002327232   287.08491      2414.2704      1.0177122      4455.7805      0.0002327232   23272.32     
     42500   261.95386      261.95364      0.00022483279  319.5637       2687.4041      1.0177122      4455.7805      0.00022483279  22483.279    
     42750   261.77957      261.77934      0.00022777658  319.35107      2685.6162      1.0177122      4455.7805      0.00022777658  22777.658    
     43000   252.40932      252.40906      0.00025688624  307.92004      2589.4854      1.0177122      4455.7805      0.00025688624  25688.624    
     43250   267.32896      267.32875      0.00020699269  326.12093      2742.5484      1.0177122      4455.7805      0.00020699269  20699.269    
     43500   255.08346      255.0832       0.00025340165  311.18229      2616.9196      1.0177122      4455.7805      0.00025340165  25340.165    
     43750   275.69966      275.69942      0.00024422102  336.33252      2828.4233      1.0177122      4455.7805      0.00024422102  24422.102    
     44000   266.9892       266.989        0.00019930512  325.70646      2739.0628      1.0177122      4455.7805      0.00019930512  19930.512    
     44250   235.31898      235.31876      0.00022464835  287.07115      2414.1543      1.0177122      4455.7805      0.00022464835  22464.835    
     44500   236.81263      236.81242      0.00020399977  288.89331      2429.4784      1.0177122      4455.7805      0.00020399977  20399.977    
     44750   240.20177      240.20154      0.00022464894  293.02778      2464.2473      1.0177122      4455.7805      0.00022464894  22464.894    
     45000   260.5931       260.59286      0.00024729914  317.90365      2673.4435      1.0177122      4455.7805      0.00024729914  24729.914    
     45250   251.65871      251.65849      0.00021647682  307.0044       2581.7855      1.0177122      4455.7805      0.00021647682  21647.682    
     45500   269.27975      269.27951      0.00023370126  328.50071      2762.561       1.0177122      4455.7805      0.00023370126  23370.126    
     45750   246.57749      246.57729      0.00020048872  300.80572      2529.6573      1.0177122      4455.7805      0.00020048872  20048.872    
     46000   282.7161       282.71588      0.00022758407  344.89206      2900.406       1.0177122      4455.7805      0.00022758407  22758.407    
     46250   251.90946      251.9092       0.0002542675   307.31024      2584.3569      1.0177122      4455.7805      0.0002542675   25426.75     
     46500   237.82258      237.82234      0.00024129221  290.12533      2439.8388      1.0177122      4455.7805      0.00024129221  24129.221    
     46750   261.24607      261.24584      0.00022736532  318.70024      2680.1426      1.0177122      4455.7805      0.00022736532  22736.532    
     47000   236.70624      236.706        0.00023948593  288.76349      2428.3863      1.0177122      4455.7805      0.00023948593  23948.593    
     47250   243.3726       243.37237      0.00022589087  296.89596      2496.7774      1.0177122      4455.7805      0.00022589087  22589.087    
     47500   266.95722      266.95699      0.00022148682  325.66742      2738.7342      1.0177122      4455.7805      0.00022148682  22148.682    
     47750   249.07125      249.07102      0.00022707836  303.84788      2555.2404      1.0177122      4455.7805      0.00022707836  22707.836    
     48000   254.6963       254.69607      0.00023188961  310.71002      2612.9481      1.0177122      4455.7805      0.00023188961  23188.961    
     48250   253.27097      253.27074      0.00023295969  308.97122      2598.325       1.0177122      4455.7805      0.00023295969  23295.969    
     48500   262.3415       262.34126      0.00023912103  320.03657      2691.3809      1.0177122      4455.7805      0.00023912103  23912.103    
     48750   234.2118       234.21157      0.00022791431  285.72047      2402.7954      1.0177122      4455.7805      0.00022791431  22791.431    
     49000   268.34546      268.34526      0.00020506849  327.36099      2752.9763      1.0177122      4455.7805      0.00020506849  20506.849    
     49250   259.75829      259.758        0.00028702954  316.88519      2664.8783      1.0177122      4455.7805      0.00028702954  28702.954    
     49500   249.84249      249.84228      0.00020893508  304.78875      2563.1528      1.0177122      4455.7805      0.00020893508  20893.508    
     49750   247.94917      247.94895      0.00022488758  302.47903      2543.7287      1.0177122      4455.7805      0.00022488758  22488.758    
     50000   258.73895      258.73874      0.00020470799  315.64177      2654.4225      1.0177122      4455.7805      0.00020470799  20470.799    
     50250   249.64348      249.64324      0.00023945369  304.54594      2561.1105      1.0177122      4455.7805      0.00023945369  23945.369    
     50500   242.74421      242.74399      0.00022776341  296.12937      2490.3302      1.0177122      4455.7805      0.00022776341  22776.341    
     50750   241.89836      241.89813      0.00023540299  295.09749      2481.6527      1.0177122      4455.7805      0.00023540299  23540.299    
     51000   239.38489      239.38466      0.00023037262  292.03124      2455.8665      1.0177122      4455.7805      0.00023037262  23037.262    
     51250   271.05652      271.05627      0.00024439101  330.66823      2780.7884      1.0177122      4455.7805      0.00024439101  24439.101    
     51500   232.21148      232.21125      0.0002292329   283.28023      2382.2741      1.0177122      4455.7805      0.0002292329   22923.29     
     51750   233.12897      233.12875      0.00022456909  284.3995       2391.6867      1.0177122      4455.7805      0.00022456909  22456.909    
     52000   249.20791      249.20769      0.00021282402  304.01461      2556.6423      1.0177122      4455.7805      0.00021282402  21282.402    
     52250   252.67707      252.67683      0.00023644103  308.2467       2592.2326      1.0177122      4455.7805      0.00023644103  23644.103    
     52500   239.04382      239.04357      0.00024553998  291.61514      2452.367       1.0177122      4455.7805      0.00024553998  24553.998    
     52750   252.62547      252.62526      0.00021085253  308.18378      2591.7038      1.0177122      4455.7805      0.00021085253  21085.253    
     53000   241.29372      241.29353      0.0001937328   294.35992      2475.4504      1.0177122      4455.7805      0.0001937328   19373.28     
     53250   258.4178       258.41758      0.0002239772   315.24997      2651.1278      1.0177122      4455.7805      0.0002239772   22397.72     
     53500   238.86933      238.8691       0.00023086762  291.4023       2450.5781      1.0177122      4455.7805      0.00023086762  23086.762    
     53750   281.641        281.64075      0.00024136762  343.5805       2889.3758      1.0177122      4455.7805      0.00024136762  24136.762    
     54000   257.50373      257.50346      0.00026356528  314.13482      2641.7489      1.0177122      4455.7805      0.00026356528  26356.528    
     54250   263.16243      263.16222      0.0002130078   321.03808      2699.8032      1.0177122      4455.7805      0.0002130078   21300.78     
     54500   245.07502      245.07479      0.00022462674  298.97278      2514.2424      1.0177122      4455.7805      0.00022462674  22462.674    
     54750   257.3205       257.32028      0.00021935445  313.91136      2639.8707      1.0177122      4455.7805      0.00021935445  21935.445    
     55000   263.71564      263.71541      0.00023157123  321.71293      2705.4782      1.0177122      4455.7805      0.00023157123  23157.123    
     55250   253.60617      253.60595      0.00022107294  309.38015      2601.7643      1.0177122      4455.7805      0.00022107294  22107.294    
     55500   271.30352      271.30328      0.00024119225  330.96956      2783.3235      1.0177122      4455.7805      0.00024119225  24119.225    
     55750   257.62041      257.62018      0.00023026932  314.27721      2642.9467      1.0177122      4455.7805      0.00023026932  23026.932    
     56000   268.70873      268.70851      0.0002254126   327.80413      2756.703       1.0177122      4455.7805      0.0002254126   22541.26     
     56250   238.55239      238.55215      0.00024486832  291.01564      2447.3258      1.0177122      4455.7805      0.00024486832  24486.832    
     56500   262.43413      262.43389      0.00024086384  320.14956      2692.3305      1.0177122      4455.7805      0.00024086384  24086.384    
     56750   263.51275      263.51254      0.000210522    321.46545      2703.3974      1.0177122      4455.7805      0.000210522    21052.2      
     57000   246.07873      246.07851      0.00022187026  300.19724      2524.5396      1.0177122      4455.7805      0.00022187026  22187.026    
     57250   250.78352      250.78329      0.00022374442  305.93672      2572.8067      1.0177122      4455.7805      0.00022374442  22374.442    
     57500   226.68014      226.67991      0.00023065654  276.5324       2325.5276      1.0177122      4455.7805      0.00023065654  23065.654    
     57750   245.53778      245.53755      0.00023104288  299.53731      2518.9902      1.0177122      4455.7805      0.00023104288  23104.288    
     58000   239.68149      239.68127      0.00022449063  292.39309      2458.9095      1.0177122      4455.7805      0.00022449063  22449.063    
     58250   241.12886      241.12862      0.00023815177  294.15874      2473.7583      1.0177122      4455.7805      0.00023815177  23815.177    
     58500   251.61514      251.6149       0.00024190331  306.95121      2581.3374      1.0177122      4455.7805      0.00024190331  24190.331    
     58750   252.91707      252.91687      0.0002071758   308.53952      2594.6957      1.0177122      4455.7805      0.0002071758   20717.58     
     59000   237.47756      237.47732      0.00024234311  289.70443      2436.2991      1.0177122      4455.7805      0.00024234311  24234.311    
     59250   263.42864      263.4284       0.00023653174  321.3628       2702.5338      1.0177122      4455.7805      0.00023653174  23653.174    
     59500   249.38931      249.38908      0.00023169587  304.23589      2558.5029      1.0177122      4455.7805      0.00023169587  23169.587    
     59750   241.88273      241.88252      0.00020714334  295.07845      2481.4932      1.0177122      4455.7805      0.00020714334  20714.334    
     60000   241.28094      241.28072      0.00021864475  294.3443       2475.3189      1.0177122      4455.7805      0.00021864475  21864.475    
     60250   240.32349      240.32324      0.00025087182  293.17625      2465.4953      1.0177122      4455.7805      0.00025087182  25087.182    
     60500   262.46966      262.46941      0.00024468923  320.1929       2692.6952      1.0177122      4455.7805      0.00024468923  24468.923    
     60750   256.66351      256.66325      0.00025662391  313.10983      2633.1292      1.0177122      4455.7805      0.00025662391  25662.391    
     61000   250.10686      250.10665      0.00020786289  305.11126      2565.8649      1.0177122      4455.7805      0.00020786289  20786.289    
     61250   248.90424      248.90399      0.00024794082  303.64411      2553.5266      1.0177122      4455.7805      0.00024794082  24794.082    
     61500   232.42917      232.42895      0.00022310345  283.5458       2384.5076      1.0177122      4455.7805      0.00022310345  22310.345    
     61750   270.17872      270.17847      0.00025015247  329.59737      2771.7829      1.0177122      4455.7805      0.00025015247  25015.247    
     62000   252.65849      252.65827      0.00021785903  308.22405      2592.0423      1.0177122      4455.7805      0.00021785903  21785.903    
     62250   245.81016      245.80992      0.00024129998  299.86958      2521.7842      1.0177122      4455.7805      0.00024129998  24129.998    
     62500   245.9784       245.97817      0.00023725012  300.07483      2523.5103      1.0177122      4455.7805      0.00023725012  23725.012    
     62750   262.3929       262.39267      0.00023060063  320.09929      2691.9084      1.0177122      4455.7805      0.00023060063  23060.063    
     63000   246.93039      246.93015      0.00024342685  301.23618      2533.2766      1.0177122      4455.7805      0.00024342685  24342.685    
     63250   252.45278      252.45259      0.00019372585  307.97313      2589.9325      1.0177122      4455.7805      0.00019372585  19372.585    
     63500   265.61669      265.61649      0.00020094794  324.0321       2724.9818      1.0177122      4455.7805      0.00020094794  20094.794    
     63750   254.09473      254.09448      0.00024240392  309.97612      2606.7762      1.0177122      4455.7805      0.00024240392  24240.392    
     64000   255.58845      255.5882       0.00024906318  311.79834      2622.1007      1.0177122      4455.7805      0.00024906318  24906.318    
     64250   239.00429      239.00407      0.00021645683  291.56696      2451.9621      1.0177122      4455.7805      0.00021645683  21645.683    
     64500   237.83625      237.83602      0.00023193979  290.14202      2439.9794      1.0177122      4455.7805      0.00023193979  23193.979    
     64750   253.84884      253.8486       0.0002407375   309.67616      2604.2535      1.0177122      4455.7805      0.0002407375   24073.75     
     65000   246.81845      246.81819      0.0002649077   301.09959      2532.1279      1.0177122      4455.7805      0.0002649077   26490.77     
     65250   239.65856      239.65833      0.0002349449   292.3651       2458.6741      1.0177122      4455.7805      0.0002349449   23494.49     
     65500   255.44355      255.44331      0.0002324671   311.62159      2620.6142      1.0177122      4455.7805      0.0002324671   23246.71     
     65750   260.09831      260.0981       0.00020847148  317.30009      2668.3684      1.0177122      4455.7805      0.00020847148  20847.148    
     66000   237.7574       237.7572       0.00020578974  290.04586      2439.1707      1.0177122      4455.7805      0.00020578974  20578.974    
     66250   251.50939      251.50915      0.00024540364  306.82221      2580.2526      1.0177122      4455.7805      0.00024540364  24540.364    
     66500   252.12002      252.11978      0.00023930323  307.56713      2586.5177      1.0177122      4455.7805      0.00023930323  23930.323    
     66750   275.42273      275.4225       0.0002336414   335.99469      2825.5822      1.0177122      4455.7805      0.0002336414   23364.14     
     67000   251.57835      251.57811      0.00023227287  306.90634      2580.9608      1.0177122      4455.7805      0.00023227287  23227.287    
     67250   243.52392      243.52368      0.0002306906   297.08054      2498.3294      1.0177122      4455.7805      0.0002306906   23069.06     
     67500   249.30269      249.30246      0.00023095292  304.13021      2557.6143      1.0177122      4455.7805      0.00023095292  23095.292    
     67750   257.53208      257.53185      0.00023311587  314.16945      2642.0407      1.0177122      4455.7805      0.00023311587  23311.587    
     68000   255.181        255.18076      0.0002374981   311.30129      2617.9202      1.0177122      4455.7805      0.0002374981   23749.81     
     68250   251.2059       251.20571      0.00018540284  306.45204      2577.1405      1.0177122      4455.7805      0.00018540284  18540.284    
     68500   236.54799      236.54777      0.00021876058  288.57045      2426.763       1.0177122      4455.7805      0.00021876058  21876.058    
     68750   244.41769      244.41746      0.0002284849   298.17089      2507.4988      1.0177122      4455.7805      0.0002284849   22848.49     
     69000   249.99343      249.99321      0.00021833994  304.97288      2564.701       1.0177122      4455.7805      0.00021833994  21833.994    
     69250   234.85636      234.85612      0.00023433306  286.50677      2409.4081      1.0177122      4455.7805      0.00023433306  23433.306    
     69500   257.78027      257.78005      0.00021288563  314.47224      2644.5868      1.0177122      4455.7805      0.00021288563  21288.563    
     69750   231.43498      231.43471      0.00026899507  282.33291      2374.3071      1.0177122      4455.7805      0.00026899507  26899.507    
     70000   249.13931      249.13908      0.00023417441  303.9309       2555.9386      1.0177122      4455.7805      0.00023417441  23417.441    
     70250   257.63636      257.63613      0.00023300577  314.29666      2643.1102      1.0177122      4455.7805      0.00023300577  23300.577    
     70500   237.09017      237.0899       0.00026677881  289.23181      2432.3242      1.0177122      4455.7805      0.00026677881  26677.881    
     70750   263.20641      263.20616      0.00024532191  321.09168      2700.2537      1.0177122      4455.7805      0.00024532191  24532.191    
     71000   239.84937      239.84916      0.00020954528  292.59791      2460.6325      1.0177122      4455.7805      0.00020954528  20954.528    
     71250   242.68167      242.68146      0.00020949199  296.05309      2489.689       1.0177122      4455.7805      0.00020949199  20949.199    
     71500   238.64968      238.64949      0.00019751928  291.13439      2448.325       1.0177122      4455.7805      0.00019751928  19751.928    
     71750   236.5332       236.53298      0.00022216576  288.55241      2426.6111      1.0177122      4455.7805      0.00022216576  22216.576    
     72000   256.70528      256.70503      0.00024470418  313.16079      2633.5581      1.0177122      4455.7805      0.00024470418  24470.418    
     72250   255.23107      255.23083      0.00024746697  311.36238      2618.434       1.0177122      4455.7805      0.00024746697  24746.697    
     72500   249.91642      249.9162       0.00022271176  304.87893      2563.9109      1.0177122      4455.7805      0.00022271176  22271.176    
     72750   274.45728      274.45707      0.00021339139  334.81694      2815.6783      1.0177122      4455.7805      0.00021339139  21339.139    
     73000   252.63314      252.63289      0.00024534285  308.19309      2591.7814      1.0177122      4455.7805      0.00024534285  24534.285    
     73250   261.28543      261.28519      0.00023513126  318.74824      2680.5467      1.0177122      4455.7805      0.00023513126  23513.126    
     73500   243.55021      243.54997      0.00023835843  297.11261      2498.5992      1.0177122      4455.7805      0.00023835843  23835.843    
     73750   253.76828      253.76803      0.00024550283  309.57787      2603.4267      1.0177122      4455.7805      0.00024550283  24550.283    
     74000   252.37383      252.37361      0.00022934031  307.87678      2589.122       1.0177122      4455.7805      0.00022934031  22934.031    
     74250   232.00124      232.00101      0.00022854785  283.02375      2380.1172      1.0177122      4455.7805      0.00022854785  22854.785    
     74500   257.82431      257.8241       0.00021026547  314.52598      2645.039       1.0177122      4455.7805      0.00021026547  21026.547    
     74750   247.68159      247.68139      0.00020195484  302.15263      2540.9847      1.0177122      4455.7805      0.00020195484  20195.484    
     75000   251.16823      251.16799      0.0002349079   306.40603      2576.7528      1.0177122      4455.7805      0.0002349079   23490.79     
     75250   247.96641      247.96618      0.00023508408  302.50005      2543.9053      1.0177122      4455.7805      0.00023508408  23508.408    
     75500   236.39781      236.39758      0.00023151511  288.38723      2425.2222      1.0177122      4455.7805      0.00023151511  23151.511    
     75750   243.03201      243.03177      0.00023957061  296.48044      2493.2826      1.0177122      4455.7805      0.00023957061  23957.061    
     76000   259.80993      259.80969      0.00023427866  316.94825      2665.4096      1.0177122      4455.7805      0.00023427866  23427.866    
     76250   227.95445      227.95423      0.00022191854  278.08698      2338.6012      1.0177122      4455.7805      0.00022191854  22191.854    
     76500   261.42186      261.42164      0.00021468521  318.9147       2681.9462      1.0177122      4455.7805      0.00021468521  21468.521    
     76750   237.33367      237.33343      0.00024764843  289.52889      2434.823       1.0177122      4455.7805      0.00024764843  24764.843    
     77000   234.11596      234.11571      0.00024586276  285.60353      2401.8123      1.0177122      4455.7805      0.00024586276  24586.276    
     77250   243.25364      243.25341      0.00023184276  296.75083      2495.5564      1.0177122      4455.7805      0.00023184276  23184.276    
     77500   252.57269      252.57248      0.00021164348  308.1194       2591.1627      1.0177122      4455.7805      0.00021164348  21164.348    
     77750   248.54085      248.54063      0.00021318989  303.20084      2549.799       1.0177122      4455.7805      0.00021318989  21318.989    
     78000   238.0172       238.017        0.00020219932  290.36281      2441.8362      1.0177122      4455.7805      0.00020219932  20219.932    
     78250   246.69697      246.69673      0.00024305187  300.95142      2530.882       1.0177122      4455.7805      0.00024305187  24305.187    
     78500   251.51168      251.51144      0.00023516196  306.82501      2580.2765      1.0177122      4455.7805      0.00023516196  23516.196    
     78750   241.50859      241.50838      0.00021465966  294.62202      2477.6543      1.0177122      4455.7805      0.00021465966  21465.966    
     79000   246.85922      246.85898      0.00024397591  301.14935      2532.5469      1.0177122      4455.7805      0.00024397591  24397.591    
     79250   252.72423      252.72399      0.00024500126  308.30422      2592.7162      1.0177122      4455.7805      0.00024500126  24500.126    
     79500   241.7257       241.72544      0.00025892518  294.88682      2479.8808      1.0177122      4455.7805      0.00025892518  25892.518    
     79750   237.13955      237.1393       0.00025359149  289.29207      2432.8307      1.0177122      4455.7805      0.00025359149  25359.149    
     80000   257.43817      257.43794      0.00022179253  314.05489      2641.0771      1.0177122      4455.7805      0.00022179253  22179.253    
     80250   248.5675       248.56726      0.00024191007  303.23332      2550.0717      1.0177122      4455.7805      0.00024191007  24191.007    
     80500   251.20652      251.2063       0.00021725192  306.45276      2577.1463      1.0177122      4455.7805      0.00021725192  21725.192    
     80750   250.53642      250.53618      0.00023294073  305.63526      2570.2716      1.0177122      4455.7805      0.00023294073  23294.073    
     81000   258.2125       258.21229      0.00020907035  314.99954      2649.0216      1.0177122      4455.7805      0.00020907035  20907.035    
     81250   260.30209      260.30188      0.00021596636  317.54867      2670.4589      1.0177122      4455.7805      0.00021596636  21596.636    
     81500   236.35303      236.35281      0.00022309682  288.33261      2424.7624      1.0177122      4455.7805      0.00022309682  22309.682    
     81750   225.06813      225.06789      0.00023975642  274.56586      2308.9894      1.0177122      4455.7805      0.00023975642  23975.642    
     82000   239.20126      239.20104      0.00021749166  291.80724      2453.9833      1.0177122      4455.7805      0.00021749166  21749.166    
     82250   260.98145      260.98124      0.00021025867  318.37744      2677.4287      1.0177122      4455.7805      0.00021025867  21025.867    
     82500   229.30507      229.30481      0.00026133777  279.73459      2352.456       1.0177122      4455.7805      0.00026133777  26133.777    
     82750   248.98547      248.98527      0.00020084771  303.74327      2554.361       1.0177122      4455.7805      0.00020084771  20084.771    
     83000   231.61825      231.61803      0.00021817758  282.55654      2376.1883      1.0177122      4455.7805      0.00021817758  21817.758    
     83250   235.89719      235.89696      0.00023121398  287.77651      2420.0858      1.0177122      4455.7805      0.00023121398  23121.398    
     83500   253.35031      253.35006      0.00024894232  309.06798      2599.1384      1.0177122      4455.7805      0.00024894232  24894.232    
     83750   267.90029      267.90003      0.00025636194  326.81785      2748.4087      1.0177122      4455.7805      0.00025636194  25636.194    
     84000   228.35365      228.3534       0.00024412925  278.57394      2342.6958      1.0177122      4455.7805      0.00024412925  24412.925    
     84250   255.11398      255.11373      0.0002425786   311.21953      2617.2332      1.0177122      4455.7805      0.0002425786   24257.86     
     84500   246.39025      246.38999      0.00026330655  300.57722      2527.735       1.0177122      4455.7805      0.00026330655  26330.655    
     84750   259.86317      259.86294      0.00022759266  317.0132       2665.9556      1.0177122      4455.7805      0.00022759266  22759.266    
     85000   239.71573      239.7155       0.0002350018   292.43484      2459.2606      1.0177122      4455.7805      0.0002350018   23500.18     
     85250   255.97428      255.97404      0.000238223    312.26904      2626.059       1.0177122      4455.7805      0.000238223    23822.3      
     85500   231.92574      231.9255       0.00023768221  282.93164      2379.3424      1.0177122      4455.7805      0.00023768221  23768.221    
     85750   260.43004      260.4298       0.0002459722   317.70473      2671.7706      1.0177122      4455.7805      0.0002459722   24597.22     
     86000   241.57909      241.57887      0.00022482734  294.70801      2478.3773      1.0177122      4455.7805      0.00022482734  22482.734    
     86250   248.51514      248.51489      0.00024661437  303.16944      2549.5345      1.0177122      4455.7805      0.00024661437  24661.437    
     86500   251.57188      251.57166      0.00021936095  306.89847      2580.8948      1.0177122      4455.7805      0.00021936095  21936.095    
     86750   236.80417      236.80394      0.00023098756  288.88297      2429.3908      1.0177122      4455.7805      0.00023098756  23098.756    
     87000   236.3802       236.37998      0.00021669045  288.36577      2425.0419      1.0177122      4455.7805      0.00021669045  21669.045    
     87250   245.2875       245.28726      0.00023626758  299.23198      2516.4223      1.0177122      4455.7805      0.00023626758  23626.758    
     87500   250.61068      250.61045      0.00023474429  305.72586      2571.0332      1.0177122      4455.7805      0.00023474429  23474.429    
     87750   268.26814      268.26787      0.00026829602  327.26658      2752.1815      1.0177122      4455.7805      0.00026829602  26829.602    
     88000   249.89653      249.89628      0.00025507823  304.85463      2563.7061      1.0177122      4455.7805      0.00025507823  25507.823    
     88250   247.02211      247.02187      0.00023507546  301.34807      2534.2175      1.0177122      4455.7805      0.00023507546  23507.546    
     88500   242.92152      242.9213       0.0002169006   296.34568      2492.1495      1.0177122      4455.7805      0.0002169006   21690.06     
     88750   242.49797      242.49774      0.00022720161  295.82897      2487.8043      1.0177122      4455.7805      0.00022720161  22720.161    
     89000   247.41769      247.41748      0.00020898936  301.83069      2538.2765      1.0177122      4455.7805      0.00020898936  20898.936    
     89250   226.71825      226.718        0.00025053408  276.57887      2325.9181      1.0177122      4455.7805      0.00025053408  25053.408    
     89500   255.03366      255.03344      0.00022254666  311.12158      2616.4088      1.0177122      4455.7805      0.00022254666  22254.666    
     89750   262.88229      262.88204      0.00024479497  320.69628      2696.9288      1.0177122      4455.7805      0.00024479497  24479.497    
     90000   258.44147      258.44125      0.00021538083  315.27885      2651.3702      1.0177122      4455.7805      0.00021538083  21538.083    
     90250   253.34911      253.34889      0.00021643024  309.06656      2599.1275      1.0177122      4455.7805      0.00021643024  21643.024    
     90500   226.18884      226.18862      0.00022128232  275.93307      2320.4877      1.0177122      4455.7805      0.00022128232  22128.232    
     90750   266.95809      266.95787      0.00022469028  325.66848      2738.7434      1.0177122      4455.7805      0.00022469028  22469.028    
     91000   251.43041      251.43019      0.00022102721  306.72588      2579.4431      1.0177122      4455.7805      0.00022102721  22102.721    
     91250   246.30484      246.30461      0.00022381175  300.47307      2526.8592      1.0177122      4455.7805      0.00022381175  22381.175    
     91500   245.36222      245.36201      0.00021333214  299.32316      2517.1892      1.0177122      4455.7805      0.00021333214  21333.214    
     91750   257.70863      257.70838      0.00024213406  314.38481      2643.8517      1.0177122      4455.7805      0.00024213406  24213.406    
     92000   256.46501      256.46477      0.00023738078  312.86769      2631.0931      1.0177122      4455.7805      0.00023738078  23738.078    
     92250   259.5731       259.57289      0.00020870411  316.65936      2662.9802      1.0177122      4455.7805      0.00020870411  20870.411    
     92500   259.52771      259.52746      0.00024119297  316.60395      2662.5139      1.0177122      4455.7805      0.00024119297  24119.297    
     92750   230.44196      230.44172      0.00023859352  281.12153      2364.1201      1.0177122      4455.7805      0.00023859352  23859.352    
     93000   273.52518      273.52494      0.00023781803  333.67982      2806.1152      1.0177122      4455.7805      0.00023781803  23781.803    
     93250   258.12727      258.12701      0.00026833385  314.8955       2648.1457      1.0177122      4455.7805      0.00026833385  26833.385    
     93500   262.63148      262.63124      0.00024674834  320.39032      2694.3557      1.0177122      4455.7805      0.00024674834  24674.834    
     93750   260.49304      260.49282      0.00022178609  317.78161      2672.4175      1.0177122      4455.7805      0.00022178609  22178.609    
     94000   228.87429      228.87406      0.00023248889  279.20911      2348.0374      1.0177122      4455.7805      0.00023248889  23248.889    
     94250   227.33702      227.33679      0.00022770978  277.33375      2332.2668      1.0177122      4455.7805      0.00022770978  22770.978    
     94500   245.312        245.31176      0.00024363141  299.26186      2516.6728      1.0177122      4455.7805      0.00024363141  24363.141    
     94750   241.50486      241.50465      0.00021428934  294.61747      2477.6161      1.0177122      4455.7805      0.00021428934  21428.934    
     95000   222.38408      222.38385      0.0002247563   271.29154      2281.4538      1.0177122      4455.7805      0.0002247563   22475.63     
     95250   220.2861       220.28587      0.00022099281  268.73217      2259.9307      1.0177122      4455.7805      0.00022099281  22099.281    
     95500   250.22254      250.22233      0.00020909852  305.25239      2567.0517      1.0177122      4455.7805      0.00020909852  20909.852    
     95750   240.64382      240.6436       0.00021512257  293.56706      2468.7826      1.0177122      4455.7805      0.00021512257  21512.257    
     96000   241.3892       241.38896      0.00024027468  294.47634      2476.4292      1.0177122      4455.7805      0.00024027468  24027.468    
     96250   235.54878      235.54854      0.00024049035  287.35147      2416.5112      1.0177122      4455.7805      0.00024049035  24049.035    
     96500   252.15328      252.15304      0.00023668119  307.60771      2586.8586      1.0177122      4455.7805      0.00023668119  23668.119    
     96750   248.31509      248.31485      0.00023609366  302.9254       2547.4823      1.0177122      4455.7805      0.00023609366  23609.366    
     97000   244.73979      244.73957      0.00021662907  298.56384      2510.8037      1.0177122      4455.7805      0.00021662907  21662.907    
     97250   257.80813      257.80792      0.00021576535  314.50623      2644.8729      1.0177122      4455.7805      0.00021576535  21576.535    
     97500   261.49762      261.49739      0.00022502043  319.00711      2682.7237      1.0177122      4455.7805      0.00022502043  22502.043    
     97750   262.51983      262.5196       0.00022554923  320.25413      2693.2101      1.0177122      4455.7805      0.00022554923  22554.923    
     98000   252.57346      252.57322      0.00024302013  308.12029      2591.1693      1.0177122      4455.7805      0.00024302013  24302.013    
     98250   223.72646      223.72623      0.00022941081  272.92915      2295.2256      1.0177122      4455.7805      0.00022941081  22941.081    
     98500   261.89538      261.89512      0.00026249269  319.49231      2686.8034      1.0177122      4455.7805      0.00026249269  26249.269    
     98750   247.51297      247.51273      0.00023462425  301.94688      2539.2537      1.0177122      4455.7805      0.00023462425  23462.425    
     99000   246.46656      246.46631      0.00024687688  300.67033      2528.5181      1.0177122      4455.7805      0.00024687688  24687.688    
     99250   267.24286      267.24261      0.00024504211  326.01585      2741.664       1.0177122      4455.7805      0.00024504211  24504.211    
     99500   272.47435      272.47412      0.00023649269  332.39789      2795.3344      1.0177122      4455.7805      0.00023649269  23649.269    
     99750   238.00764      238.00737      0.00026481788  290.35106      2441.7368      1.0177122      4455.7805      0.00026481788  26481.788    
    100000   238.42326      238.42303      0.00023580761  290.85813      2446.0013      1.0177122      4455.7805      0.00023580761  23580.761    
    100250   260.14716      260.14695      0.00021029634  317.35967      2668.8695      1.0177122      4455.7805      0.00021029634  21029.634    
    100500   240.10349      240.10326      0.00022560641  292.90789      2463.2389      1.0177122      4455.7805      0.00022560641  22560.641    
    100750   263.79388      263.79366      0.00021586452  321.80839      2706.2812      1.0177122      4455.7805      0.00021586452  21586.452    
    101000   241.15089      241.15064      0.00025019341  294.18561      2473.9839      1.0177122      4455.7805      0.00025019341  25019.341    
    101250   258.4062       258.40596      0.00024263892  315.23579      2651.008       1.0177122      4455.7805      0.00024263892  24263.892    
    101500   236.1809       236.18066      0.00024421531  288.1226       2422.9965      1.0177122      4455.7805      0.00024421531  24421.531    
    101750   278.21078      278.21056      0.00022498312  339.39592      2854.1853      1.0177122      4455.7805      0.00022498312  22498.312    
    102000   239.78621      239.78595      0.00025345544  292.5208       2459.9835      1.0177122      4455.7805      0.00025345544  25345.544    
    102250   249.33346      249.33325      0.00021107718  304.16778      2557.9305      1.0177122      4455.7805      0.00021107718  21107.718    
    102500   231.24608      231.24585      0.000230854    282.10252      2372.37        1.0177122      4455.7805      0.000230854    23085.4      
    102750   224.67207      224.67183      0.00024558277  274.0827       2304.9264      1.0177122      4455.7805      0.00024558277  24558.277    
    103000   231.20442      231.2042       0.00021713259  282.05171      2371.9427      1.0177122      4455.7805      0.00021713259  21713.259    
    103250   244.26184      244.26163      0.00021279835  297.98078      2505.9004      1.0177122      4455.7805      0.00021279835  21279.835    
    103500   257.00257      257.00235      0.00022004451  313.52351      2636.6084      1.0177122      4455.7805      0.00022004451  22004.451    
    103750   254.32302      254.32282      0.00020703405  310.25467      2609.1193      1.0177122      4455.7805      0.00020703405  20703.405    
    104000   245.29557      245.29534      0.00023314602  299.24183      2516.5048      1.0177122      4455.7805      0.00023314602  23314.602    
    104250   257.20069      257.20046      0.00023180834  313.76518      2638.6411      1.0177122      4455.7805      0.00023180834  23180.834    
    104500   264.61824      264.618        0.00023775368  322.81402      2714.7377      1.0177122      4455.7805      0.00023775368  23775.368    
    104750   267.05255      267.05232      0.00023227368  325.78371      2739.7119      1.0177122      4455.7805      0.00023227368  23227.368    
    105000   241.66808      241.66787      0.00020670135  294.8166       2479.2908      1.0177122      4455.7805      0.00020670135  20670.135    
    105250   261.07552      261.07532      0.00020217016  318.49222      2678.3934      1.0177122      4455.7805      0.00020217016  20217.016    
    105500   238.12832      238.1281       0.00022047533  290.49834      2442.976       1.0177122      4455.7805      0.00022047533  22047.533    
    105750   235.10678      235.10656      0.00022199116  286.81228      2411.9773      1.0177122      4455.7805      0.00022199116  22199.116    
    106000   230.73038      230.73013      0.00024931905  281.47337      2367.0789      1.0177122      4455.7805      0.00024931905  24931.905    
    106250   250.35873      250.35851      0.00022128316  305.41851      2568.4484      1.0177122      4455.7805      0.00022128316  22128.316    
    106500   262.64291      262.64267      0.00023229976  320.40427      2694.473       1.0177122      4455.7805      0.00023229976  23229.976    
    106750   261.6154       261.61518      0.00021761231  319.1508       2683.9321      1.0177122      4455.7805      0.00021761231  21761.231    
    107000   275.1494       275.14915      0.00025075435  335.66123      2822.7778      1.0177122      4455.7805      0.00025075435  25075.435    
    107250   243.15431      243.15406      0.00024806062  296.62963      2494.5376      1.0177122      4455.7805      0.00024806062  24806.062    
    107500   259.88612      259.8859       0.00021733306  317.04122      2666.1915      1.0177122      4455.7805      0.00021733306  21733.306    
    107750   239.1699       239.16966      0.00023867861  291.76896      2453.661       1.0177122      4455.7805      0.00023867861  23867.861    
    108000   265.20606      265.20584      0.00021542934  323.53114      2720.7689      1.0177122      4455.7805      0.00021542934  21542.934    
    108250   269.91524      269.915        0.00023901635  329.27596      2769.0801      1.0177122      4455.7805      0.00023901635  23901.635    
    108500   242.66547      242.66525      0.00022455116  296.03332      2489.5227      1.0177122      4455.7805      0.00022455116  22455.116    
    108750   250.11042      250.1102       0.000220596    305.1156       2565.9016      1.0177122      4455.7805      0.000220596    22059.6      
    109000   275.79466      275.79443      0.00022743998  336.44842      2829.3976      1.0177122      4455.7805      0.00022743998  22743.998    
    109250   236.96322      236.96299      0.00023421074  289.07699      2431.0226      1.0177122      4455.7805      0.00023421074  23421.074    
    109500   263.63344      263.63323      0.00021669743  321.61267      2704.6353      1.0177122      4455.7805      0.00021669743  21669.743    
    109750   244.29883      244.2986       0.00022681215  298.02588      2506.2794      1.0177122      4455.7805      0.00022681215  22681.215    
    110000   253.28412      253.2839       0.00021482351  308.98727      2598.4605      1.0177122      4455.7805      0.00021482351  21482.351    
    110250   247.89137      247.89114      0.00022772828  302.40851      2543.1357      1.0177122      4455.7805      0.00022772828  22772.828    
    110500   254.31015      254.30991      0.00023280663  310.23893      2608.9866      1.0177122      4455.7805      0.00023280663  23280.663    
    110750   249.20626      249.20602      0.00024136548  304.01256      2556.625       1.0177122      4455.7805      0.00024136548  24136.548    
    111000   246.49436      246.49412      0.0002397612   300.70426      2528.8036      1.0177122      4455.7805      0.0002397612   23976.12     
    111250   239.85421      239.85399      0.00021947106  292.6038       2460.6816      1.0177122      4455.7805      0.00021947106  21947.106    
    111500   263.34298      263.34274      0.00023894581  321.2583       2701.6549      1.0177122      4455.7805      0.00023894581  23894.581    
    111750   259.89634      259.8961       0.0002346624   317.05366      2666.2958      1.0177122      4455.7805      0.0002346624   23466.24     
    112000   251.11677      251.11653      0.00024159565  306.34324      2576.2249      1.0177122      4455.7805      0.00024159565  24159.565    
    112250   246.99985      246.99962      0.00022821011  301.32093      2533.9893      1.0177122      4455.7805      0.00022821011  22821.011    
    112500   265.95186      265.95162      0.00023618     324.44094      2728.4197      1.0177122      4455.7805      0.00023618     23618        
    112750   251.33448      251.33426      0.00021378902  306.60886      2578.4589      1.0177122      4455.7805      0.00021378902  21378.902    
    113000   254.34473      254.34449      0.00023558778  310.28111      2609.3409      1.0177122      4455.7805      0.00023558778  23558.778    
    113250   272.15564      272.15541      0.00022410234  332.00909      2792.0652      1.0177122      4455.7805      0.00022410234  22410.234    
    113500   254.80763      254.8074       0.00023032887  310.84582      2614.0902      1.0177122      4455.7805      0.00023032887  23032.887    
    113750   252.3249       252.32468      0.00022234352  307.81709      2588.62        1.0177122      4455.7805      0.00022234352  22234.352    
    114000   245.87349      245.87325      0.00023386766  299.94684      2522.4339      1.0177122      4455.7805      0.00023386766  23386.766    
    114250   246.79553      246.79529      0.00024635507  301.07165      2531.8933      1.0177122      4455.7805      0.00024635507  24635.507    
    114500   269.3748       269.37457      0.00023194991  328.61667      2763.5359      1.0177122      4455.7805      0.00023194991  23194.991    
    114750   245.26958      245.26937      0.00021178353  299.21015      2516.2392      1.0177122      4455.7805      0.00021178353  21178.353    
    115000   245.27953      245.27933      0.00020610806  299.22229      2516.3409      1.0177122      4455.7805      0.00020610806  20610.806    
    115250   253.23268      253.23246      0.00021771466  308.92452      2597.9329      1.0177122      4455.7805      0.00021771466  21771.466    
    115500   258.21918      258.21891      0.00026464728  315.00761      2649.0887      1.0177122      4455.7805      0.00026464728  26464.728    
    115750   243.0764       243.07617      0.00023479204  296.5346       2493.7384      1.0177122      4455.7805      0.00023479204  23479.204    
    116000   244.51896      244.51875      0.00020892038  298.29445      2508.5382      1.0177122      4455.7805      0.00020892038  20892.038    
    116250   250.88761      250.88736      0.00024199341  306.06368      2573.8743      1.0177122      4455.7805      0.00024199341  24199.341    
    116500   260.90339      260.90319      0.00019565761  318.28223      2676.6277      1.0177122      4455.7805      0.00019565761  19565.761    
    116750   258.05949      258.05925      0.00024077202  314.81284      2647.451       1.0177122      4455.7805      0.00024077202  24077.202    
    117000   256.63216      256.63197      0.00019494703  313.07166      2632.809       1.0177122      4455.7805      0.00019494703  19494.703    
    117250   252.25057      252.25032      0.00025298823  307.72638      2587.8566      1.0177122      4455.7805      0.00025298823  25298.823    
    117500   241.73104      241.7308       0.00023772477  294.89336      2479.9362      1.0177122      4455.7805      0.00023772477  23772.477    
    117750   236.47688      236.47666      0.00021979725  288.4837       2426.0333      1.0177122      4455.7805      0.00021979725  21979.725    
    118000   232.28009      232.27985      0.00024350359  283.36391      2382.9778      1.0177122      4455.7805      0.00024350359  24350.359    
    118250   262.50244      262.50222      0.00021795191  320.23293      2693.0322      1.0177122      4455.7805      0.00021795191  21795.191    
    118500   242.5242       242.52397      0.00023338382  295.86097      2488.0733      1.0177122      4455.7805      0.00023338382  23338.382    
    118750   256.10344      256.1032       0.00024668559  312.4266       2627.3839      1.0177122      4455.7805      0.00024668559  24668.559    
    119000   237.20413      237.20391      0.00022467816  289.37089      2433.4945      1.0177122      4455.7805      0.00022467816  22467.816    
    119250   269.45837      269.45813      0.00024148918  328.71861      2764.3932      1.0177122      4455.7805      0.00024148918  24148.918    
    119500   267.12531      267.12508      0.00022600761  325.87247      2740.4586      1.0177122      4455.7805      0.00022600761  22600.761    
    119750   260.90981      260.90955      0.0002602349   318.28999      2676.6924      1.0177122      4455.7805      0.0002602349   26023.49     
    120000   244.06136      244.06111      0.00024809155  297.73616      2503.8428      1.0177122      4455.7805      0.00024809155  24809.155    
    120250   260.10551      260.1053       0.00020490566  317.30887      2668.4423      1.0177122      4455.7805      0.00020490566  20490.566    
    120500   233.63734      233.6371       0.00024870006  285.01965      2396.9019      1.0177122      4455.7805      0.00024870006  24870.006    
    120750   247.65506      247.65484      0.00022155105  302.12024      2540.7115      1.0177122      4455.7805      0.00022155105  22155.105    
    121000   264.83785      264.8376       0.00025072909  323.08191      2716.9908      1.0177122      4455.7805      0.00025072909  25072.909    
    121250   266.33567      266.33544      0.00023742284  324.90916      2732.3575      1.0177122      4455.7805      0.00023742284  23742.284    
    121500   251.11599      251.11577      0.00021697938  306.34232      2576.2174      1.0177122      4455.7805      0.00021697938  21697.938    
    121750   248.15779      248.15755      0.00024428238  302.73351      2545.8686      1.0177122      4455.7805      0.00024428238  24428.238    
    122000   233.52565      233.52543      0.00022517499  284.88343      2395.7562      1.0177122      4455.7805      0.00022517499  22517.499    
    122250   253.74619      253.74597      0.00022187824  309.55096      2603.201       1.0177122      4455.7805      0.00022187824  22187.824    
    122500   238.55481      238.55458      0.00023792902  291.01861      2447.351       1.0177122      4455.7805      0.00023792902  23792.902    
    122750   257.60855      257.6083       0.00025178859  314.26272      2642.8245      1.0177122      4455.7805      0.00025178859  25178.859    
    123000   227.06708      227.06684      0.00024536211  277.00443      2329.4969      1.0177122      4455.7805      0.00024536211  24536.211    
    123250   258.86549      258.86529      0.00020364153  315.79614      2655.7208      1.0177122      4455.7805      0.00020364153  20364.153    
    123500   231.16551      231.16527      0.00023493883  282.00421      2371.544       1.0177122      4455.7805      0.00023493883  23493.883    
    123750   241.51828      241.51808      0.00019977898  294.63385      2477.7541      1.0177122      4455.7805      0.00019977898  19977.898    
    124000   270.88794      270.88774      0.00020746334  330.46263      2779.0601      1.0177122      4455.7805      0.00020746334  20746.334    
    124250   269.74791      269.74768      0.00023102635  329.07184      2767.364       1.0177122      4455.7805      0.00023102635  23102.635    
    124500   265.66487      265.66464      0.00022196377  324.09085      2725.4757      1.0177122      4455.7805      0.00022196377  22196.377    
    124750   246.72058      246.72034      0.00024523614  300.98022      2531.1241      1.0177122      4455.7805      0.00024523614  24523.614    
    125000   258.99829      258.99807      0.00022899111  315.95812      2657.0825      1.0177122      4455.7805      0.00022899111  22899.111    
    125250   287.82308      287.82285      0.00023134103  351.12219      2952.7987      1.0177122      4455.7805      0.00023134103  23134.103    
    125500   228.19006      228.18982      0.0002440536   278.37438      2341.0175      1.0177122      4455.7805      0.0002440536   24405.36     
    125750   250.63958      250.63936      0.0002222071   305.76113      2571.3297      1.0177122      4455.7805      0.0002222071   22220.71     
    126000   245.77714      245.77691      0.0002308047   299.82931      2521.4458      1.0177122      4455.7805      0.0002308047   23080.47     
    126250   242.3496       242.34938      0.00022391055  295.64798      2486.2824      1.0177122      4455.7805      0.00022391055  22391.055    
    126500   247.61577      247.61554      0.00022246339  302.0723       2540.3083      1.0177122      4455.7805      0.00022246339  22246.339    
    126750   239.24038      239.24013      0.00024788384  291.85493      2454.3838      1.0177122      4455.7805      0.00024788384  24788.384    
    127000   242.80161      242.80136      0.00025071125  296.19936      2490.919       1.0177122      4455.7805      0.00025071125  25071.125    
    127250   245.83907      245.83882      0.00024870697  299.90483      2522.0799      1.0177122      4455.7805      0.00024870697  24870.697    
    127500   238.26527      238.26505      0.00022308135  290.6654       2444.3809      1.0177122      4455.7805      0.00022308135  22308.135    
    127750   244.65615      244.65592      0.00023224909  298.46179      2509.9453      1.0177122      4455.7805      0.00023224909  23224.909    
    128000   244.65987      244.65964      0.00022366648  298.46633      2509.9835      1.0177122      4455.7805      0.00022366648  22366.648    
    128250   249.377        249.37675      0.00024649885  304.22084      2558.3763      1.0177122      4455.7805      0.00024649885  24649.885    
    128500   255.48993      255.48968      0.00024468135  311.67816      2621.0896      1.0177122      4455.7805      0.00024468135  24468.135    
    128750   263.03801      263.03778      0.00023693915  320.88627      2698.5259      1.0177122      4455.7805      0.00023693915  23693.915    
    129000   221.91365      221.91344      0.00021263702  270.71767      2276.6284      1.0177122      4455.7805      0.00021263702  21263.702    
    129250   231.63086      231.63063      0.00022956023  282.57192      2376.3173      1.0177122      4455.7805      0.00022956023  22956.023    
    129500   268.23972      268.23952      0.00019767593  327.232        2751.8922      1.0177122      4455.7805      0.00019767593  19767.593    
    129750   264.43359      264.43335      0.00024598784  322.58875      2712.8435      1.0177122      4455.7805      0.00024598784  24598.784    
    130000   265.03754      265.03727      0.00027668795  323.32549      2719.0389      1.0177122      4455.7805      0.00027668795  27668.795    
    130250   233.4374       233.43715      0.00025006787  284.77573      2394.8505      1.0177122      4455.7805      0.00025006787  25006.787    
    130500   231.30685      231.30661      0.00023879831  282.17663      2372.993       1.0177122      4455.7805      0.00023879831  23879.831    
    130750   238.83575      238.8355       0.00025627049  291.36131      2450.2326      1.0177122      4455.7805      0.00025627049  25627.049    
    131000   254.51317      254.5129       0.00026913012  310.48656      2611.0682      1.0177122      4455.7805      0.00026913012  26913.012    
    131250   234.1526       234.15239      0.00021075036  285.64827      2402.1888      1.0177122      4455.7805      0.00021075036  21075.036    
    131500   240.67821      240.67796      0.00025186132  293.60898      2469.1349      1.0177122      4455.7805      0.00025186132  25186.132    
    131750   235.49757      235.49737      0.00019798214  287.28905      2415.9874      1.0177122      4455.7805      0.00019798214  19798.214    
    132000   253.82132      253.82107      0.00024739534  309.64258      2603.971       1.0177122      4455.7805      0.00024739534  24739.534    
    132250   257.16667      257.16643      0.00024224353  313.72367      2638.2914      1.0177122      4455.7805      0.00024224353  24224.353    
    132500   279.05718      279.05696      0.00022191393  340.42847      2862.8692      1.0177122      4455.7805      0.00022191393  22191.393    
    132750   256.661        256.66073      0.00026468566  313.10675      2633.1031      1.0177122      4455.7805      0.00026468566  26468.566    
    133000   248.71058      248.71034      0.00023552989  303.40788      2551.5399      1.0177122      4455.7805      0.00023552989  23552.989    
    133250   229.19884      229.19858      0.00025678426  279.605        2351.3665      1.0177122      4455.7805      0.00025678426  25678.426    
    133500   255.8818       255.88159      0.00020764238  312.15626      2625.1108      1.0177122      4455.7805      0.00020764238  20764.238    
    133750   248.30801      248.30778      0.00022619309  302.91679      2547.4101      1.0177122      4455.7805      0.00022619309  22619.309    
    134000   252.86236      252.86214      0.00021567584  308.47276      2594.1338      1.0177122      4455.7805      0.00021567584  21567.584    
    134250   226.19877      226.19855      0.00022066996  275.94519      2320.5897      1.0177122      4455.7805      0.00022066996  22066.996    
    134500   242.99806      242.99785      0.00020791892  296.43907      2492.9353      1.0177122      4455.7805      0.00020791892  20791.892    
    134750   257.4346       257.43437      0.00022917737  314.05054      2641.0406      1.0177122      4455.7805      0.00022917737  22917.737    
    135000   250.86003      250.85978      0.00025291155  306.03002      2573.5908      1.0177122      4455.7805      0.00025291155  25291.155    
    135250   241.84484      241.84459      0.00024534684  295.03218      2481.1034      1.0177122      4455.7805      0.00024534684  24534.684    
    135500   272.34288      272.34267      0.00020673141  332.23753      2793.9863      1.0177122      4455.7805      0.00020673141  20673.141    
    135750   259.71482      259.71461      0.00020525118  316.83225      2664.4343      1.0177122      4455.7805      0.00020525118  20525.118    
    136000   235.18604      235.18581      0.00022734878  286.90897      2412.7905      1.0177122      4455.7805      0.00022734878  22734.878    
    136250   248.62369      248.62346      0.00022919459  303.30188      2550.6484      1.0177122      4455.7805      0.00022919459  22919.459    
    136500   250.09842      250.09817      0.00024502593  305.10093      2565.7776      1.0177122      4455.7805      0.00024502593  24502.593    
    136750   261.33169      261.33146      0.00023005017  318.80469      2681.0209      1.0177122      4455.7805      0.00023005017  23005.017    
    137000   243.20745      243.20722      0.00023472181  296.69448      2495.0829      1.0177122      4455.7805      0.00023472181  23472.181    
    137250   239.20186      239.20162      0.00024057378  291.80795      2453.9889      1.0177122      4455.7805      0.00024057378  24057.378    
    137500   240.09951      240.09929      0.00022215474  292.90304      2463.1984      1.0177122      4455.7805      0.00022215474  22215.474    
    137750   269.07294      269.07272      0.0002208478   328.24844      2760.4397      1.0177122      4455.7805      0.0002208478   22084.78     
    138000   284.71919      284.71897      0.0002233175   347.33569      2920.9556      1.0177122      4455.7805      0.0002233175   22331.75     
    138250   254.28145      254.28122      0.00023204317  310.20393      2608.6921      1.0177122      4455.7805      0.00023204317  23204.317    
    138500   268.14017      268.13993      0.00024198743  327.11051      2750.8698      1.0177122      4455.7805      0.00024198743  24198.743    
    138750   266.74415      266.7439       0.0002548494   325.40745      2736.5473      1.0177122      4455.7805      0.0002548494   25484.94     
    139000   226.19449      226.19424      0.00025752012  275.93992      2320.5446      1.0177122      4455.7805      0.00025752012  25752.012    
    139250   248.51326      248.513        0.00025642381  303.16714      2549.5154      1.0177122      4455.7805      0.00025642381  25642.381    
    139500   249.50664      249.5064       0.00024088535  304.37901      2559.7067      1.0177122      4455.7805      0.00024088535  24088.535    
    139750   242.21723      242.21699      0.00023923325  295.48647      2484.924       1.0177122      4455.7805      0.00023923325  23923.325    
    140000   251.67574      251.67552      0.00021652309  307.02517      2581.9601      1.0177122      4455.7805      0.00021652309  21652.309    
    140250   246.90592      246.90569      0.00022799395  301.20633      2533.0258      1.0177122      4455.7805      0.00022799395  22799.395    
    140500   237.30684      237.3066       0.00024269308  289.49617      2434.5475      1.0177122      4455.7805      0.00024269308  24269.308    
    140750   235.26328      235.26307      0.000210362    287.00322      2413.5837      1.0177122      4455.7805      0.000210362    21036.2      
    141000   234.67646      234.67623      0.00023688609  286.28731      2407.5622      1.0177122      4455.7805      0.00023688609  23688.609    
    141250   278.36372      278.36348      0.00023297645  339.58247      2855.7541      1.0177122      4455.7805      0.00023297645  23297.645    
    141500   247.09871      247.09849      0.00021736     301.44154      2535.004       1.0177122      4455.7805      0.00021736     21736        
    141750   242.96583      242.9656       0.00023245614  296.39972      2492.6038      1.0177122      4455.7805      0.00023245614  23245.614    
    142000   268.18863      268.18841      0.00021464421  327.16966      2751.3678      1.0177122      4455.7805      0.00021464421  21464.421    
    142250   242.87932      242.87912      0.00020248175  296.29422      2491.7172      1.0177122      4455.7805      0.00020248175  20248.175    
    142500   257.43179      257.43157      0.00022281143  314.04712      2641.0115      1.0177122      4455.7805      0.00022281143  22281.143    
    142750   268.24147      268.24124      0.00022999733  327.2341       2751.9095      1.0177122      4455.7805      0.00022999733  22999.733    
    143000   261.20095      261.20074      0.00020797968  318.64522      2679.6804      1.0177122      4455.7805      0.00020797968  20797.968    
    143250   257.53755      257.5373       0.00024230468  314.1761       2642.0964      1.0177122      4455.7805      0.00024230468  24230.468    
    143500   238.64189      238.64168      0.00020803406  291.12487      2448.2446      1.0177122      4455.7805      0.00020803406  20803.406    
    143750   262.90404      262.90382      0.00022122575  320.72285      2697.1524      1.0177122      4455.7805      0.00022122575  22122.575    
    144000   249.00678      249.00654      0.00023531933  303.76922      2554.5787      1.0177122      4455.7805      0.00023531933  23531.933    
    144250   261.41667      261.41649      0.0001852401   318.90842      2681.8943      1.0177122      4455.7805      0.0001852401   18524.01     
    144500   246.46234      246.46212      0.00022122928  300.66521      2528.475       1.0177122      4455.7805      0.00022122928  22122.928    
    144750   239.843        239.84278      0.00022051645  292.59012      2460.5671      1.0177122      4455.7805      0.00022051645  22051.645    
    145000   263.99747      263.99724      0.00022714278  322.05674      2708.3697      1.0177122      4455.7805      0.00022714278  22714.278    
    145250   236.27185      236.27163      0.00021923375  288.23359      2423.93        1.0177122      4455.7805      0.00021923375  21923.375    
    145500   257.82414      257.82393      0.00021421907  314.52577      2645.0375      1.0177122      4455.7805      0.00021421907  21421.907    
    145750   248.28781      248.28758      0.0002286002   302.89214      2547.2027      1.0177122      4455.7805      0.0002286002   22860.02     
    146000   249.48423      249.48403      0.00020755902  304.35171      2559.4775      1.0177122      4455.7805      0.00020755902  20755.902    
    146250   251.76556      251.76536      0.00020442704  307.13477      2582.8818      1.0177122      4455.7805      0.00020442704  20442.704    
    146500   251.00877      251.00853      0.00024019324  306.21149      2575.1172      1.0177122      4455.7805      0.00024019324  24019.324    
    146750   253.23415      253.23395      0.00020806487  308.92633      2597.9481      1.0177122      4455.7805      0.00020806487  20806.487    
    147000   263.98703      263.98677      0.00025794482  322.04397      2708.2622      1.0177122      4455.7805      0.00025794482  25794.482    
    147250   247.39481      247.39453      0.00028366849  301.80268      2538.0397      1.0177122      4455.7805      0.00028366849  28366.849    
    147500   239.87623      239.87603      0.00020605126  292.63068      2460.9083      1.0177122      4455.7805      0.00020605126  20605.126    
    147750   222.48691      222.48669      0.00022301412  271.41699      2282.5087      1.0177122      4455.7805      0.00022301412  22301.412    
    148000   258.34059      258.34039      0.0001997866   315.1558       2650.3359      1.0177122      4455.7805      0.0001997866   19978.66     
    148250   251.41674      251.41651      0.00022906713  306.7092       2579.3029      1.0177122      4455.7805      0.00022906713  22906.713    
    148500   242.63764      242.63739      0.00024712729  295.99934      2489.2365      1.0177122      4455.7805      0.00024712729  24712.729    
    148750   254.71063      254.71039      0.00023830292  310.72749      2613.095       1.0177122      4455.7805      0.00023830292  23830.292    
    149000   245.8354       245.83516      0.00023991725  299.90037      2522.0428      1.0177122      4455.7805      0.00023991725  23991.725    
    149250   245.66593      245.66571      0.00021491335  299.69366      2520.3049      1.0177122      4455.7805      0.00021491335  21491.335    
    149500   247.49708      247.49685      0.00022895862  301.92751      2539.0908      1.0177122      4455.7805      0.00022895862  22895.862    
    149750   242.58714      242.58691      0.00023217841  295.93774      2488.7193      1.0177122      4455.7805      0.00023217841  23217.841    
    150000   235.21883      235.21859      0.00024046972  286.94895      2413.1265      1.0177122      4455.7805      0.00024046972  24046.972    
    150250   254.77043      254.7702       0.00023563557  310.80044      2613.7084      1.0177122      4455.7805      0.00023563557  23563.557    
    150500   242.39399      242.39378      0.000205926    295.70215      2486.7381      1.0177122      4455.7805      0.000205926    20592.6      
    150750   251.65743      251.6572       0.00022648827  307.00282      2581.7719      1.0177122      4455.7805      0.00022648827  22648.827    
    151000   241.25663      241.25639      0.00023673546  294.31462      2475.0691      1.0177122      4455.7805      0.00023673546  23673.546    
    151250   242.11137      242.11114      0.00022726031  295.35735      2483.8381      1.0177122      4455.7805      0.00022726031  22726.031    
    151500   269.41874      269.41852      0.00022517396  328.67029      2763.9871      1.0177122      4455.7805      0.00022517396  22517.396    
    151750   265.00852      265.00828      0.00023502326  323.29014      2718.7423      1.0177122      4455.7805      0.00023502326  23502.326    
    152000   250.31816      250.31791      0.00024964547  305.36898      2568.0319      1.0177122      4455.7805      0.00024964547  24964.547    
    152250   255.39437      255.39417      0.00020172845  311.56164      2620.1103      1.0177122      4455.7805      0.00020172845  20172.845    
    152500   234.62629      234.62606      0.00023721243  286.22611      2407.0478      1.0177122      4455.7805      0.00023721243  23721.243    
    152750   263.11667      263.11645      0.00021547031  320.98224      2699.3334      1.0177122      4455.7805      0.00021547031  21547.031    
    153000   259.19548      259.19524      0.0002469613   316.19866      2659.1051      1.0177122      4455.7805      0.0002469613   24696.13     
    153250   252.44877      252.44854      0.00022262193  307.9682       2589.8907      1.0177122      4455.7805      0.00022262193  22262.193    
    153500   250.41945      250.41922      0.00023195787  305.49257      2569.0713      1.0177122      4455.7805      0.00023195787  23195.787    
    153750   235.04457      235.04431      0.00026502814  286.73634      2411.3384      1.0177122      4455.7805      0.00026502814  26502.814    
    154000   271.35108      271.35085      0.00022970685  331.02759      2783.8112      1.0177122      4455.7805      0.00022970685  22970.685    
    154250   231.69991      231.69966      0.00024309163  282.65613      2377.0254      1.0177122      4455.7805      0.00024309163  24309.163    
    154500   264.0293       264.02909      0.00020547758  322.09559      2708.6963      1.0177122      4455.7805      0.00020547758  20547.758    
    154750   242.33754      242.3373       0.00023413982  295.63325      2486.1583      1.0177122      4455.7805      0.00023413982  23413.982    
    155000   250.89718      250.89694      0.00023653584  306.07536      2573.9724      1.0177122      4455.7805      0.00023653584  23653.584    
    155250   240.85835      240.85812      0.00022202037  293.82876      2470.9834      1.0177122      4455.7805      0.00022202037  22202.037    
    155500   255.87544      255.87523      0.0002177899   312.14849      2625.045       1.0177122      4455.7805      0.0002177899   21778.99     
    155750   257.40505      257.40481      0.00023949441  314.01447      2640.737       1.0177122      4455.7805      0.00023949441  23949.441    
    156000   273.24946      273.24924      0.00022338639  333.34348      2803.2868      1.0177122      4455.7805      0.00022338639  22338.639    
    156250   235.17034      235.1701       0.00023701483  286.8898       2412.6288      1.0177122      4455.7805      0.00023701483  23701.483    
    156500   259.33965      259.33938      0.00026876968  316.3745       2660.5836      1.0177122      4455.7805      0.00026876968  26876.968    
    156750   250.57289      250.57268      0.00021025794  305.67979      2570.6461      1.0177122      4455.7805      0.00021025794  21025.794    
    157000   247.37703      247.37682      0.00021147906  301.78108      2537.8595      1.0177122      4455.7805      0.00021147906  21147.906    
    157250   259.45844      259.45822      0.0002201485   316.51948      2661.8041      1.0177122      4455.7805      0.0002201485   22014.85     
    157500   240.88547      240.88525      0.00022636452  293.86185      2471.2614      1.0177122      4455.7805      0.00022636452  22636.452    
    157750   253.1202       253.11998      0.00021504247  308.78731      2596.7791      1.0177122      4455.7805      0.00021504247  21504.247    
    158000   235.1915       235.19127      0.00022875953  286.91562      2412.8463      1.0177122      4455.7805      0.00022875953  22875.953    
    158250   249.02826      249.02804      0.00021533983  303.79545      2554.7991      1.0177122      4455.7805      0.00021533983  21533.983    
    158500   252.19478      252.19455      0.00023031655  307.65835      2587.2847      1.0177122      4455.7805      0.00023031655  23031.655    
    158750   248.91773      248.9175       0.0002282786   303.6606       2553.6653      1.0177122      4455.7805      0.0002282786   22827.86     
    159000   264.83338      264.83314      0.00024676359  323.07647      2716.9452      1.0177122      4455.7805      0.00024676359  24676.359    
    159250   246.65829      246.65804      0.00025176863  300.90422      2530.4845      1.0177122      4455.7805      0.00025176863  25176.863    
    159500   254.04707      254.04684      0.00022991178  309.918        2606.2878      1.0177122      4455.7805      0.00022991178  22991.178    
    159750   241.67364      241.67341      0.00022447044  294.82335      2479.3472      1.0177122      4455.7805      0.00022447044  22447.044    
    160000   251.00614      251.00592      0.00022226392  306.2083       2575.0905      1.0177122      4455.7805      0.00022226392  22226.392    
    160250   261.7141       261.71386      0.00023473313  319.27119      2684.9442      1.0177122      4455.7805      0.00023473313  23473.313    
    160500   254.63615      254.63591      0.00024302228  310.63662      2612.3305      1.0177122      4455.7805      0.00024302228  24302.228    
    160750   262.66533      262.66511      0.00022179466  320.43164      2694.7032      1.0177122      4455.7805      0.00022179466  22179.466    
    161000   246.99109      246.99087      0.00021317241  301.31025      2533.9         1.0177122      4455.7805      0.00021317241  21317.241    
    161250   252.08362      252.08338      0.00024542948  307.52272      2586.1443      1.0177122      4455.7805      0.00024542948  24542.948    
    161500   227.98698      227.98673      0.00024911573  278.12663      2338.9341      1.0177122      4455.7805      0.00024911573  24911.573    
    161750   229.88899      229.88876      0.00022966364  280.44696      2358.4475      1.0177122      4455.7805      0.00022966364  22966.364    
    162000   241.43675      241.43651      0.00024120558  294.53434      2476.917       1.0177122      4455.7805      0.00024120558  24120.558    
    162250   252.03082      252.03062      0.00020752604  307.45836      2585.6031      1.0177122      4455.7805      0.00020752604  20752.604    
    162500   267.70588      267.70567      0.00021397688  326.58074      2746.4151      1.0177122      4455.7805      0.00021397688  21397.688    
    162750   253.366        253.36577      0.00023437921  309.08714      2599.2998      1.0177122      4455.7805      0.00023437921  23437.921    
    163000   258.01146      258.01124      0.00022221638  314.75427      2646.9589      1.0177122      4455.7805      0.00022221638  22221.638    
    163250   245.45203      245.4518       0.00023548565  299.4327       2518.1098      1.0177122      4455.7805      0.00023548565  23548.565    
    163500   254.88696      254.88674      0.00022677374  310.94261      2614.9043      1.0177122      4455.7805      0.00022677374  22677.374    
    163750   270.12607      270.12584      0.00023783782  329.53316      2771.2437      1.0177122      4455.7805      0.00023783782  23783.782    
    164000   250.56005      250.55983      0.00021957194  305.66411      2570.5139      1.0177122      4455.7805      0.00021957194  21957.194    
    164250   238.82035      238.82012      0.00022602084  291.34255      2450.0751      1.0177122      4455.7805      0.00022602084  22602.084    
    164500   260.23853      260.2383       0.0002277353   317.47112      2669.8063      1.0177122      4455.7805      0.0002277353   22773.53     
    164750   228.25469      228.25449      0.00020621696  278.45327      2341.6822      1.0177122      4455.7805      0.00020621696  20621.696    
    165000   252.82751      252.82726      0.00024777407  308.4302       2593.7755      1.0177122      4455.7805      0.00024777407  24777.407    
    165250   244.96751      244.96728      0.00022893153  298.84162      2513.1393      1.0177122      4455.7805      0.00022893153  22893.153    
    165500   251.09408      251.09385      0.00023437056  306.31557      2575.9923      1.0177122      4455.7805      0.00023437056  23437.056    
    165750   257.5831       257.58287      0.00023775338  314.23168      2642.5642      1.0177122      4455.7805      0.00023775338  23775.338    
    166000   247.33162      247.33139      0.00022686029  301.72566      2537.393       1.0177122      4455.7805      0.00022686029  22686.029    
    166250   246.63721      246.63698      0.00022883851  300.87853      2530.2689      1.0177122      4455.7805      0.00022883851  22883.851    
    166500   235.99053      235.9903       0.0002268381   287.89038      2421.0439      1.0177122      4455.7805      0.0002268381   22683.81     
    166750   249.54768      249.54746      0.00021811331  304.4291       2560.1282      1.0177122      4455.7805      0.00021811331  21811.331    
    167000   258.50406      258.5038       0.00025463551  315.35516      2652.0113      1.0177122      4455.7805      0.00025463551  25463.551    
    167250   238.63588      238.63566      0.00021392467  291.11753      2448.1829      1.0177122      4455.7805      0.00021392467  21392.467    
    167500   244.59865      244.59843      0.00021676928  298.39165      2509.3559      1.0177122      4455.7805      0.00021676928  21676.928    
    167750   248.15856      248.1583       0.00025954955  302.73443      2545.8762      1.0177122      4455.7805      0.00025954955  25954.955    
    168000   249.93771      249.93751      0.00020121556  304.90492      2564.13        1.0177122      4455.7805      0.00020121556  20121.556    
    168250   256.6792       256.67898      0.00021524621  313.12902      2633.2909      1.0177122      4455.7805      0.00021524621  21524.621    
    168500   254.62147      254.62122      0.00025513522  310.6187       2612.1799      1.0177122      4455.7805      0.00025513522  25513.522    
    168750   253.49653      253.49633      0.00019349247  309.24642      2600.6402      1.0177122      4455.7805      0.00019349247  19349.247    
    169000   245.88246      245.88225      0.00021402818  299.95782      2522.5264      1.0177122      4455.7805      0.00021402818  21402.818    
    169250   250.28402      250.28382      0.00020494619  305.3274       2567.6825      1.0177122      4455.7805      0.00020494619  20494.619    
    169500   255.97393      255.97372      0.00021388996  312.26865      2626.056       1.0177122      4455.7805      0.00021388996  21388.996    
    169750   223.28173      223.28151      0.00021990687  272.38662      2290.6629      1.0177122      4455.7805      0.00021990687  21990.687    
    170000   250.81784      250.81761      0.00022938249  305.97859      2573.1587      1.0177122      4455.7805      0.00022938249  22938.249    
    170250   237.35086      237.35063      0.00022240184  289.54989      2434.9995      1.0177122      4455.7805      0.00022240184  22240.184    
    170500   265.23993      265.23967      0.00025720211  323.57241      2721.1152      1.0177122      4455.7805      0.00025720211  25720.211    
    170750   233.66591      233.66569      0.00021232188  285.05454      2397.1959      1.0177122      4455.7805      0.00021232188  21232.188    
    171000   259.75888      259.75864      0.00023254617  316.88597      2664.8853      1.0177122      4455.7805      0.00023254617  23254.617    
    171250   247.38128      247.38106      0.00022837627  301.78625      2537.9026      1.0177122      4455.7805      0.00022837627  22837.627    
    171500   254.4077       254.40746      0.00024009543  310.35794      2609.9872      1.0177122      4455.7805      0.00024009543  24009.543    
    171750   241.30796      241.30771      0.00024393536  294.37723      2475.5954      1.0177122      4455.7805      0.00024393536  24393.536    
    172000   239.71168      239.71146      0.00022140605  292.42992      2459.2198      1.0177122      4455.7805      0.00022140605  22140.605    
    172250   226.05073      226.0505       0.00023030975  275.76458      2319.0706      1.0177122      4455.7805      0.00023030975  23030.975    
    172500   242.4604       242.46016      0.00023803206  295.78312      2487.419       1.0177122      4455.7805      0.00023803206  23803.206    
    172750   253.64771      253.64748      0.00022946529  309.43081      2602.1902      1.0177122      4455.7805      0.00022946529  22946.529    
    173000   254.51245      254.5122       0.00025034555  310.48571      2611.0614      1.0177122      4455.7805      0.00025034555  25034.555    
    173250   234.68862      234.68839      0.00023249172  286.30215      2407.6874      1.0177122      4455.7805      0.00023249172  23249.172    
    173500   252.7854       252.78518      0.00022292124  308.37887      2593.3443      1.0177122      4455.7805      0.00022292124  22292.124    
    173750   266.53558      266.53533      0.00025346404  325.15302      2734.4078      1.0177122      4455.7805      0.00025346404  25346.404    
    174000   227.4803       227.48006      0.0002409167   277.50853      2333.7364      1.0177122      4455.7805      0.0002409167   24091.67     
    174250   252.48298      252.48278      0.00020267934  308.00997      2590.2419      1.0177122      4455.7805      0.00020267934  20267.934    
    174500   248.79613      248.79593      0.00020054314  303.51229      2552.4187      1.0177122      4455.7805      0.00020054314  20054.314    
    174750   213.72627      213.72605      0.00021658772  260.72968      2192.6327      1.0177122      4455.7805      0.00021658772  21658.772    
    175000   260.54823      260.548        0.00022658748  317.84893      2672.9837      1.0177122      4455.7805      0.00022658748  22658.748    
    175250   236.076        236.07576      0.00023969782  287.99464      2421.9206      1.0177122      4455.7805      0.00023969782  23969.782    
    175500   237.80446      237.80422      0.00023982817  290.10323      2439.6531      1.0177122      4455.7805      0.00023982817  23982.817    
    175750   237.09853      237.09828      0.00025184962  289.24203      2432.4104      1.0177122      4455.7805      0.00025184962  25184.962    
    176000   248.14324      248.14302      0.00021810101  302.71579      2545.7196      1.0177122      4455.7805      0.00021810101  21810.101    
    176250   254.63118      254.63092      0.00025444663  310.63054      2612.2791      1.0177122      4455.7805      0.00025444663  25444.663    
    176500   241.51287      241.51261      0.00025964963  294.62719      2477.6973      1.0177122      4455.7805      0.00025964963  25964.963    
    176750   256.37859      256.37836      0.00023017373  312.76228      2630.2068      1.0177122      4455.7805      0.00023017373  23017.373    
    177000   254.47116      254.47092      0.00023264019  310.43535      2610.6382      1.0177122      4455.7805      0.00023264019  23264.019    
    177250   262.7333       262.73308      0.00021538391  320.51456      2695.401       1.0177122      4455.7805      0.00021538391  21538.391    
    177500   231.7025       231.70228      0.0002262858   282.65932      2377.0523      1.0177122      4455.7805      0.0002262858   22628.58     
    177750   241.02222      241.02199      0.00022654501  294.02867      2472.6646      1.0177122      4455.7805      0.00022654501  22654.501    
    178000   235.04297      235.04276      0.00021807103  286.73445      2411.323       1.0177122      4455.7805      0.00021807103  21807.103    
    178250   265.38369      265.38346      0.00023078741  323.74783      2722.5907      1.0177122      4455.7805      0.00023078741  23078.741    
    178500   255.37762      255.37742      0.00019906636  311.54121      2619.9386      1.0177122      4455.7805      0.00019906636  19906.636    
    178750   256.83738      256.83717      0.00020682382  313.32199      2634.9144      1.0177122      4455.7805      0.00020682382  20682.382    
    179000   247.49645      247.49621      0.00023803884  301.92673      2539.0839      1.0177122      4455.7805      0.00023803884  23803.884    
    179250   247.10438      247.10412      0.00025440938  301.44841      2535.0612      1.0177122      4455.7805      0.00025440938  25440.938    
    179500   237.91832      237.91807      0.00024644493  290.24212      2440.8208      1.0177122      4455.7805      0.00024644493  24644.493    
    179750   242.24381      242.24359      0.00022095753  295.51893      2485.1969      1.0177122      4455.7805      0.00022095753  22095.753    
    180000   258.58302      258.58279      0.00023286697  315.45151      2652.8221      1.0177122      4455.7805      0.00023286697  23286.697    
    180250   242.84692      242.84667      0.00024366882  296.25464      2491.384       1.0177122      4455.7805      0.00024366882  24366.882    
    180500   246.17747      246.17725      0.00021600704  300.3177       2525.5531      1.0177122      4455.7805      0.00021600704  21600.704    
    180750   253.87349      253.87324      0.00024690287  309.70622      2604.5065      1.0177122      4455.7805      0.00024690287  24690.287    
    181000   257.2641       257.26389      0.00021365492  313.84256      2639.2918      1.0177122      4455.7805      0.00021365492  21365.492    
    181250   250.2722       250.27196      0.00023724433  305.31293      2567.5605      1.0177122      4455.7805      0.00023724433  23724.433    
    181500   264.56979      264.56957      0.00022341434  322.75493      2714.2414      1.0177122      4455.7805      0.00022341434  22341.434    
    181750   251.3111       251.31089      0.00021642205  306.58034      2578.2191      1.0177122      4455.7805      0.00021642205  21642.205    
    182000   233.64388      233.64368      0.00019883508  285.02769      2396.9698      1.0177122      4455.7805      0.00019883508  19883.508    
    182250   253.62829      253.62806      0.00022262318  309.40712      2601.9916      1.0177122      4455.7805      0.00022262318  22262.318    
    182500   251.62341      251.62316      0.00024939046  306.9613       2581.4226      1.0177122      4455.7805      0.00024939046  24939.046    
    182750   256.75177      256.75153      0.00024073757  313.21752      2634.0346      1.0177122      4455.7805      0.00024073757  24073.757    
    183000   240.32926      240.32903      0.00022644973  293.18331      2465.5552      1.0177122      4455.7805      0.00022644973  22644.973    
    183250   273.36381      273.36358      0.00022688194  333.48297      2804.4599      1.0177122      4455.7805      0.00022688194  22688.194    
    183500   252.38727      252.38705      0.00021549609  307.89319      2589.2596      1.0177122      4455.7805      0.00021549609  21549.609    
    183750   253.13704      253.13681      0.00022941062  308.80784      2596.9517      1.0177122      4455.7805      0.00022941062  22941.062    
    184000   240.71878      240.71854      0.00024599528  293.65847      2469.5507      1.0177122      4455.7805      0.00024599528  24599.528    
    184250   242.01034      242.01012      0.00022259265  295.23411      2482.8019      1.0177122      4455.7805      0.00022259265  22259.265    
    184500   264.7261       264.72585      0.00025108387  322.94559      2715.8441      1.0177122      4455.7805      0.00025108387  25108.387    
    184750   245.94951      245.94927      0.00023955765  300.03957      2523.2136      1.0177122      4455.7805      0.00023955765  23955.765    
    185000   229.05687      229.05662      0.00025054621  279.43181      2349.9103      1.0177122      4455.7805      0.00025054621  25054.621    
    185250   234.87505      234.87481      0.00024256632  286.52957      2409.5995      1.0177122      4455.7805      0.00024256632  24256.632    
    185500   247.18083      247.1806       0.00023060643  301.5417       2535.8462      1.0177122      4455.7805      0.00023060643  23060.643    
    185750   234.04067      234.04046      0.00021224846  285.51172      2401.0405      1.0177122      4455.7805      0.00021224846  21224.846    
    186000   249.52372      249.52349      0.00022554769  304.39986      2559.882       1.0177122      4455.7805      0.00022554769  22554.769    
    186250   249.05924      249.05899      0.00025011583  303.8332       2555.1163      1.0177122      4455.7805      0.00025011583  25011.583    
    186500   284.69444      284.69423      0.00021478831  347.3055       2920.7018      1.0177122      4455.7805      0.00021478831  21478.831    
    186750   237.4338       237.43358      0.00022037866  289.65108      2435.8505      1.0177122      4455.7805      0.00022037866  22037.866    
    187000   254.88389      254.88364      0.00025379377  310.93883      2614.872       1.0177122      4455.7805      0.00025379377  25379.377    
    187250   248.05153      248.05131      0.00022281175  302.60391      2544.7786      1.0177122      4455.7805      0.00022281175  22281.175    
    187500   286.2626       286.26239      0.00020051296  349.21855      2936.7903      1.0177122      4455.7805      0.00020051296  20051.296    
    187750   226.44876      226.44852      0.00023937786  276.25013      2323.1535      1.0177122      4455.7805      0.00023937786  23937.786    
    188000   253.90275      253.90253      0.00021712042  309.74195      2604.8071      1.0177122      4455.7805      0.00021712042  21712.042    
    188250   268.62687      268.62666      0.00021731005  327.70428      2755.8633      1.0177122      4455.7805      0.00021731005  21731.005    
    188500   224.14642      224.14621      0.00021021094  273.44149      2299.5343      1.0177122      4455.7805      0.00021021094  21021.094    
    188750   249.89207      249.89185      0.00022065201  304.84923      2563.6612      1.0177122      4455.7805      0.00022065201  22065.201    
    189000   249.71087      249.71064      0.00023359339  304.62816      2561.8019      1.0177122      4455.7805      0.00023359339  23359.339    
    189250   273.93648      273.93623      0.00025207497  334.18156      2810.3346      1.0177122      4455.7805      0.00025207497  25207.497    
    189500   255.91986      255.91964      0.00022343567  312.20267      2625.5009      1.0177122      4455.7805      0.00022343567  22343.567    
    189750   264.93819      264.93799      0.00020286104  323.20438      2718.021       1.0177122      4455.7805      0.00020286104  20286.104    
    190000   245.8306       245.83036      0.00023429721  299.89452      2521.994       1.0177122      4455.7805      0.00023429721  23429.721    
    190250   225.42231      225.4221       0.00021448097  274.99797      2312.6239      1.0177122      4455.7805      0.00021448097  21448.097    
    190500   246.14396      246.14374      0.00022442307  300.27681      2525.2087      1.0177122      4455.7805      0.00022442307  22442.307    
    190750   251.07212      251.07188      0.00023457512  306.28878      2575.767       1.0177122      4455.7805      0.00023457512  23457.512    
    191000   256.84795      256.84775      0.00019464487  313.3349       2635.0229      1.0177122      4455.7805      0.00019464487  19464.487    
    191250   277.59617      277.59595      0.00022608629  338.64614      2847.8798      1.0177122      4455.7805      0.00022608629  22608.629    
    191500   261.47795      261.4777       0.00024454404  318.9831       2682.5211      1.0177122      4455.7805      0.00024454404  24454.404    
    191750   258.68463      258.68443      0.00020089622  315.57551      2653.8653      1.0177122      4455.7805      0.00020089622  20089.622    
    192000   243.50991      243.50964      0.00026247891  297.06342      2498.1849      1.0177122      4455.7805      0.00026247891  26247.891    
    192250   251.99099      251.99076      0.00022913735  307.40974      2585.1938      1.0177122      4455.7805      0.00022913735  22913.735    
    192500   254.47899      254.47879      0.00019897167  310.44495      2610.7194      1.0177122      4455.7805      0.00019897167  19897.167    
    192750   242.96296      242.96275      0.00021511775  296.39624      2492.575       1.0177122      4455.7805      0.00021511775  21511.775    
    193000   242.51211      242.51184      0.00026643481  295.84617      2487.9483      1.0177122      4455.7805      0.00026643481  26643.481    
    193250   252.12842      252.12815      0.00027194689  307.57735      2586.603       1.0177122      4455.7805      0.00027194689  27194.689    
    193500   263.88228      263.88205      0.00022880295  321.91621      2707.1877      1.0177122      4455.7805      0.00022880295  22880.295    
    193750   234.25015      234.24993      0.00022196273  285.76726      2403.1888      1.0177122      4455.7805      0.00022196273  22196.273    
    194000   243.37501      243.37479      0.00022126565  296.8989       2496.8021      1.0177122      4455.7805      0.00022126565  22126.565    
    194250   253.3417       253.34147      0.00022522789  309.05751      2599.0515      1.0177122      4455.7805      0.00022522789  22522.789    
    194500   222.94123      222.94099      0.00023294755  271.97121      2287.1697      1.0177122      4455.7805      0.00023294755  23294.755    
    194750   244.15279      244.15256      0.00023796426  297.84772      2504.7806      1.0177122      4455.7805      0.00023796426  23796.426    
    195000   235.54004      235.53983      0.00020911295  287.34084      2416.4226      1.0177122      4455.7805      0.00020911295  20911.295    
    195250   238.12551      238.12528      0.00022731818  290.4949       2442.9469      1.0177122      4455.7805      0.00022731818  22731.818    
    195500   269.04153      269.0413       0.00023102895  328.21012      2760.1173      1.0177122      4455.7805      0.00023102895  23102.895    
    195750   250.07888      250.07868      0.00020044649  305.07714      2565.5779      1.0177122      4455.7805      0.00020044649  20044.649    
    196000   256.52381      256.52359      0.00021773208  312.93945      2631.6973      1.0177122      4455.7805      0.00021773208  21773.208    
    196250   243.94831      243.94807      0.00023885581  297.59826      2502.6834      1.0177122      4455.7805      0.00023885581  23885.581    
    196500   265.75163      265.75139      0.00023336249  324.19667      2726.3658      1.0177122      4455.7805      0.00023336249  23336.249    
    196750   255.35234      255.35213      0.00021396905  311.51035      2619.6789      1.0177122      4455.7805      0.00021396905  21396.905    
    197000   243.17188      243.17166      0.00021985114  296.6511       2494.7181      1.0177122      4455.7805      0.00021985114  21985.114    
    197250   237.41714      237.41692      0.00022231235  289.63075      2435.6794      1.0177122      4455.7805      0.00022231235  22231.235    
    197500   243.98695      243.98671      0.00024417649  297.6454       2503.0792      1.0177122      4455.7805      0.00024417649  24417.649    
    197750   239.01831      239.01806      0.00025175754  291.58402      2452.1052      1.0177122      4455.7805      0.00025175754  25175.754    
    198000   236.83248      236.83222      0.00026005686  288.91746      2429.6808      1.0177122      4455.7805      0.00026005686  26005.686    
    198250   236.70191      236.70167      0.00024113717  288.7582       2428.3414      1.0177122      4455.7805      0.00024113717  24113.717    
    198500   247.78892      247.78866      0.00025813497  302.28349      2542.0844      1.0177122      4455.7805      0.00025813497  25813.497    
    198750   241.85112      241.85091      0.00021203912  295.03989      2481.1686      1.0177122      4455.7805      0.00021203912  21203.912    
    199000   259.5642       259.56397      0.00023213756  316.64848      2662.8882      1.0177122      4455.7805      0.00023213756  23213.756    
    199250   213.09308      213.09286      0.00021429984  259.95723      2186.1372      1.0177122      4455.7805      0.00021429984  21429.984    
    199500   251.83834      251.83809      0.00024746421  307.2235       2583.6274      1.0177122      4455.7805      0.00024746421  24746.421    
    199750   261.18659      261.18634      0.00025146233  318.62765      2679.532       1.0177122      4455.7805      0.00025146233  25146.233    
    200000   235.79417      235.79394      0.00023026894  287.65084      2419.0295      1.0177122      4455.7805      0.00023026894  23026.894    
    200250   250.69467      250.69442      0.00024975625  305.8283       2571.8946      1.0177122      4455.7805      0.00024975625  24975.625    
    200500   258.63555      258.63532      0.00022481127  315.5156       2653.3614      1.0177122      4455.7805      0.00022481127  22481.127    
    200750   258.07247      258.07224      0.00022839044  314.82869      2647.5841      1.0177122      4455.7805      0.00022839044  22839.044    
    201000   270.44925      270.449        0.00024989664  329.9274       2774.5583      1.0177122      4455.7805      0.00024989664  24989.664    
    201250   259.69091      259.69069      0.00022001755  316.80307      2664.188       1.0177122      4455.7805      0.00022001755  22001.755    
    201500   279.18776      279.18754      0.0002150522   340.58777      2864.2087      1.0177122      4455.7805      0.0002150522   21505.22     
    201750   260.23761      260.23737      0.00023658191  317.46998      2669.7969      1.0177122      4455.7805      0.00023658191  23658.191    
    202000   269.00768      269.00748      0.00020115126  328.16886      2759.7703      1.0177122      4455.7805      0.00020115126  20115.126    
    202250   277.82091      277.82066      0.00025089019  338.92027      2850.1851      1.0177122      4455.7805      0.00025089019  25089.019    
    202500   259.75561      259.75534      0.0002633918   316.88194      2664.8511      1.0177122      4455.7805      0.0002633918   26339.18     
    202750   235.58082      235.58056      0.00025500842  287.39054      2416.84        1.0177122      4455.7805      0.00025500842  25500.842    
    203000   255.64067      255.64047      0.00020624193  311.8621       2622.637       1.0177122      4455.7805      0.00020624193  20624.193    
    203250   241.10034      241.10011      0.00022460453  294.12397      2473.4659      1.0177122      4455.7805      0.00022460453  22460.453    
    203500   244.14619      244.14594      0.00024694137  297.83965      2504.7134      1.0177122      4455.7805      0.00024694137  24694.137    
    203750   282.30292      282.3027       0.00021767117  344.38802      2896.1672      1.0177122      4455.7805      0.00021767117  21767.117    
    204000   231.29048      231.29026      0.00022008477  282.15669      2372.8256      1.0177122      4455.7805      0.00022008477  22008.477    
    204250   240.007        240.00679      0.00021133678  292.79019      2462.2495      1.0177122      4455.7805      0.00021133678  21133.678    
    204500   249.53023      249.53         0.00023031076  304.4078       2559.949       1.0177122      4455.7805      0.00023031076  23031.076    
    204750   255.5539       255.55367      0.00023076833  311.75622      2621.7459      1.0177122      4455.7805      0.00023076833  23076.833    
    205000   265.71205      265.71185      0.00020772475  324.14843      2725.9601      1.0177122      4455.7805      0.00020772475  20772.475    
    205250   252.08407      252.08383      0.00023855399  307.52328      2586.149       1.0177122      4455.7805      0.00023855399  23855.399    
    205500   230.49437      230.49414      0.00022596091  281.18548      2364.658       1.0177122      4455.7805      0.00022596091  22596.091    
    205750   263.44096      263.44075      0.00021652261  321.37786      2702.6606      1.0177122      4455.7805      0.00021652261  21652.261    
    206000   230.0712       230.07094      0.00026182499  280.66921      2360.316       1.0177122      4455.7805      0.00026182499  26182.499    
    206250   246.12346      246.12323      0.00023181319  300.25179      2524.9987      1.0177122      4455.7805      0.00023181319  23181.319    
    206500   241.51714      241.51689      0.00025271602  294.63241      2477.7411      1.0177122      4455.7805      0.00025271602  25271.602    
    206750   237.60802      237.60777      0.00024774242  289.86357      2437.6373      1.0177122      4455.7805      0.00024774242  24774.242    
    207000   239.41138      239.41115      0.00022413951  292.06356      2456.1388      1.0177122      4455.7805      0.00022413951  22413.951    
    207250   279.4876       279.48737      0.00023589018  340.95353      2867.2838      1.0177122      4455.7805      0.00023589018  23589.018    
    207500   253.16632      253.16608      0.00023591701  308.84354      2597.2519      1.0177122      4455.7805      0.00023591701  23591.701    
    207750   240.1631       240.16286      0.00023875821  292.9806       2463.8505      1.0177122      4455.7805      0.00023875821  23875.821    
    208000   247.24978      247.24958      0.00020029028  301.62586      2536.554       1.0177122      4455.7805      0.00020029028  20029.028    
    208250   255.71307      255.71285      0.00022581026  311.9504       2623.3794      1.0177122      4455.7805      0.00022581026  22581.026    
    208500   255.72798      255.72774      0.00024462364  311.96857      2623.5315      1.0177122      4455.7805      0.00024462364  24462.364    
    208750   262.85617      262.85593      0.00023379976  320.66443      2696.661       1.0177122      4455.7805      0.00023379976  23379.976    
    209000   255.60964      255.60941      0.00023597749  311.82421      2622.3179      1.0177122      4455.7805      0.00023597749  23597.749    
    209250   255.07633      255.07612      0.00021403792  311.17364      2616.8475      1.0177122      4455.7805      0.00021403792  21403.792    
    209500   258.78965      258.7894       0.00025457169  315.70356      2654.9419      1.0177122      4455.7805      0.00025457169  25457.169    
    209750   233.77248      233.77225      0.00023301821  285.18453      2398.2884      1.0177122      4455.7805      0.00023301821  23301.821    
    210000   248.91413      248.91389      0.00023937557  303.65618      2553.6277      1.0177122      4455.7805      0.00023937557  23937.557    
    210250   218.70606      218.70586      0.00019993552  266.80467      2243.7217      1.0177122      4455.7805      0.00019993552  19993.552    
    210500   250.65602      250.65576      0.00026299824  305.78114      2571.4973      1.0177122      4455.7805      0.00026299824  26299.824    
    210750   272.60569      272.60548      0.00021438858  332.55814      2796.6823      1.0177122      4455.7805      0.00021438858  21438.858    
    211000   264.99522      264.99499      0.00022403803  323.27392      2718.606       1.0177122      4455.7805      0.00022403803  22403.803    
    211250   239.33974      239.33951      0.00023623237  291.97616      2455.4035      1.0177122      4455.7805      0.00023623237  23623.237    
    211500   260.40831      260.40807      0.00023933163  317.67822      2671.5482      1.0177122      4455.7805      0.00023933163  23933.163    
    211750   263.40091      263.40067      0.00024235801  321.32896      2702.249       1.0177122      4455.7805      0.00024235801  24235.801    
    212000   247.50616      247.50595      0.00020487898  301.93861      2539.1841      1.0177122      4455.7805      0.00020487898  20487.898    
    212250   226.57564      226.57543      0.00021089132  276.40495      2324.456       1.0177122      4455.7805      0.00021089132  21089.132    
    212500   247.39559      247.39535      0.0002406634   301.80368      2538.049       1.0177122      4455.7805      0.0002406634   24066.34     
    212750   252.84687      252.84665      0.0002192177   308.45386      2593.9748      1.0177122      4455.7805      0.0002192177   21921.77     
    213000   232.85091      232.85069      0.00022768444  284.06029      2388.8342      1.0177122      4455.7805      0.00022768444  22768.444    
    213250   237.10874      237.10847      0.00026849294  289.25447      2432.5143      1.0177122      4455.7805      0.00026849294  26849.294    
    213500   235.36329      235.36306      0.00023312692  287.12519      2414.6087      1.0177122      4455.7805      0.00023312692  23312.692    
    213750   260.07132      260.07106      0.00025898259  317.2671       2668.0902      1.0177122      4455.7805      0.00025898259  25898.259    
    214000   273.4057       273.40546      0.00024164978  333.53406      2804.8893      1.0177122      4455.7805      0.00024164978  24164.978    
    214250   234.03311      234.03287      0.00023843936  285.50247      2400.9622      1.0177122      4455.7805      0.00023843936  23843.936    
    214500   253.25728      253.25707      0.00021047835  308.95454      2598.1854      1.0177122      4455.7805      0.00021047835  21047.835    
    214750   239.12183      239.1216       0.0002285374   291.71034      2453.1681      1.0177122      4455.7805      0.0002285374   22853.74     
    215000   259.4309       259.43066      0.00023125616  316.48586      2661.5204      1.0177122      4455.7805      0.00023125616  23125.616    
    215250   256.35846      256.35823      0.00023133777  312.73773      2630.0001      1.0177122      4455.7805      0.00023133777  23133.777    
    215500   238.66697      238.66674      0.00023214359  291.15544      2448.5012      1.0177122      4455.7805      0.00023214359  23214.359    
    215750   251.11991      251.11966      0.0002486257   306.34706      2576.2572      1.0177122      4455.7805      0.0002486257   24862.57     
    216000   266.79503      266.7948       0.00023037301  325.46955      2737.07        1.0177122      4455.7805      0.00023037301  23037.301    
    216250   238.33988      238.33967      0.00020980902  290.75644      2445.1461      1.0177122      4455.7805      0.00020980902  20980.902    
    216500   242.42413      242.42389      0.0002370321   295.73888      2487.0467      1.0177122      4455.7805      0.0002370321   23703.21     
    216750   273.71533      273.7151       0.0002347369   333.91179      2808.0655      1.0177122      4455.7805      0.0002347369   23473.69     
    217000   246.79655      246.79632      0.00023352418  301.07291      2531.9036      1.0177122      4455.7805      0.00023352418  23352.418    
    217250   252.58871      252.58848      0.00023192774  308.13891      2591.3263      1.0177122      4455.7805      0.00023192774  23192.774    
    217500   229.67299      229.67275      0.00023775563  280.18344      2356.2314      1.0177122      4455.7805      0.00023775563  23775.563    
    217750   275.82168      275.82145      0.00023032555  336.48138      2829.6752      1.0177122      4455.7805      0.00023032555  23032.555    
    218000   245.27484      245.27461      0.0002332323   299.21654      2516.2923      1.0177122      4455.7805      0.0002332323   23323.23     
    218250   247.98883      247.98859      0.00024067446  302.52739      2544.135       1.0177122      4455.7805      0.00024067446  24067.446    
    218500   257.64807      257.64782      0.00024908398  314.31093      2643.2301      1.0177122      4455.7805      0.00024908398  24908.398    
    218750   251.71022      251.70997      0.0002491379   307.0672       2582.3135      1.0177122      4455.7805      0.0002491379   24913.79     
    219000   265.99911      265.99888      0.00023574257  324.49859      2728.9043      1.0177122      4455.7805      0.00023574257  23574.257    
    219250   270.28461      270.2844       0.00020736538  329.7266       2772.8706      1.0177122      4455.7805      0.00020736538  20736.538    
    219500   249.94321      249.94298      0.00022486168  304.9116       2564.1856      1.0177122      4455.7805      0.00022486168  22486.168    
    219750   280.50878      280.50856      0.00021746194  342.19931      2877.7609      1.0177122      4455.7805      0.00021746194  21746.194    
    220000   270.78147      270.78126      0.0002075728   330.33274      2777.968       1.0177122      4455.7805      0.0002075728   20757.28     
    220250   238.52085      238.52062      0.00022513366  290.97718      2447.0027      1.0177122      4455.7805      0.00022513366  22513.366    
    220500   223.35239      223.35215      0.00023259263  272.4728       2291.3879      1.0177122      4455.7805      0.00023259263  23259.263    
    220750   234.30632      234.30608      0.0002472295   285.83576      2403.7653      1.0177122      4455.7805      0.0002472295   24722.95     
    221000   252.9859       252.98568      0.00022165791  308.62346      2595.4011      1.0177122      4455.7805      0.00022165791  22165.791    
    221250   249.3811       249.38088      0.00021685548  304.22589      2558.4192      1.0177122      4455.7805      0.00021685548  21685.548    
    221500   235.46141      235.4612       0.00020987986  287.24492      2415.6157      1.0177122      4455.7805      0.00020987986  20987.986    
    221750   273.42348      273.42327      0.00021110005  333.55578      2805.0728      1.0177122      4455.7805      0.00021110005  21110.005    
    222000   253.65983      253.65959      0.00024545046  309.44558      2602.3142      1.0177122      4455.7805      0.00024545046  24545.046    
    222250   242.18683      242.1866       0.00022977987  295.4494       2484.6123      1.0177122      4455.7805      0.00022977987  22977.987    
    222500   259.01668      259.01647      0.00021292675  315.98057      2657.2715      1.0177122      4455.7805      0.00021292675  21292.675    
    222750   226.69572      226.69549      0.00022653491  276.55142      2325.6876      1.0177122      4455.7805      0.00022653491  22653.491    
    223000   254.20644      254.20622      0.00022407138  310.11243      2607.9225      1.0177122      4455.7805      0.00022407138  22407.138    
    223250   258.01705      258.01678      0.00026803969  314.76103      2647.0147      1.0177122      4455.7805      0.00026803969  26803.969    
    223500   248.37834      248.37811      0.00022870633  303.00258      2548.1314      1.0177122      4455.7805      0.00022870633  22870.633    
    223750   253.71065      253.71046      0.00019344214  309.50764      2602.8368      1.0177122      4455.7805      0.00019344214  19344.214    
    224000   232.52257      232.52233      0.00023879182  283.65972      2385.4654      1.0177122      4455.7805      0.00023879182  23879.182    
    224250   260.5186       260.51835      0.00024529492  317.81276      2672.6791      1.0177122      4455.7805      0.00024529492  24529.492    
    224500   254.60904      254.60882      0.00022875879  310.60357      2612.053       1.0177122      4455.7805      0.00022875879  22875.879    
    224750   252.70659      252.70636      0.00022622989  308.28272      2592.5357      1.0177122      4455.7805      0.00022622989  22622.989    
    225000   259.39414      259.39392      0.00022167498  316.44103      2661.1437      1.0177122      4455.7805      0.00022167498  22167.498    
    225250   240.72195      240.7217       0.00025000739  293.66234      2469.5829      1.0177122      4455.7805      0.00025000739  25000.739    
    225500   273.98558      273.98538      0.00019758136  334.24152      2810.8393      1.0177122      4455.7805      0.00019758136  19758.136    
    225750   245.01442      245.01416      0.00026377714  298.89881      2513.6197      1.0177122      4455.7805      0.00026377714  26377.714    
    226000   243.10582      243.1056       0.00022227757  296.57052      2494.0409      1.0177122      4455.7805      0.00022227757  22227.757    
    226250   288.32113      288.32087      0.0002620288   351.72973      2957.908       1.0177122      4455.7805      0.0002620288   26202.88     
    226500   276.82123      276.82102      0.00021334558  337.70078      2839.9301      1.0177122      4455.7805      0.00021334558  21334.558    
    226750   257.05897      257.05874      0.00022273739  313.5923       2637.187       1.0177122      4455.7805      0.00022273739  22273.739    
    227000   236.07847      236.07826      0.00021192292  287.99768      2421.9466      1.0177122      4455.7805      0.00021192292  21192.292    
    227250   267.1693       267.16909      0.00021318254  325.92615      2740.9102      1.0177122      4455.7805      0.00021318254  21318.254    
    227500   246.05829      246.05805      0.00024043805  300.17228      2524.3298      1.0177122      4455.7805      0.00024043805  24043.805    
    227750   267.69324      267.69301      0.00023071541  326.5653       2746.2845      1.0177122      4455.7805      0.00023071541  23071.541    
    228000   231.54234      231.54211      0.00023188794  282.46392      2375.4094      1.0177122      4455.7805      0.00023188794  23188.794    
    228250   261.97476      261.97452      0.00023812125  319.58917      2687.618       1.0177122      4455.7805      0.00023812125  23812.125    
    228500   246.09595      246.09571      0.00024101645  300.21822      2524.7158      1.0177122      4455.7805      0.00024101645  24101.645    
    228750   271.1416       271.14135      0.00025144923  330.77201      2781.6615      1.0177122      4455.7805      0.00025144923  25144.923    
    229000   235.52437      235.52413      0.000243817    287.32169      2416.2612      1.0177122      4455.7805      0.000243817    24381.7      
    229250   239.59943      239.59921      0.00022231765  292.29298      2458.0683      1.0177122      4455.7805      0.00022231765  22231.765    
    229500   245.63922      245.63899      0.00023256749  299.66105      2520.0305      1.0177122      4455.7805      0.00023256749  23256.749    
    229750   256.98659      256.98633      0.00026401535  313.50395      2636.4437      1.0177122      4455.7805      0.00026401535  26401.535    
    230000   248.4097       248.40949      0.00020686011  303.04086      2548.4537      1.0177122      4455.7805      0.00020686011  20686.011    
    230250   253.43573      253.4355       0.00023060411  309.17222      2600.0157      1.0177122      4455.7805      0.00023060411  23060.411    
    230500   238.26229      238.26206      0.00022882669  290.66175      2444.3501      1.0177122      4455.7805      0.00022882669  22882.669    
    230750   237.54503      237.54483      0.00019685378  289.78679      2436.9921      1.0177122      4455.7805      0.00019685378  19685.378    
    231000   246.00655      246.00633      0.0002222949   300.10918      2523.7995      1.0177122      4455.7805      0.0002222949   22229.49     
    231250   253.8632       253.86299      0.00020603342  309.69372      2604.4017      1.0177122      4455.7805      0.00020603342  20603.342    
    231500   270.32832      270.32813      0.00019200554  329.77995      2773.3192      1.0177122      4455.7805      0.00019200554  19200.554    
    231750   263.96126      263.96102      0.00023853849  322.01255      2707.998       1.0177122      4455.7805      0.00023853849  23853.849    
    232000   249.7888       249.78857      0.00023006314  304.72324      2562.6013      1.0177122      4455.7805      0.00023006314  23006.314    
    232250   221.1547       221.15446      0.00023407979  269.79178      2268.8412      1.0177122      4455.7805      0.00023407979  23407.979    
    232500   256.46945      256.46922      0.00022960805  312.87312      2631.1389      1.0177122      4455.7805      0.00022960805  22960.805    
    232750   304.68221      304.68197      0.0002328397   371.68905      3125.7581      1.0177122      4455.7805      0.0002328397   23283.97     
    233000   240.04902      240.04879      0.0002315856   292.84143      2462.6802      1.0177122      4455.7805      0.0002315856   23158.56     
    233250   253.43015      253.42993      0.00022123719  309.16542      2599.9585      1.0177122      4455.7805      0.00022123719  22123.719    
    233500   238.00268      238.00247      0.00021788258  290.34507      2441.6871      1.0177122      4455.7805      0.00021788258  21788.258    
    233750   259.97512      259.9749       0.00021821016  317.14979      2667.1041      1.0177122      4455.7805      0.00021821016  21821.016    
    234000   220.64256      220.64236      0.00019702224  269.16705      2263.5883      1.0177122      4455.7805      0.00019702224  19702.224    
    234250   249.19295      249.19273      0.00022817519  303.99635      2556.4887      1.0177122      4455.7805      0.00022817519  22817.519    
    234500   267.34785      267.34761      0.00023397304  326.14394      2742.7415      1.0177122      4455.7805      0.00023397304  23397.304    
    234750   232.22716      232.22693      0.00022358608  283.29936      2382.4348      1.0177122      4455.7805      0.00022358608  22358.608    
    235000   241.16263      241.16243      0.00020424082  294.19999      2474.1054      1.0177122      4455.7805      0.00020424082  20424.082    
    235250   263.89609      263.89587      0.00022471521  321.93307      2707.33        1.0177122      4455.7805      0.00022471521  22471.521    
    235500   249.2693       249.26907      0.00023211426  304.08948      2557.2716      1.0177122      4455.7805      0.00023211426  23211.426    
    235750   249.49021      249.48999      0.00022366927  304.35899      2559.5385      1.0177122      4455.7805      0.00022366927  22366.927    
    236000   261.47008      261.46987      0.00021021905  318.97354      2682.4411      1.0177122      4455.7805      0.00021021905  21021.905    
    236250   237.20304      237.20278      0.00025871837  289.36952      2433.4821      1.0177122      4455.7805      0.00025871837  25871.837    
    236500   272.48283      272.48261      0.00021266145  332.40825      2795.4224      1.0177122      4455.7805      0.00021266145  21266.145    
    236750   249.78139      249.78115      0.00023959709  304.71419      2562.5252      1.0177122      4455.7805      0.00023959709  23959.709    
    237000   243.99046      243.99024      0.00021612348  297.64971      2503.1161      1.0177122      4455.7805      0.00021612348  21612.348    
    237250   258.60698      258.60672      0.00025928331  315.48071      2653.0675      1.0177122      4455.7805      0.00025928331  25928.331    
    237500   265.02601      265.02579      0.00022161503  323.31149      2718.9217      1.0177122      4455.7805      0.00022161503  22161.503    
    237750   247.37664      247.37643      0.00021467069  301.7806       2537.8554      1.0177122      4455.7805      0.00021467069  21467.069    
    238000   237.24173      237.2415       0.0002304356   289.41675      2433.8799      1.0177122      4455.7805      0.0002304356   23043.56     
    238250   250.01428      250.01406      0.00022116543  304.99831      2564.915       1.0177122      4455.7805      0.00022116543  22116.543    
    238500   257.47602      257.4758       0.00021868461  314.10107      2641.4657      1.0177122      4455.7805      0.00021868461  21868.461    
    238750   279.9324       279.93216      0.00024246437  341.49614      2871.8472      1.0177122      4455.7805      0.00024246437  24246.437    
    239000   252.00049      252.00029      0.00020429305  307.42136      2585.292       1.0177122      4455.7805      0.00020429305  20429.305    
    239250   274.28068      274.28045      0.00022076783  334.60149      2813.8662      1.0177122      4455.7805      0.00022076783  22076.783    
    239500   247.00857      247.00837      0.00019947204  301.33159      2534.0796      1.0177122      4455.7805      0.00019947204  19947.204    
    239750   253.87721      253.87699      0.00021645674  309.7108       2604.5452      1.0177122      4455.7805      0.00021645674  21645.674    
    240000   248.72407      248.72384      0.0002271309   303.42434      2551.6785      1.0177122      4455.7805      0.0002271309   22713.09     
    240250   276.17063      276.1704       0.0002352811   336.90707      2833.2553      1.0177122      4455.7805      0.0002352811   23528.11     
    240500   238.46978      238.46954      0.00023354396  290.91487      2446.4784      1.0177122      4455.7805      0.00023354396  23354.396    
    240750   236.28854      236.28833      0.00021169828  288.25395      2424.1015      1.0177122      4455.7805      0.00021169828  21169.828    
    241000   240.00469      240.00447      0.0002148421   292.78737      2462.2255      1.0177122      4455.7805      0.0002148421   21484.21     
    241250   237.20729      237.20704      0.00024643556  289.37472      2433.5259      1.0177122      4455.7805      0.00024643556  24643.556    
    241500   273.63121      273.63098      0.0002331723   333.80918      2807.2033      1.0177122      4455.7805      0.0002331723   23317.23     
    241750   266.03097      266.03074      0.00023260934  324.53745      2729.2312      1.0177122      4455.7805      0.00023260934  23260.934    
    242000   245.23992      245.23966      0.00025513868  299.17391      2515.9334      1.0177122      4455.7805      0.00025513868  25513.868    
    242250   248.47296      248.47273      0.00022605181  303.11801      2549.1022      1.0177122      4455.7805      0.00022605181  22605.181    
    242500   232.13434      232.13411      0.00023147216  283.18612      2381.4826      1.0177122      4455.7805      0.00023147216  23147.216    
    242750   233.61053      233.61028      0.00024125174  284.98694      2396.6274      1.0177122      4455.7805      0.00024125174  24125.174    
    243000   268.5847       268.58448      0.00022146374  327.65282      2755.4305      1.0177122      4455.7805      0.00022146374  22146.374    
    243250   249.47366      249.47342      0.00023908745  304.33877      2559.3679      1.0177122      4455.7805      0.00023908745  23908.745    
    243500   245.65789      245.65765      0.00023435283  299.68382      2520.222       1.0177122      4455.7805      0.00023435283  23435.283    
    243750   237.29331      237.29306      0.00025138284  289.47965      2434.4086      1.0177122      4455.7805      0.00025138284  25138.284    
    244000   233.9101       233.90988      0.00021796042  285.35243      2399.7005      1.0177122      4455.7805      0.00021796042  21796.042    
    244250   267.52168      267.52144      0.00023673116  326.356        2744.5244      1.0177122      4455.7805      0.00023673116  23673.116    
    244500   251.23362      251.23335      0.00027487644  306.48575      2577.4234      1.0177122      4455.7805      0.00027487644  27487.644    
    244750   249.82246      249.82222      0.00024615345  304.76428      2562.9462      1.0177122      4455.7805      0.00024615345  24615.345    
    245000   238.70599      238.70578      0.00021012313  291.20306      2448.9023      1.0177122      4455.7805      0.00021012313  21012.313    
    245250   251.98461      251.98437      0.00023670042  307.40195      2585.1286      1.0177122      4455.7805      0.00023670042  23670.042    
    245500   257.34082      257.34055      0.00026883167  313.93608      2640.0775      1.0177122      4455.7805      0.00026883167  26883.167    
    245750   220.50252      220.50227      0.00024948602  268.99615      2262.1503      1.0177122      4455.7805      0.00024948602  24948.602    
    246000   259.74894      259.74872      0.00022262232  316.87386      2664.7841      1.0177122      4455.7805      0.00022262232  22262.232    
    246250   239.38334      239.38305      0.00028579013  292.02929      2455.8498      1.0177122      4455.7805      0.00028579013  28579.013    
    246500   258.44731      258.44704      0.00027021743  315.28591      2651.4292      1.0177122      4455.7805      0.00027021743  27021.743    
    246750   247.42416      247.42392      0.00024298928  301.83854      2538.342       1.0177122      4455.7805      0.00024298928  24298.928    
    247000   248.83263      248.83241      0.00021157448  303.55679      2552.7923      1.0177122      4455.7805      0.00021157448  21157.448    
    247250   262.37652      262.37633      0.00019420002  320.07935      2691.741       1.0177122      4455.7805      0.00019420002  19420.002    
    247500   241.14053      241.1403       0.00022907189  294.17299      2473.8781      1.0177122      4455.7805      0.00022907189  22907.189    
    247750   243.79183      243.79159      0.00024187018  297.40737      2501.0779      1.0177122      4455.7805      0.00024187018  24187.018    
    248000   250.07287      250.07265      0.00022172399  305.06979      2565.5161      1.0177122      4455.7805      0.00022172399  22172.399    
    248250   218.88635      218.88615      0.0001994152   267.02461      2245.5708      1.0177122      4455.7805      0.0001994152   19941.52     
    248500   252.43133      252.43114      0.00019106888  307.94697      2589.7124      1.0177122      4455.7805      0.00019106888  19106.888    
    248750   240.15109      240.15088      0.00021136008  292.96597      2463.728       1.0177122      4455.7805      0.00021136008  21136.008    
    249000   258.57064      258.5704       0.00023765529  315.43641      2652.6952      1.0177122      4455.7805      0.00023765529  23765.529    
    249250   277.30821      277.30801      0.00020400998  338.29487      2844.9262      1.0177122      4455.7805      0.00020400998  20400.998    
    249500   243.07014      243.06988      0.00026539964  296.52693      2493.6735      1.0177122      4455.7805      0.00026539964  26539.964    
    249750   228.42324      228.42302      0.00022119644  278.65887      2343.4106      1.0177122      4455.7805      0.00022119644  22119.644    
    250000   258.98221      258.982        0.00021405442  315.93852      2656.9179      1.0177122      4455.7805      0.00021405442  21405.442    
    250250   226.6874       226.68718      0.00021316842  276.54128      2325.6023      1.0177122      4455.7805      0.00021316842  21316.842    
    250500   246.60895      246.60873      0.00021822713  300.84407      2529.9794      1.0177122      4455.7805      0.00021822713  21822.713    
    250750   245.01681      245.01657      0.00023987616  298.90175      2513.6452      1.0177122      4455.7805      0.00023987616  23987.616    
    251000   247.27654      247.2763       0.00023735066  301.65845      2536.8281      1.0177122      4455.7805      0.00023735066  23735.066    
    251250   250.66292      250.66271      0.00021315826  305.78962      2571.5693      1.0177122      4455.7805      0.00021315826  21315.826    
    251500   251.66969      251.6695       0.00019355284  307.01782      2581.8991      1.0177122      4455.7805      0.00019355284  19355.284    
    251750   250.20853      250.20827      0.00026112983  305.23524      2566.9069      1.0177122      4455.7805      0.00026112983  26112.983    
    252000   269.93617      269.93593      0.00024004453  329.3015       2769.2951      1.0177122      4455.7805      0.00024004453  24004.453    
    252250   253.3018       253.30154      0.00025330627  309.00879      2598.6412      1.0177122      4455.7805      0.00025330627  25330.627    
    252500   244.04052      244.04028      0.0002397672   297.71075      2503.629       1.0177122      4455.7805      0.0002397672   23976.72     
    252750   227.45808      227.45787      0.00020540233  277.48146      2333.5089      1.0177122      4455.7805      0.00020540233  20540.233    
    253000   232.64121      232.64098      0.00022628974  283.80447      2386.6827      1.0177122      4455.7805      0.00022628974  22628.974    
    253250   263.61771      263.61747      0.00024482939  321.59345      2704.4731      1.0177122      4455.7805      0.00024482939  24482.939    
    253500   230.07704      230.07682      0.0002240516   280.67638      2360.3767      1.0177122      4455.7805      0.0002240516   22405.16     
    253750   246.4143       246.41407      0.00022767452  300.60659      2527.9822      1.0177122      4455.7805      0.00022767452  22767.452    
    254000   227.35943      227.35922      0.00020842324  277.36112      2332.4971      1.0177122      4455.7805      0.00020842324  20842.324    
    254250   238.93049      238.93025      0.00023751614  291.4769       2451.2047      1.0177122      4455.7805      0.00023751614  23751.614    
    254500   253.35982      253.35959      0.00022276741  309.07961      2599.2369      1.0177122      4455.7805      0.00022276741  22276.741    
    254750   258.01693      258.01671      0.00022097795  314.76094      2647.0148      1.0177122      4455.7805      0.00022097795  22097.795    
    255000   252.07931      252.07905      0.00025526649  307.51745      2586.0993      1.0177122      4455.7805      0.00025526649  25526.649    
    255250   248.23899      248.23878      0.00021068997  302.8326       2546.7024      1.0177122      4455.7805      0.00021068997  21068.997    
    255500   258.89731      258.89707      0.00023934754  315.83491      2656.0466      1.0177122      4455.7805      0.00023934754  23934.754    
    255750   235.69065      235.69041      0.00023447211  287.52454      2417.9671      1.0177122      4455.7805      0.00023447211  23447.211    
    256000   237.02182      237.02156      0.00025336285  289.14845      2431.6234      1.0177122      4455.7805      0.00025336285  25336.285    
    256250   270.59138      270.59116      0.00022339831  330.10082      2776.0173      1.0177122      4455.7805      0.00022339831  22339.831    
    256500   256.45023      256.45001      0.00021966498  312.84968      2630.9426      1.0177122      4455.7805      0.00021966498  21966.498    
    256750   232.25188      232.25164      0.00023839014  283.3295       2382.6883      1.0177122      4455.7805      0.00023839014  23839.014    
    257000   259.1696       259.16936      0.00023795387  316.16709      2658.8397      1.0177122      4455.7805      0.00023795387  23795.387    
    257250   229.55312      229.55287      0.00024131926  280.03721      2355.0016      1.0177122      4455.7805      0.00024131926  24131.926    
    257500   257.37303      257.37282      0.00020637282  313.97545      2640.4097      1.0177122      4455.7805      0.00020637282  20637.282    
    257750   234.57441      234.57417      0.00024241984  286.16281      2406.5151      1.0177122      4455.7805      0.00024241984  24241.984    
    258000   265.76325      265.763        0.00025043236  324.21083      2726.4846      1.0177122      4455.7805      0.00025043236  25043.236    
    258250   237.83151      237.83129      0.00021964377  290.13626      2439.9311      1.0177122      4455.7805      0.00021964377  21964.377    
    258500   258.57732      258.5771       0.00021647104  315.44458      2652.7646      1.0177122      4455.7805      0.00021647104  21647.104    
    258750   241.58361      241.58336      0.00024316171  294.7135       2478.4231      1.0177122      4455.7805      0.00024316171  24316.171    
    259000   270.91561      270.91537      0.00023762799  330.49634      2779.3437      1.0177122      4455.7805      0.00023762799  23762.799    
    259250   244.11131      244.11108      0.00022379793  297.79713      2504.3556      1.0177122      4455.7805      0.00022379793  22379.793    
    259500   264.46952      264.46928      0.00023459167  322.6326       2713.212       1.0177122      4455.7805      0.00023459167  23459.167    
    259750   256.2985       256.29826      0.00023872226  312.66456      2629.3849      1.0177122      4455.7805      0.00023872226  23872.226    
    260000   239.26838      239.26814      0.00024853994  291.88909      2454.6711      1.0177122      4455.7805      0.00024853994  24853.994    
    260250   250.78011      250.7799       0.00020594667  305.93258      2572.772       1.0177122      4455.7805      0.00020594667  20594.667    
    260500   248.36989      248.36966      0.0002250428   302.99227      2548.0445      1.0177122      4455.7805      0.0002250428   22504.28     
    260750   240.5057       240.50544      0.00025405077  293.39851      2467.3651      1.0177122      4455.7805      0.00025405077  25405.077    
    261000   254.35348      254.35326      0.00022253929  310.29181      2609.4315      1.0177122      4455.7805      0.00022253929  22253.929    
    261250   263.7177       263.71744      0.0002622712   321.71541      2705.4986      1.0177122      4455.7805      0.0002622712   26227.12     
    261500   259.52516      259.52491      0.00025282234  316.60083      2662.4869      1.0177122      4455.7805      0.00025282234  25282.234    
    261750   250.49606      250.49582      0.00023951369  305.58602      2569.8571      1.0177122      4455.7805      0.00023951369  23951.369    
    262000   251.11384      251.11363      0.00020917092  306.33971      2576.1954      1.0177122      4455.7805      0.00020917092  20917.092    
    262250   270.44495      270.44474      0.00020707025  329.92221      2774.5157      1.0177122      4455.7805      0.00020707025  20707.025    
    262500   231.6765       231.67626      0.00023237967  282.62758      2376.7854      1.0177122      4455.7805      0.00023237967  23237.967    
    262750   235.5273       235.52706      0.00023201908  287.32527      2416.2912      1.0177122      4455.7805      0.00023201908  23201.908    
    263000   237.85813      237.85789      0.00024182894  290.1687       2440.2034      1.0177122      4455.7805      0.00024182894  24182.894    
    263250   255.87112      255.8709       0.0002266473   312.14321      2625.001       1.0177122      4455.7805      0.0002266473   22664.73     
    263500   248.25437      248.25414      0.00022931652  302.85134      2546.8597      1.0177122      4455.7805      0.00022931652  22931.652    
    263750   269.81456      269.81433      0.0002298467   329.15315      2768.0479      1.0177122      4455.7805      0.0002298467   22984.67     
    264000   217.22062      217.2204       0.00021815961  264.99252      2228.4816      1.0177122      4455.7805      0.00021815961  21815.961    
    264250   256.72919      256.72897      0.00021715738  313.19         2633.804       1.0177122      4455.7805      0.00021715738  21715.738    
    264500   240.90928      240.90904      0.00023802789  293.89088      2471.5056      1.0177122      4455.7805      0.00023802789  23802.789    
    264750   262.30803      262.30778      0.00024570887  319.99572      2691.037       1.0177122      4455.7805      0.00024570887  24570.887    
    265000   251.93092      251.93068      0.0002421012   307.33644      2584.5773      1.0177122      4455.7805      0.0002421012   24210.12     
    265250   249.90786      249.90763      0.00023407077  304.86848      2563.8228      1.0177122      4455.7805      0.00023407077  23407.077    
    265500   239.81463      239.81437      0.00025303701  292.55546      2460.2748      1.0177122      4455.7805      0.00025303701  25303.701    
    265750   232.14335      232.14314      0.00020186805  283.19714      2381.5759      1.0177122      4455.7805      0.00020186805  20186.805    
    266000   264.48527      264.48506      0.00021351559  322.65184      2713.3742      1.0177122      4455.7805      0.00021351559  21351.559    
    266250   242.7319       242.73166      0.00023844214  296.11434      2490.2037      1.0177122      4455.7805      0.00023844214  23844.214    
    266500   244.36684      244.36661      0.00023172583  298.10885      2506.9772      1.0177122      4455.7805      0.00023172583  23172.583    
    266750   255.37178      255.37155      0.00023416716  311.53405      2619.878       1.0177122      4455.7805      0.00023416716  23416.716    
    267000   245.31124      245.31097      0.00026874381  299.2609       2516.6649      1.0177122      4455.7805      0.00026874381  26874.381    
    267250   221.8436       221.84338      0.00022030455  270.63221      2275.9091      1.0177122      4455.7805      0.00022030455  22030.455    
    267500   238.61821      238.61797      0.00023683461  291.09594      2448.0012      1.0177122      4455.7805      0.00023683461  23683.461    
    267750   228.07735      228.07709      0.0002580646   278.23686      2339.8611      1.0177122      4455.7805      0.0002580646   25806.46     
    268000   246.34402      246.34379      0.000224977    300.52086      2527.2611      1.0177122      4455.7805      0.000224977    22497.7      
    268250   251.67591      251.67569      0.0002169075   307.02538      2581.9619      1.0177122      4455.7805      0.0002169075   21690.75     
    268500   258.11328      258.11306      0.00021966228  314.87848      2648.0034      1.0177122      4455.7805      0.00021966228  21966.228    
    268750   262.79746      262.79723      0.00023324329  320.59281      2696.0585      1.0177122      4455.7805      0.00023324329  23324.329    
    269000   255.57392      255.57368      0.00024055915  311.78063      2621.9514      1.0177122      4455.7805      0.00024055915  24055.915    
    269250   239.47205      239.47184      0.00021228313  292.1376       2456.7613      1.0177122      4455.7805      0.00021228313  21228.313    
    269500   243.20134      243.20111      0.00022591167  296.68703      2495.0206      1.0177122      4455.7805      0.00022591167  22591.167    
    269750   252.3051       252.30487      0.00023080739  307.79293      2588.4164      1.0177122      4455.7805      0.00023080739  23080.739    
    270000   266.5578       266.55755      0.0002412038   325.18013      2734.6361      1.0177122      4455.7805      0.0002412038   24120.38     
    270250   263.98337      263.98314      0.00023351718  322.03954      2708.2252      1.0177122      4455.7805      0.00023351718  23351.718    
    270500   277.36254      277.3623       0.00023942137  338.3611       2845.4833      1.0177122      4455.7805      0.00023942137  23942.137    
    270750   241.26032      241.26003      0.00029555238  294.31905      2475.1049      1.0177122      4455.7805      0.00029555238  29555.238    
    271000   253.56752      253.5673       0.00022183033  309.333        2601.3677      1.0177122      4455.7805      0.00022183033  22183.033    
    271250   251.11802      251.11781      0.00020978546  306.3448       2576.2388      1.0177122      4455.7805      0.00020978546  20978.546    
    271500   235.74894      235.74873      0.00021401186  287.59568      2418.5655      1.0177122      4455.7805      0.00021401186  21401.186    
    271750   258.09731      258.09709      0.00021478303  314.85901      2647.8399      1.0177122      4455.7805      0.00021478303  21478.303    
    272000   240.62415      240.62394      0.0002095488   293.54308      2468.581       1.0177122      4455.7805      0.0002095488   20954.88     
    272250   267.67121      267.67097      0.00023570324  326.53842      2746.0587      1.0177122      4455.7805      0.00023570324  23570.324    
    272500   256.27158      256.27136      0.00022329125  312.63175      2629.1093      1.0177122      4455.7805      0.00022329125  22329.125    
    272750   249.11126      249.11101      0.00024696839  303.89666      2555.65        1.0177122      4455.7805      0.00024696839  24696.839    
    273000   247.66257      247.66234      0.00023798649  302.12939      2540.7884      1.0177122      4455.7805      0.00023798649  23798.649    
    273250   261.86013      261.85989      0.00023699493  319.44933      2686.4422      1.0177122      4455.7805      0.00023699493  23699.493    
    273500   229.88191      229.88169      0.00021807585  280.43834      2358.3753      1.0177122      4455.7805      0.00021807585  21807.585    
    273750   268.11686      268.11663      0.00022943608  327.08208      2750.631       1.0177122      4455.7805      0.00022943608  22943.608    
    274000   267.22823      267.22801      0.00022535748  325.99803      2741.5146      1.0177122      4455.7805      0.00022535748  22535.748    
    274250   241.27164      241.27141      0.00023517765  294.33293      2475.223       1.0177122      4455.7805      0.00023517765  23517.765    
    274500   248.38586      248.38565      0.00020874388  303.01178      2548.2092      1.0177122      4455.7805      0.00020874388  20874.388    
    274750   281.27178      281.27155      0.0002307849   343.1301       2885.5886      1.0177122      4455.7805      0.0002307849   23078.49     
    275000   236.22177      236.22153      0.00023791808  288.17247      2423.4162      1.0177122      4455.7805      0.00023791808  23791.808    
    275250   245.54433      245.54406      0.0002633098   299.54525      2519.0562      1.0177122      4455.7805      0.0002633098   26330.98     
    275500   248.03512      248.03489      0.00023366511  302.58387      2544.6105      1.0177122      4455.7805      0.00023366511  23366.511    
    275750   272.95582      272.95562      0.00020162837  332.98529      2800.275       1.0177122      4455.7805      0.00020162837  20162.837    
    276000   232.4792       232.47895      0.00025219154  283.6068       2385.0198      1.0177122      4455.7805      0.00025219154  25219.154    
    276250   265.78415      265.78392      0.00022985508  324.23635      2726.6996      1.0177122      4455.7805      0.00022985508  22985.508    
    276500   249.77563      249.77536      0.00027279288  304.70711      2562.4654      1.0177122      4455.7805      0.00027279288  27279.288    
    276750   253.81429      253.81406      0.00023387164  309.63402      2603.8993      1.0177122      4455.7805      0.00023387164  23387.164    
    277000   273.27419      273.27399      0.00019992132  333.37367      2803.5408      1.0177122      4455.7805      0.00019992132  19992.132    
    277250   263.73651      263.7363       0.00020706333  321.73841      2705.693       1.0177122      4455.7805      0.00020706333  20706.333    
    277500   232.34884      232.34861      0.00023144738  283.4478       2383.6836      1.0177122      4455.7805      0.00023144738  23144.738    
    277750   267.15199      267.15176      0.0002318784   325.90502      2740.7321      1.0177122      4455.7805      0.0002318784   23187.84     
    278000   264.17797      264.17776      0.00020571947  322.27696      2710.2219      1.0177122      4455.7805      0.00020571947  20571.947    
    278250   241.03928      241.03905      0.000230396    294.04948      2472.8391      1.0177122      4455.7805      0.000230396    23039.6      
    278500   258.22512      258.2249       0.00021380922  315.01492      2649.1507      1.0177122      4455.7805      0.00021380922  21380.922    
    278750   237.5157       237.51545      0.00024209485  289.75096      2436.6906      1.0177122      4455.7805      0.00024209485  24209.485    
    279000   256.04226      256.04202      0.00024029182  312.35197      2626.7561      1.0177122      4455.7805      0.00024029182  24029.182    
    279250   253.22863      253.22838      0.00024915491  308.91954      2597.8904      1.0177122      4455.7805      0.00024915491  24915.491    
    279500   249.21406      249.21381      0.00024382275  304.02207      2556.7047      1.0177122      4455.7805      0.00024382275  24382.275    
    279750   237.50683      237.5066       0.00022836323  289.74016      2436.5997      1.0177122      4455.7805      0.00022836323  22836.323    
    280000   242.94338      242.94314      0.00023925558  296.37233      2492.3735      1.0177122      4455.7805      0.00023925558  23925.558    
    280250   256.80591      256.80567      0.00024047438  313.28356      2634.5905      1.0177122      4455.7805      0.00024047438  24047.438    
    280500   247.12342      247.12318      0.00024304801  301.47166      2535.2567      1.0177122      4455.7805      0.00024304801  24304.801    
    280750   249.15282      249.1526       0.0002187877   303.9474       2556.0772      1.0177122      4455.7805      0.0002187877   21878.77     
    281000   245.29077      245.29054      0.00023154356  299.23598      2516.4557      1.0177122      4455.7805      0.00023154356  23154.356    
    281250   270.32563      270.32539      0.00023942815  329.7766       2773.2904      1.0177122      4455.7805      0.00023942815  23942.815    
    281500   257.68128      257.68105      0.00022717877  314.35146      2643.5714      1.0177122      4455.7805      0.00022717877  22717.877    
    281750   258.20556      258.20533      0.00022527943  314.99105      2648.9498      1.0177122      4455.7805      0.00022527943  22527.943    
    282000   245.60441      245.60418      0.00022789975  299.61859      2519.6733      1.0177122      4455.7805      0.00022789975  22789.975    
    282250   253.45094      253.45072      0.00021893927  309.19078      2600.1718      1.0177122      4455.7805      0.00021893927  21893.927    
    282500   249.05776      249.05757      0.00019215606  303.83147      2555.1026      1.0177122      4455.7805      0.00019215606  19215.606    
    282750   253.91706      253.91681      0.00024581277  309.75938      2604.9532      1.0177122      4455.7805      0.00024581277  24581.277    
    283000   255.03622      255.03601      0.00020543815  311.12472      2616.4356      1.0177122      4455.7805      0.00020543815  20543.815    
    283250   247.8844       247.88418      0.00022359787  302.40002      2543.0645      1.0177122      4455.7805      0.00022359787  22359.787    
    283500   237.65719      237.65696      0.00023072929  289.92358      2438.142       1.0177122      4455.7805      0.00023072929  23072.929    
    283750   256.89534      256.89512      0.0002192889   313.39268      2635.5087      1.0177122      4455.7805      0.0002192889   21928.89     
    284000   254.45128      254.45105      0.00023756738  310.4111       2610.434       1.0177122      4455.7805      0.00023756738  23756.738    
    284250   236.92293      236.92272      0.00021102173  289.02787      2430.61        1.0177122      4455.7805      0.00021102173  21102.173    
    284500   252.23527      252.23505      0.00021903129  307.70775      2587.7005      1.0177122      4455.7805      0.00021903129  21903.129    
    284750   240.04003      240.03979      0.00024410413  292.83046      2462.5877      1.0177122      4455.7805      0.00024410413  24410.413    
    285000   253.26541      253.26517      0.00023481336  308.96443      2598.2684      1.0177122      4455.7805      0.00023481336  23481.336    
    285250   287.0827       287.08249      0.00021358301  350.219        2945.204       1.0177122      4455.7805      0.00021358301  21358.301    
    285500   273.25436      273.25414      0.00022060112  333.34946      2803.337       1.0177122      4455.7805      0.00022060112  22060.112    
    285750   247.5059       247.50568      0.00021595031  301.93828      2539.1817      1.0177122      4455.7805      0.00021595031  21595.031    
    286000   256.04168      256.04149      0.00018875503  312.35133      2626.7519      1.0177122      4455.7805      0.00018875503  18875.503    
    286250   259.18166      259.18143      0.00022741436  316.18181      2658.9635      1.0177122      4455.7805      0.00022741436  22741.436    
    286500   258.5334       258.53315      0.00024462924  315.39096      2652.3128      1.0177122      4455.7805      0.00024462924  24462.924    
    286750   237.76213      237.76192      0.00021385766  290.05162      2439.2193      1.0177122      4455.7805      0.00021385766  21385.766    
    287000   252.71886      252.71863      0.00022232036  308.29769      2592.6615      1.0177122      4455.7805      0.00022232036  22232.036    
    287250   270.25718      270.25695      0.00023398773  329.69311      2772.5885      1.0177122      4455.7805      0.00023398773  23398.773    
    287500   233.00784      233.00762      0.00021819068  284.25174      2390.4445      1.0177122      4455.7805      0.00021819068  21819.068    
    287750   265.34901      265.34878      0.00022795179  323.70552      2722.2351      1.0177122      4455.7805      0.00022795179  22795.179    
    288000   249.69606      249.69582      0.00024295515  304.61008      2561.6498      1.0177122      4455.7805      0.00024295515  24295.515    
    288250   266.62898      266.62873      0.00025294728  325.26696      2735.3659      1.0177122      4455.7805      0.00025294728  25294.728    
    288500   238.70677      238.70655      0.00021442047  291.204        2448.9101      1.0177122      4455.7805      0.00021442047  21442.047    
    288750   252.00496      252.00473      0.00022932864  307.42678      2585.3371      1.0177122      4455.7805      0.00022932864  22932.864    
    289000   262.35703      262.3568       0.00022501359  320.05553      2691.5405      1.0177122      4455.7805      0.00022501359  22501.359    
    289250   255.31811      255.31789      0.00021664883  311.46859      2619.3277      1.0177122      4455.7805      0.00021664883  21664.883    
    289500   257.15247      257.15225      0.00022227497  313.70637      2638.1461      1.0177122      4455.7805      0.00022227497  22227.497    
    289750   263.32631      263.32609      0.00022449662  321.23798      2701.4842      1.0177122      4455.7805      0.00022449662  22449.662    
    290000   269.615        269.61478      0.00022140097  328.90971      2766.0005      1.0177122      4455.7805      0.00022140097  22140.097    
    290250   250.89038      250.89017      0.00021507637  306.0671       2573.9033      1.0177122      4455.7805      0.00021507637  21507.637    
    290500   264.20475      264.20455      0.00020620881  322.30964      2710.4968      1.0177122      4455.7805      0.00020620881  20620.881    
    290750   260.04319      260.04297      0.00022120166  317.23282      2667.8026      1.0177122      4455.7805      0.00022120166  22120.166    
    291000   248.69614      248.6959       0.00023697872  303.39026      2551.3916      1.0177122      4455.7805      0.00023697872  23697.872    
    291250   254.43431      254.43408      0.00023138002  310.3904       2610.2602      1.0177122      4455.7805      0.00023138002  23138.002    
    291500   265.70079      265.70055      0.00023153986  324.13465      2725.8444      1.0177122      4455.7805      0.00023153986  23153.986    
    291750   251.01747      251.01725      0.00022129452  306.22212      2575.2067      1.0177122      4455.7805      0.00022129452  22129.452    
    292000   250.06615      250.06591      0.00024408891  305.06157      2565.4467      1.0177122      4455.7805      0.00024408891  24408.891    
    292250   233.46647      233.46625      0.00021641171  284.81123      2395.1493      1.0177122      4455.7805      0.00021641171  21641.171    
    292500   245.122        245.12175      0.0002536604   299.03006      2514.7235      1.0177122      4455.7805      0.0002536604   25366.04     
    292750   245.31007      245.30984      0.00023703616  299.25951      2516.6537      1.0177122      4455.7805      0.00023703616  23703.616    
    293000   239.36936      239.36912      0.00023622694  292.01229      2455.7074      1.0177122      4455.7805      0.00023622694  23622.694    
    293250   251.75176      251.75153      0.00022799058  307.11789      2582.7398      1.0177122      4455.7805      0.00022799058  22799.058    
    293500   226.8917       226.89146      0.00024182937  276.79049      2327.6977      1.0177122      4455.7805      0.00024182937  24182.937    
    293750   254.85473      254.8545       0.00023712735  310.90328      2614.573       1.0177122      4455.7805      0.00023712735  23712.735    
    294000   264.33603      264.33581      0.00021982301  322.46977      2711.8433      1.0177122      4455.7805      0.00021982301  21982.301    
    294250   229.35502      229.35479      0.00022903062  279.79556      2352.9695      1.0177122      4455.7805      0.00022903062  22903.062    
    294500   276.80182      276.8016       0.00022361195  337.67709      2839.7308      1.0177122      4455.7805      0.00022361195  22361.195    
    294750   252.16584      252.16563      0.00021556028  307.62306      2586.9882      1.0177122      4455.7805      0.00021556028  21556.028    
    295000   247.05291      247.05268      0.00022801411  301.38565      2534.5343      1.0177122      4455.7805      0.00022801411  22801.411    
    295250   247.92254      247.92228      0.000261949    302.4465       2543.4543      1.0177122      4455.7805      0.000261949    26194.9      
    295500   252.56455      252.56433      0.00022365102  308.10945      2591.0788      1.0177122      4455.7805      0.00022365102  22365.102    
    295750   252.73859      252.73838      0.00020668121  308.32178      2592.8637      1.0177122      4455.7805      0.00020668121  20668.121    
    296000   271.53714      271.53692      0.0002120167   331.25459      2785.7202      1.0177122      4455.7805      0.0002120167   21201.67     
    296250   266.17662      266.17637      0.00025354889  324.71511      2730.725       1.0177122      4455.7805      0.00025354889  25354.889    
    296500   255.97693      255.97673      0.00020517641  312.27232      2626.0867      1.0177122      4455.7805      0.00020517641  20517.641    
    296750   240.18543      240.18518      0.00025138917  293.00782      2464.0791      1.0177122      4455.7805      0.00025138917  25138.917    
    297000   271.81705      271.81683      0.00022447451  331.59605      2788.5915      1.0177122      4455.7805      0.00022447451  22447.451    
    297250   249.97819      249.97793      0.00025511709  304.95424      2564.5442      1.0177122      4455.7805      0.00025511709  25511.709    
    297500   244.53137      244.53112      0.00024735005  298.30954      2508.6642      1.0177122      4455.7805      0.00024735005  24735.005    
    297750   264.21852      264.21828      0.00023913368  322.32639      2710.6376      1.0177122      4455.7805      0.00023913368  23913.368    
    298000   263.21431      263.21407      0.00024201937  321.10133      2700.335       1.0177122      4455.7805      0.00024201937  24201.937    
    298250   256.33067      256.33042      0.00024627525  312.70379      2629.7144      1.0177122      4455.7805      0.00024627525  24627.525    
    298500   257.50196      257.50175      0.00021666565  314.13273      2641.7322      1.0177122      4455.7805      0.00021666565  21666.565    
    298750   246.09381      246.09358      0.00023187068  300.21562      2524.6945      1.0177122      4455.7805      0.00023187068  23187.068    
    299000   264.79608      264.79588      0.00020084486  323.03101      2716.5633      1.0177122      4455.7805      0.00020084486  20084.486    
    299250   248.18472      248.18449      0.00023125279  302.76638      2546.1452      1.0177122      4455.7805      0.00023125279  23125.279    
    299500   233.48372      233.4835       0.00022069348  284.83228      2395.3264      1.0177122      4455.7805      0.00022069348  22069.348    
    299750   263.20207      263.20183      0.00023623932  321.0864       2700.2092      1.0177122      4455.7805      0.00023623932  23623.932    
    300000   240.36667      240.36644      0.00023204514  293.22894      2465.9391      1.0177122      4455.7805      0.00023204514  23204.514    
    300250   277.25997      277.25973      0.00023667848  338.23598      2844.4306      1.0177122      4455.7805      0.00023667848  23667.848    
    300500   261.97033      261.97011      0.00022526391  319.58379      2687.5732      1.0177122      4455.7805      0.00022526391  22526.391    
    300750   232.43182      232.43159      0.00023321493  283.54903      2384.5345      1.0177122      4455.7805      0.00023321493  23321.493    
    301000   251.88759      251.88735      0.00023963562  307.28359      2584.1329      1.0177122      4455.7805      0.00023963562  23963.562    
    301250   239.42077      239.42056      0.0002129553   292.07504      2456.2353      1.0177122      4455.7805      0.0002129553   21295.53     
    301500   264.65289      264.65264      0.00025103082  322.85628      2715.0932      1.0177122      4455.7805      0.00025103082  25103.082    
    301750   272.58332      272.58308      0.00023640185  332.53082      2796.4526      1.0177122      4455.7805      0.00023640185  23640.185    
    302000   262.54099      262.54077      0.00022121789  320.27995      2693.4276      1.0177122      4455.7805      0.00022121789  22121.789    
    302250   250.75561      250.75537      0.00024240156  305.90265      2572.5197      1.0177122      4455.7805      0.00024240156  24240.156    
    302500   242.71511      242.71489      0.00021698312  296.09388      2490.0324      1.0177122      4455.7805      0.00021698312  21698.312    
    302750   245.55286      245.55265      0.00021137262  299.55573      2519.1448      1.0177122      4455.7805      0.00021137262  21137.262    
    303000   240.29295      240.29274      0.00020879238  293.13904      2465.1835      1.0177122      4455.7805      0.00020879238  20879.238    
    303250   234.31223      234.312        0.00023513384  285.84298      2403.8258      1.0177122      4455.7805      0.00023513384  23513.384    
    303500   275.3644       275.36417      0.00023055302  335.92353      2824.9839      1.0177122      4455.7805      0.00023055302  23055.302    
    303750   231.6023       231.60208      0.00022154589  282.53709      2376.0248      1.0177122      4455.7805      0.00022154589  22154.589    
    304000   250.5253       250.52507      0.00022875308  305.62171      2570.1573      1.0177122      4455.7805      0.00022875308  22875.308    
    304250   261.71169      261.71148      0.00021582661  319.26828      2684.9198      1.0177122      4455.7805      0.00021582661  21582.661    
    304500   251.14906      251.14885      0.00021587615  306.38267      2576.5572      1.0177122      4455.7805      0.00021587615  21587.615    
    304750   235.27879      235.27856      0.00023549455  287.02211      2413.7418      1.0177122      4455.7805      0.00023549455  23549.455    
    305000   255.60973      255.60949      0.00023482913  311.82432      2622.3189      1.0177122      4455.7805      0.00023482913  23482.913    
    305250   251.50706      251.50684      0.00022296923  306.81939      2580.2296      1.0177122      4455.7805      0.00022296923  22296.923    
    305500   258.6877       258.68746      0.00024534481  315.5792       2653.896       1.0177122      4455.7805      0.00024534481  24534.481    
    305750   246.22072      246.22048      0.00024184131  300.37043      2525.9956      1.0177122      4455.7805      0.00024184131  24184.131    
    306000   259.67885      259.67862      0.00023454433  316.78834      2664.0649      1.0177122      4455.7805      0.00023454433  23454.433    
    306250   244.56962      244.56939      0.00023105355  298.35623      2509.0574      1.0177122      4455.7805      0.00023105355  23105.355    
    306500   247.16435      247.16412      0.00022704224  301.5216       2535.6768      1.0177122      4455.7805      0.00022704224  22704.224    
    306750   250.4987       250.49848      0.00022361435  305.58927      2569.8846      1.0177122      4455.7805      0.00022361435  22361.435    
    307000   272.36869      272.36846      0.00023065387  332.26899      2794.2508      1.0177122      4455.7805      0.00023065387  23065.387    
    307250   253.827        253.82677      0.00023212356  309.64953      2604.03        1.0177122      4455.7805      0.00023212356  23212.356    
    307500   238.05024      238.05002      0.00022220685  290.40308      2442.1748      1.0177122      4455.7805      0.00022220685  22220.685    
    307750   238.75425      238.75403      0.00022865566  291.26192      2449.3965      1.0177122      4455.7805      0.00022865566  22865.566    
    308000   236.86647      236.86625      0.00021795516  288.95898      2430.0307      1.0177122      4455.7805      0.00021795516  21795.516    
    308250   245.58071      245.58048      0.00022282078  299.58968      2519.4308      1.0177122      4455.7805      0.00022282078  22282.078    
    308500   267.61636      267.61613      0.00022574707  326.47152      2745.4962      1.0177122      4455.7805      0.00022574707  22574.707    
    308750   226.11963      226.11942      0.00020394495  275.84866      2319.7777      1.0177122      4455.7805      0.00020394495  20394.495    
    309000   275.37608      275.37584      0.00023772475  335.93777      2825.1036      1.0177122      4455.7805      0.00023772475  23772.475    
    309250   263.54331      263.54306      0.00025046274  321.50267      2703.71        1.0177122      4455.7805      0.00025046274  25046.274    
    309500   238.96382      238.9636       0.00022178922  291.51759      2451.5474      1.0177122      4455.7805      0.00022178922  22178.922    
    309750   229.90465      229.90441      0.00023968486  280.46606      2358.608       1.0177122      4455.7805      0.00023968486  23968.486    
    310000   248.92051      248.92027      0.00023935781  303.66397      2553.6931      1.0177122      4455.7805      0.00023935781  23935.781    
    310250   238.96632      238.9661       0.00022441639  291.52063      2451.5727      1.0177122      4455.7805      0.00022441639  22441.639    
    310500   246.69789      246.69766      0.00023069593  300.95256      2530.8918      1.0177122      4455.7805      0.00023069593  23069.593    
    310750   240.20664      240.20645      0.00019379756  293.03377      2464.2984      1.0177122      4455.7805      0.00019379756  19379.756    
    311000   261.5005       261.50026      0.00023073154  319.01062      2682.7529      1.0177122      4455.7805      0.00023073154  23073.154    
    311250   242.78003      242.77979      0.00023749014  296.17305      2490.6979      1.0177122      4455.7805      0.00023749014  23749.014    
    311500   241.37196      241.37175      0.00021107088  294.45535      2476.2528      1.0177122      4455.7805      0.00021107088  21107.088    
    311750   244.48097      244.48074      0.0002271936   298.24808      2508.1479      1.0177122      4455.7805      0.0002271936   22719.36     
    312000   233.19381      233.19356      0.00024195647  284.47858      2392.3518      1.0177122      4455.7805      0.00024195647  24195.647    
    312250   266.97923      266.979        0.00022652955  325.69426      2738.96        1.0177122      4455.7805      0.00022652955  22652.955    
    312500   246.8476       246.84736      0.00023855569  301.13518      2532.4273      1.0177122      4455.7805      0.00023855569  23855.569    
    312750   282.46693      282.46671      0.00022356978  344.5881       2897.8502      1.0177122      4455.7805      0.00022356978  22356.978    
    313000   269.66654      269.66629      0.00024583754  328.97256      2766.529       1.0177122      4455.7805      0.00024583754  24583.754    
    313250   238.18346      238.18323      0.00023294985  290.56559      2443.5411      1.0177122      4455.7805      0.00023294985  23294.985    
    313500   249.37187      249.37163      0.00023228476  304.2146       2558.3241      1.0177122      4455.7805      0.00023228476  23228.476    
    313750   261.23576      261.23554      0.00022728161  318.68767      2680.0372      1.0177122      4455.7805      0.00022728161  22728.161    
    314000   228.44307      228.44285      0.00022509068  278.68306      2343.6136      1.0177122      4455.7805      0.00022509068  22509.068    
    314250   254.28912      254.28888      0.00024932275  310.21327      2608.7706      1.0177122      4455.7805      0.00024932275  24932.275    
    314500   233.39563      233.39539      0.00024309444  284.72478      2394.4219      1.0177122      4455.7805      0.00024309444  24309.444    
    314750   252.54888      252.54867      0.0002083868   308.09034      2590.918       1.0177122      4455.7805      0.0002083868   20838.68     
    315000   246.92317      246.92292      0.00024614684  301.22736      2533.2022      1.0177122      4455.7805      0.00024614684  24614.684    
    315250   238.39057      238.39034      0.00022199031  290.81826      2445.6665      1.0177122      4455.7805      0.00022199031  22199.031    
    315500   236.87617      236.87594      0.00022467697  288.9708       2430.1296      1.0177122      4455.7805      0.00022467697  22467.697    
    315750   266.75838      266.75811      0.00026767212  325.42479      2736.6931      1.0177122      4455.7805      0.00026767212  26767.212    
    316000   263.81293      263.81269      0.00023891705  321.83161      2706.4761      1.0177122      4455.7805      0.00023891705  23891.705    
    316250   233.43611      233.43589      0.0002171553   284.7742       2394.8378      1.0177122      4455.7805      0.0002171553   21715.53     
    316500   267.6889       267.68867      0.00022539546  326.56001      2746.2403      1.0177122      4455.7805      0.00022539546  22539.546    
    316750   275.69906      275.69882      0.00023371246  336.33179      2828.4175      1.0177122      4455.7805      0.00023371246  23371.246    
    317000   249.69636      249.69612      0.0002474346   304.61045      2561.6527      1.0177122      4455.7805      0.0002474346   24743.46     
    317250   242.67804      242.67781      0.00022814544  296.04865      2489.6517      1.0177122      4455.7805      0.00022814544  22814.544    
    317500   248.87455      248.87434      0.00020567275  303.60795      2553.2229      1.0177122      4455.7805      0.00020567275  20567.275    
    317750   257.40187      257.40166      0.00021420628  314.01062      2640.705       1.0177122      4455.7805      0.00021420628  21420.628    
    318000   252.83238      252.83215      0.00022892462  308.43617      2593.826       1.0177122      4455.7805      0.00022892462  22892.462    
    318250   242.78644      242.78621      0.00023123001  296.18088      2490.7637      1.0177122      4455.7805      0.00023123001  23123.001    
    318500   256.64263      256.64239      0.00024141627  313.08438      2632.9152      1.0177122      4455.7805      0.00024141627  24141.627    
    318750   255.18065      255.18042      0.00022836035  311.30088      2617.9168      1.0177122      4455.7805      0.00022836035  22836.035    
    319000   271.3156       271.3154       0.00020606214  330.98434      2783.4477      1.0177122      4455.7805      0.00020606214  20606.214    
    319250   253.20385      253.20362      0.00022779481  308.88934      2597.6368      1.0177122      4455.7805      0.00022779481  22779.481    
    319500   241.58459      241.58439      0.00020764627  294.71475      2478.4343      1.0177122      4455.7805      0.00020764627  20764.627    
    319750   238.34249      238.34229      0.00019566992  290.75964      2445.1737      1.0177122      4455.7805      0.00019566992  19566.992    
    320000   241.97145      241.97122      0.00023540931  295.18665      2482.4023      1.0177122      4455.7805      0.00023540931  23540.931    
    320250   249.94923      249.949        0.00023021247  304.91895      2564.2474      1.0177122      4455.7805      0.00023021247  23021.247    
    320500   249.24482      249.24461      0.00021212245  304.05964      2557.0212      1.0177122      4455.7805      0.00021212245  21212.245    
    320750   240.47096      240.47076      0.00020106994  293.3562       2467.0095      1.0177122      4455.7805      0.00020106994  20106.994    
    321000   228.34081      228.34058      0.00023323922  278.5583       2342.5647      1.0177122      4455.7805      0.00023323922  23323.922    
    321250   258.75669      258.75645      0.00024610879  315.66336      2654.6038      1.0177122      4455.7805      0.00024610879  24610.879    
    321500   267.78613      267.78589      0.00024495369  326.6786       2747.2374      1.0177122      4455.7805      0.00024495369  24495.369    
    321750   233.02836      233.02814      0.00021885334  284.27677      2390.6546      1.0177122      4455.7805      0.00021885334  21885.334    
    322000   256.71468      256.71443      0.000254764    313.17226      2633.6543      1.0177122      4455.7805      0.000254764    25476.4      
    322250   261.37424      261.37402      0.00022301629  318.85661      2681.4578      1.0177122      4455.7805      0.00022301629  22301.629    
    322500   267.89571      267.89546      0.00025440988  326.81227      2748.3614      1.0177122      4455.7805      0.00025440988  25440.988    
    322750   244.31896      244.31872      0.00023773928  298.05043      2506.486       1.0177122      4455.7805      0.00023773928  23773.928    
    323000   253.01734      253.01715      0.00018836268  308.66185      2595.7244      1.0177122      4455.7805      0.00018836268  18836.268    
    323250   233.51353      233.51329      0.00024625751  284.86861      2395.6313      1.0177122      4455.7805      0.00024625751  24625.751    
    323500   240.38162      240.38139      0.00023102673  293.24718      2466.0922      1.0177122      4455.7805      0.00023102673  23102.673    
    323750   242.93684      242.93665      0.00019408669  296.3644       2492.3075      1.0177122      4455.7805      0.00019408669  19408.669    
    324000   259.81984      259.81964      0.00020324923  316.96038      2665.5117      1.0177122      4455.7805      0.00020324923  20324.923    
    324250   262.77098      262.77074      0.00024241302  320.5605       2695.7871      1.0177122      4455.7805      0.00024241302  24241.302    
    324500   247.60557      247.60534      0.00022752547  302.05985      2540.2032      1.0177122      4455.7805      0.00022752547  22752.547    
    324750   267.61096      267.61074      0.00022380882  326.46494      2745.4414      1.0177122      4455.7805      0.00022380882  22380.882    
    325000   229.86862      229.86838      0.0002422681   280.4221       2358.238       1.0177122      4455.7805      0.0002422681   24226.81     
    325250   265.18816      265.18792      0.00023552624  323.50928      2720.5848      1.0177122      4455.7805      0.00023552624  23552.624    
    325500   251.77419      251.77396      0.00023540849  307.14525      2582.9696      1.0177122      4455.7805      0.00023540849  23540.849    
    325750   253.79768      253.79744      0.00023694443  309.61375      2603.7287      1.0177122      4455.7805      0.00023694443  23694.443    
    326000   253.05053      253.05032      0.00021567301  308.70232      2596.0644      1.0177122      4455.7805      0.00021567301  21567.301    
    326250   259.50591      259.50567      0.0002412246   316.57736      2662.29        1.0177122      4455.7805      0.0002412246   24122.46     
    326500   249.82542      249.82518      0.00024734674  304.76789      2562.977       1.0177122      4455.7805      0.00024734674  24734.674    
    326750   246.51167      246.51145      0.00022091016  300.7254       2528.9812      1.0177122      4455.7805      0.00022091016  22091.016    
    327000   235.39841      235.39816      0.00024941519  287.16801      2414.9686      1.0177122      4455.7805      0.00024941519  24941.519    
    327250   234.0072       234.00697      0.0002334302   285.47087      2400.6966      1.0177122      4455.7805      0.0002334302   23343.02     
    327500   230.66828      230.66807      0.00021517008  281.39766      2366.443       1.0177122      4455.7805      0.00021517008  21517.008    
    327750   242.82084      242.8206       0.00024195409  296.22283      2491.1157      1.0177122      4455.7805      0.00024195409  24195.409    
    328000   248.78229      248.78206      0.00022656493  303.49537      2552.2756      1.0177122      4455.7805      0.00022656493  22656.493    
    328250   255.03061      255.03037      0.00024323711  311.11783      2616.3774      1.0177122      4455.7805      0.00024323711  24323.711    
    328500   236.26851      236.26827      0.00024213984  288.22949      2423.8955      1.0177122      4455.7805      0.00024213984  24213.984    
    328750   267.167        267.16677      0.00022439733  325.92333      2740.8861      1.0177122      4455.7805      0.00022439733  22439.733    
    329000   248.47622      248.47599      0.00023478956  303.12198      2549.1355      1.0177122      4455.7805      0.00023478956  23478.956    
    329250   256.66105      256.66082      0.00023385698  313.10686      2633.1046      1.0177122      4455.7805      0.00023385698  23385.698    
    329500   242.10557      242.10532      0.00024576671  295.35025      2483.7782      1.0177122      4455.7805      0.00024576671  24576.671    
    329750   263.78655      263.78631      0.00023635834  321.79942      2706.2058      1.0177122      4455.7805      0.00023635834  23635.834    
    330000   253.32465      253.32445      0.00020130727  309.03674      2598.8767      1.0177122      4455.7805      0.00020130727  20130.727    
    330250   262.87657      262.87632      0.00024921049  320.6893       2696.8694      1.0177122      4455.7805      0.00024921049  24921.049    
    330500   272.33631      272.33611      0.00020851362  332.22953      2793.919       1.0177122      4455.7805      0.00020851362  20851.362    
    330750   257.52478      257.52455      0.00023019998  314.16054      2641.9654      1.0177122      4455.7805      0.00023019998  23019.998    
    331000   227.61826      227.61805      0.00021838446  277.67686      2335.1521      1.0177122      4455.7805      0.00021838446  21838.446    
    331250   243.49244      243.4922       0.00023774605  297.04213      2498.0061      1.0177122      4455.7805      0.00023774605  23774.605    
    331500   253.46244      253.46223      0.00021670938  309.20482      2600.2906      1.0177122      4455.7805      0.00021670938  21670.938    
    331750   267.74714      267.74692      0.0002254627   326.63106      2746.8381      1.0177122      4455.7805      0.0002254627   22546.27     
    332000   276.40988      276.40964      0.0002333491   337.19894      2835.7096      1.0177122      4455.7805      0.0002333491   23334.91     
    332250   247.46311      247.46285      0.00026071635  301.88603      2538.7414      1.0177122      4455.7805      0.00026071635  26071.635    
    332500   253.21156      253.21132      0.00023702144  308.89873      2597.7159      1.0177122      4455.7805      0.00023702144  23702.144    
    332750   235.28099      235.28076      0.0002321395   287.0248       2413.7643      1.0177122      4455.7805      0.0002321395   23213.95     
    333000   250.91374      250.91348      0.00025680016  306.09554      2574.1417      1.0177122      4455.7805      0.00025680016  25680.016    
    333250   261.88519      261.88496      0.00022738961  319.47992      2686.6998      1.0177122      4455.7805      0.00022738961  22738.961    
    333500   271.81185      271.81162      0.00023436522  331.58969      2788.5377      1.0177122      4455.7805      0.00023436522  23436.522    
    333750   271.59477      271.59455      0.00021554097  331.32489      2786.3115      1.0177122      4455.7805      0.00021554097  21554.097    
    334000   263.01929      263.01905      0.00023503052  320.86342      2698.3345      1.0177122      4455.7805      0.00023503052  23503.052    
    334250   253.87218      253.87197      0.00020982114  309.70468      2604.4938      1.0177122      4455.7805      0.00020982114  20982.114    
    334500   255.87323      255.87298      0.00024992991  312.14575      2625.0219      1.0177122      4455.7805      0.00024992991  24992.991    
    334750   248.37338      248.37314      0.00023751056  302.99651      2548.0801      1.0177122      4455.7805      0.00023751056  23751.056    
    335000   256.52863      256.52842      0.00021351228  312.94534      2631.7464      1.0177122      4455.7805      0.00021351228  21351.228    
    335250   232.90216      232.90188      0.00028010794  284.12275      2389.3586      1.0177122      4455.7805      0.00028010794  28010.794    
    335500   250.96779      250.96758      0.00020757314  306.16154      2574.6975      1.0177122      4455.7805      0.00020757314  20757.314    
    335750   259.41463      259.4144       0.00023895158  316.46601      2661.3533      1.0177122      4455.7805      0.00023895158  23895.158    
    336000   253.60873      253.60852      0.00021754432  309.38328      2601.7911      1.0177122      4455.7805      0.00021754432  21754.432    
    336250   234.89381      234.8936       0.0002048278   286.55249      2409.7928      1.0177122      4455.7805      0.0002048278   20482.78     
    336500   236.12714      236.12694      0.00020842384  288.05707      2422.4457      1.0177122      4455.7805      0.00020842384  20842.384    
    336750   247.32555      247.32533      0.00021931718  301.71826      2537.3313      1.0177122      4455.7805      0.00021931718  21931.718    
    337000   239.72853      239.72832      0.00020953414  292.45049      2459.3927      1.0177122      4455.7805      0.00020953414  20953.414    
    337250   219.02947      219.02923      0.00023669362  267.19916      2247.0386      1.0177122      4455.7805      0.00023669362  23669.362    
    337500   261.69593      261.69568      0.00024511787  319.24901      2684.7575      1.0177122      4455.7805      0.00024511787  24511.787    
    337750   240.61334      240.61311      0.0002290007   293.52986      2468.4698      1.0177122      4455.7805      0.0002290007   22900.07     
    338000   258.30648      258.30621      0.00026490798  315.11411      2649.9843      1.0177122      4455.7805      0.00026490798  26490.798    
    338250   268.15366      268.15342      0.00024542275  327.12696      2751.0077      1.0177122      4455.7805      0.00024542275  24542.275    
    338500   265.91964      265.91942      0.00021640303  324.40166      2728.0896      1.0177122      4455.7805      0.00021640303  21640.303    
    338750   260.89745      260.89723      0.00022232189  318.27496      2676.5661      1.0177122      4455.7805      0.00022232189  22232.189    
    339000   280.89603      280.8958       0.00022394738  342.67171      2881.7337      1.0177122      4455.7805      0.00022394738  22394.738    
    339250   258.38519      258.38496      0.00022832788  315.21018      2650.7925      1.0177122      4455.7805      0.00022832788  22832.788    
    339500   255.70825      255.708        0.00024383149  311.9445       2623.3299      1.0177122      4455.7805      0.00024383149  24383.149    
    339750   253.69016      253.68993      0.00023373863  309.48259      2602.626       1.0177122      4455.7805      0.00023373863  23373.863    
    340000   268.28216      268.28192      0.00023957065  327.28373      2752.3263      1.0177122      4455.7805      0.00023957065  23957.065    
    340250   245.20474      245.20449      0.00024521197  299.131        2515.573       1.0177122      4455.7805      0.00024521197  24521.197    
    340500   256.36993      256.36971      0.00022303844  312.75172      2630.1186      1.0177122      4455.7805      0.00022303844  22303.844    
    340750   242.85984      242.85963      0.00021133917  296.27045      2491.5171      1.0177122      4455.7805      0.00021133917  21133.917    
    341000   257.53638      257.53614      0.00023926973  314.17469      2642.0843      1.0177122      4455.7805      0.00023926973  23926.973    
    341250   233.94624      233.94598      0.00025707507  285.39647      2400.0704      1.0177122      4455.7805      0.00025707507  25707.507    
    341500   255.94532      255.94509      0.00022954259  312.23372      2625.7618      1.0177122      4455.7805      0.00022954259  22954.259    
    341750   247.33993      247.3397       0.00022878885  301.7358       2537.4785      1.0177122      4455.7805      0.00022878885  22878.885    
    342000   243.48234      243.48212      0.0002165389   297.02984      2497.9032      1.0177122      4455.7805      0.0002165389   21653.89     
    342250   263.62862      263.62836      0.00025537659  321.60673      2704.585       1.0177122      4455.7805      0.00025537659  25537.659    
    342500   237.69422      237.69398      0.0002467881   289.96874      2438.5213      1.0177122      4455.7805      0.0002467881   24678.81     
    342750   252.56365      252.56342      0.00022515375  308.10834      2591.069       1.0177122      4455.7805      0.00022515375  22515.375    
    343000   264.5518       264.55155      0.00024481352  322.73296      2714.0561      1.0177122      4455.7805      0.00024481352  24481.352    
    343250   232.24658      232.24636      0.00021991114  283.32305      2382.6348      1.0177122      4455.7805      0.00021991114  21991.114    
    343500   253.80376      253.80353      0.00023610666  309.62118      2603.7917      1.0177122      4455.7805      0.00023610666  23610.666    
    343750   243.12836      243.12813      0.00022995365  296.59799      2494.2711      1.0177122      4455.7805      0.00022995365  22995.365    
    344000   236.50509      236.50487      0.0002155692   288.51812      2426.3229      1.0177122      4455.7805      0.0002155692   21556.92     
    344250   246.70172      246.70148      0.00024201463  300.95722      2530.9308      1.0177122      4455.7805      0.00024201463  24201.463    
    344500   256.0623       256.06202      0.00027415459  312.37637      2626.9608      1.0177122      4455.7805      0.00027415459  27415.459    
    344750   241.78237      241.78212      0.00024574422  294.95597      2480.4623      1.0177122      4455.7805      0.00024574422  24574.422    
    345000   246.29842      246.29818      0.00024531916  300.46521      2526.793       1.0177122      4455.7805      0.00024531916  24531.916    
    345250   255.49426      255.49402      0.00024033404  311.68346      2621.1343      1.0177122      4455.7805      0.00024033404  24033.404    
    345500   248.24199      248.24177      0.00022314479  302.83625      2546.7327      1.0177122      4455.7805      0.00022314479  22314.479    
    345750   234.63515      234.63491      0.0002326158   286.23691      2407.1388      1.0177122      4455.7805      0.0002326158   23261.58     
    346000   245.58992      245.58969      0.00022752471  299.60091      2519.5252      1.0177122      4455.7805      0.00022752471  22752.471    
    346250   247.69752      247.69729      0.00023011771  302.17203      2541.1469      1.0177122      4455.7805      0.00023011771  23011.771    
    346500   231.70733      231.70712      0.00021559066  282.66522      2377.1022      1.0177122      4455.7805      0.00021559066  21559.066    
    346750   245.17987      245.17967      0.00020079704  299.10072      2515.3187      1.0177122      4455.7805      0.00020079704  20079.704    
    347000   235.52802      235.52779      0.00022951334  287.32616      2416.2987      1.0177122      4455.7805      0.00022951334  22951.334    
    347250   254.46211      254.46189      0.00022397945  310.42433      2610.5455      1.0177122      4455.7805      0.00022397945  22397.945    
    347500   254.28804      254.28778      0.00026078243  310.21193      2608.7594      1.0177122      4455.7805      0.00026078243  26078.243    
    347750   257.67584      257.67561      0.00022630228  314.34483      2643.5156      1.0177122      4455.7805      0.00022630228  22630.228    
    348000   239.28659      239.28635      0.0002364439   291.91132      2454.8581      1.0177122      4455.7805      0.0002364439   23644.39     
    348250   240.75072      240.75047      0.00024610076  293.69744      2469.8786      1.0177122      4455.7805      0.00024610076  24610.076    
    348500   247.94837      247.94813      0.00024550731  302.47803      2543.72        1.0177122      4455.7805      0.00024550731  24550.731    
    348750   239.51669      239.51645      0.00023549413  292.19202      2457.219       1.0177122      4455.7805      0.00023549413  23549.413    
    349000   244.92938      244.92915      0.00022353619  298.79511      2512.7481      1.0177122      4455.7805      0.00022353619  22353.619    
    349250   250.687        250.68675      0.00024468955  305.81895      2571.8157      1.0177122      4455.7805      0.00024468955  24468.955    
    349500   255.75817      255.75795      0.00022393723  312.00542      2623.842       1.0177122      4455.7805      0.00022393723  22393.723    
    349750   237.55887      237.55863      0.00023389034  289.80363      2437.1333      1.0177122      4455.7805      0.00023389034  23389.034    
    350000   269.23078      269.23053      0.00024860644  328.44096      2762.0582      1.0177122      4455.7805      0.00024860644  24860.644    
    350250   239.68253      239.6823       0.0002295958   292.39434      2458.92        1.0177122      4455.7805      0.0002295958   22959.58     
    350500   251.11007      251.10986      0.00021800974  306.3351       2576.1568      1.0177122      4455.7805      0.00021800974  21800.974    
    350750   254.5164       254.51615      0.00024678264  310.49053      2611.1018      1.0177122      4455.7805      0.00024678264  24678.264    
    351000   242.17417      242.17395      0.00022315181  295.43397      2484.4822      1.0177122      4455.7805      0.00022315181  22315.181    
    351250   244.49942      244.49917      0.00024308028  298.27057      2508.337       1.0177122      4455.7805      0.00024308028  24308.028    
    351500   277.32871      277.32848      0.00022751435  338.31985      2845.1361      1.0177122      4455.7805      0.00022751435  22751.435    
    351750   261.19109      261.19086      0.000229606    318.63316      2679.5786      1.0177122      4455.7805      0.000229606    22960.6      
    352000   252.62001      252.61977      0.00024374681  308.17708      2591.6468      1.0177122      4455.7805      0.00024374681  24374.681    
    352250   242.6407       242.6405       0.00020337388  296.00312      2489.269       1.0177122      4455.7805      0.00020337388  20337.388    
    352500   265.79015      265.78992      0.00022911899  324.24368      2726.7608      1.0177122      4455.7805      0.00022911899  22911.899    
    352750   247.56958      247.56938      0.00019736709  302.01599      2539.8348      1.0177122      4455.7805      0.00019736709  19736.709    
    353000   249.60526      249.605        0.00025707068  304.49929      2560.7181      1.0177122      4455.7805      0.00025707068  25707.068    
    353250   251.40768      251.40749      0.00019089245  306.69819      2579.2108      1.0177122      4455.7805      0.00019089245  19089.245    
    353500   243.71412      243.71386      0.00025352364  297.31255      2500.2799      1.0177122      4455.7805      0.00025352364  25352.364    
    353750   271.93026      271.93005      0.0002042489   331.73417      2789.7536      1.0177122      4455.7805      0.0002042489   20424.89     
    354000   242.57076      242.57053      0.00023143068  295.91777      2488.5509      1.0177122      4455.7805      0.00023143068  23143.068    
    354250   274.13493      274.13469      0.0002394329   334.42366      2812.3706      1.0177122      4455.7805      0.0002394329   23943.29     
    354500   238.49799      238.49777      0.00021913731  290.94931      2446.7682      1.0177122      4455.7805      0.00021913731  21913.731    
    354750   239.62102      239.62081      0.00021434597  292.31933      2458.2898      1.0177122      4455.7805      0.00021434597  21434.597    
    355000   230.74368      230.74343      0.00024810829  281.48959      2367.2155      1.0177122      4455.7805      0.00024810829  24810.829    
    355250   256.31406      256.31384      0.00022013055  312.68357      2629.545       1.0177122      4455.7805      0.00022013055  22013.055    
    355500   235.68619      235.68595      0.00024095053  287.5191       2417.9213      1.0177122      4455.7805      0.00024095053  24095.053    
    355750   254.3895       254.38928      0.00022628494  310.33575      2609.8007      1.0177122      4455.7805      0.00022628494  22628.494    
    356000   245.89725      245.89703      0.00022290296  299.97585      2522.6778      1.0177122      4455.7805      0.00022290296  22290.296    
    356250   263.7452       263.74499      0.00021172746  321.74901      2705.782       1.0177122      4455.7805      0.00021172746  21172.746    
    356500   236.96269      236.96247      0.00022582637  289.07635      2431.0175      1.0177122      4455.7805      0.00022582637  22582.637    
    356750   239.89956      239.89936      0.00020391403  292.65914      2461.1472      1.0177122      4455.7805      0.00020391403  20391.403    
    357000   248.83422      248.83397      0.00024273936  303.5587       2552.8081      1.0177122      4455.7805      0.00024273936  24273.936    
    357250   250.99199      250.99174      0.00024694459  306.19101      2574.9445      1.0177122      4455.7805      0.00024694459  24694.459    
    357500   255.51785      255.51761      0.00024394504  311.71223      2621.376       1.0177122      4455.7805      0.00024394504  24394.504    
    357750   238.10126      238.10105      0.00021504726  290.46533      2442.6982      1.0177122      4455.7805      0.00021504726  21504.726    
    358000   246.74021      246.74         0.00020282097  301.00421      2531.3266      1.0177122      4455.7805      0.00020282097  20282.097    
    358250   271.35414      271.35391      0.00022671715  331.03133      2783.8425      1.0177122      4455.7805      0.00022671715  22671.715    
    358500   255.71524      255.71502      0.00021247638  311.95306      2623.4017      1.0177122      4455.7805      0.00021247638  21247.638    
    358750   286.53636      286.53614      0.00022121637  349.5525       2939.5984      1.0177122      4455.7805      0.00022121637  22121.637    
    359000   270.0801       270.07984      0.00026091027  329.47705      2770.7715      1.0177122      4455.7805      0.00026091027  26091.027    
    359250   264.93293      264.93268      0.00025060317  323.1979       2717.9659      1.0177122      4455.7805      0.00025060317  25060.317    
    359500   255.06466      255.06444      0.00021736988  311.1594       2616.7271      1.0177122      4455.7805      0.00021736988  21736.988    
    359750   256.49584      256.49562      0.0002182825   312.90533      2631.4101      1.0177122      4455.7805      0.0002182825   21828.25     
    360000   250.63427      250.63402      0.00024802873  305.75462      2571.275       1.0177122      4455.7805      0.00024802873  24802.873    
    360250   249.88394      249.88374      0.00019865287  304.83933      2563.5783      1.0177122      4455.7805      0.00019865287  19865.287    
    360500   236.51069      236.51047      0.00022065135  288.52495      2426.3804      1.0177122      4455.7805      0.00022065135  22065.135    
    360750   221.49082      221.49057      0.00024525618  270.20181      2272.2893      1.0177122      4455.7805      0.00024525618  24525.618    
    361000   227.21112      227.2109       0.00022431256  277.18018      2330.9752      1.0177122      4455.7805      0.00022431256  22431.256    
    361250   244.01605      244.01584      0.000212292    297.68094      2503.3786      1.0177122      4455.7805      0.000212292    21229.2      
    361500   242.34859      242.34839      0.00020740234  295.64677      2486.2723      1.0177122      4455.7805      0.00020740234  20740.234    
    361750   255.13979      255.13954      0.0002473073   311.25102      2617.4975      1.0177122      4455.7805      0.0002473073   24730.73     
    362000   253.13476      253.13455      0.00020286373  308.80508      2596.929       1.0177122      4455.7805      0.00020286373  20286.373    
    362250   240.27041      240.27018      0.00022187602  293.11152      2464.9515      1.0177122      4455.7805      0.00022187602  22187.602    
    362500   239.32114      239.32091      0.00022918508  291.95348      2455.213       1.0177122      4455.7805      0.00022918508  22918.508    
    362750   241.08571      241.08552      0.00019780013  294.10616      2473.3166      1.0177122      4455.7805      0.00019780013  19780.013    
    363000   261.6157       261.6155       0.00020067195  319.15119      2683.9357      1.0177122      4455.7805      0.00020067195  20067.195    
    363250   270.6997       270.69947      0.00022927781  330.23296      2777.128       1.0177122      4455.7805      0.00022927781  22927.781    
    363500   250.84087      250.84064      0.00023189094  306.00668      2573.3944      1.0177122      4455.7805      0.00023189094  23189.094    
    363750   259.7          259.69976      0.00023851331  316.81413      2664.2815      1.0177122      4455.7805      0.00023851331  23851.331    
    364000   236.75621      236.75599      0.00021951848  288.82447      2428.8992      1.0177122      4455.7805      0.00021951848  21951.848    
    364250   248.6605       248.66026      0.00023920163  303.34678      2551.0259      1.0177122      4455.7805      0.00023920163  23920.163    
    364500   245.02204      245.02179      0.00024372068  298.90812      2513.6984      1.0177122      4455.7805      0.00024372068  24372.068    
    364750   240.89758      240.8973       0.00028033643  293.87655      2471.3845      1.0177122      4455.7805      0.00028033643  28033.643    
    365000   238.21474      238.21453      0.0002136712   290.60378      2443.8625      1.0177122      4455.7805      0.0002136712   21367.12     
    365250   248.05635      248.05613      0.00022690897  302.60978      2544.828       1.0177122      4455.7805      0.00022690897  22690.897    
    365500   254.92925      254.92901      0.00024099079  310.99418      2615.3376      1.0177122      4455.7805      0.00024099079  24099.079    
    365750   251.99823      251.998        0.00023844698  307.41856      2585.2679      1.0177122      4455.7805      0.00023844698  23844.698    
    366000   246.23752      246.23731      0.00021384676  300.39096      2526.1692      1.0177122      4455.7805      0.00021384676  21384.676    
    366250   251.75324      251.75302      0.00022506361  307.11971      2582.7547      1.0177122      4455.7805      0.00022506361  22506.361    
    366500   262.08459      262.08438      0.0002087818   319.72319      2688.7461      1.0177122      4455.7805      0.0002087818   20878.18     
    366750   258.15712      258.15692      0.0001992645   314.93199      2648.4541      1.0177122      4455.7805      0.0001992645   19926.45     
    367000   245.04246      245.04222      0.00024578768  298.93304      2513.9079      1.0177122      4455.7805      0.00024578768  24578.768    
    367250   274.95723      274.957        0.00022456363  335.42682      2820.8071      1.0177122      4455.7805      0.00022456363  22456.363    
    367500   255.4434       255.44314      0.00025452733  311.62139      2620.6119      1.0177122      4455.7805      0.00025452733  25452.733    
    367750   253.08589      253.08565      0.00024196111  308.74542      2596.4262      1.0177122      4455.7805      0.00024196111  24196.111    
    368000   276.54843      276.5482       0.00022266231  337.36797      2837.1314      1.0177122      4455.7805      0.00022266231  22266.231    
    368250   233.94242      233.94218      0.00024337685  285.39183      2400.0315      1.0177122      4455.7805      0.00024337685  24337.685    
    368500   254.85253      254.85229      0.00024130179  310.90059      2614.5507      1.0177122      4455.7805      0.00024130179  24130.179    
    368750   264.81469      264.81443      0.00025561291  323.05365      2716.7526      1.0177122      4455.7805      0.00025561291  25561.291    
    369000   235.28555      235.28529      0.0002544411   287.03033      2413.8108      1.0177122      4455.7805      0.0002544411   25444.11     
    369250   252.01245      252.01221      0.00024124487  307.4359       2585.4143      1.0177122      4455.7805      0.00024124487  24124.487    
    369500   262.18605      262.18581      0.00024023162  319.84693      2689.7856      1.0177122      4455.7805      0.00024023162  24023.162    
    369750   238.71872      238.71848      0.00024207251  291.21856      2449.0322      1.0177122      4455.7805      0.00024207251  24207.251    
    370000   262.68171      262.68151      0.00020580503  320.45164      2694.8718      1.0177122      4455.7805      0.00020580503  20580.503    
    370250   249.79543      249.79517      0.00025592571  304.73129      2562.6687      1.0177122      4455.7805      0.00025592571  25592.571    
    370500   257.97964      257.97938      0.00025722282  314.71541      2646.6315      1.0177122      4455.7805      0.00025722282  25722.282    
    370750   257.64222      257.64197      0.00024561567  314.30379      2643.1699      1.0177122      4455.7805      0.00024561567  24561.567    
    371000   249.93787      249.93764      0.00023020134  304.90509      2564.1307      1.0177122      4455.7805      0.00023020134  23020.134    
    371250   242.68962      242.6894       0.00022445224  296.06278      2489.7703      1.0177122      4455.7805      0.00022445224  22445.224    
    371500   222.16512      222.16486      0.00025488208  271.02439      2279.2067      1.0177122      4455.7805      0.00025488208  25488.208    
    371750   250.91482      250.91461      0.00021176544  306.09691      2574.1542      1.0177122      4455.7805      0.00021176544  21176.544    
    372000   253.67066      253.67043      0.00022846783  309.45881      2602.426       1.0177122      4455.7805      0.00022846783  22846.783    
    372250   240.93332      240.9331       0.00021670185  293.92023      2471.7524      1.0177122      4455.7805      0.00021670185  21670.185    
    372500   270.07509      270.07488      0.00020530533  329.471        2770.7212      1.0177122      4455.7805      0.00020530533  20530.533    
    372750   250.33         250.32976      0.00023894164  305.38344      2568.1533      1.0177122      4455.7805      0.00023894164  23894.164    
    373000   231.08941      231.08916      0.00025753072  281.91136      2370.7619      1.0177122      4455.7805      0.00025753072  25753.072    
    373250   234.88011      234.87987      0.00024204348  286.53574      2409.6518      1.0177122      4455.7805      0.00024204348  24204.348    
    373500   259.83591      259.83569      0.00022187744  316.97996      2665.6761      1.0177122      4455.7805      0.00022187744  22187.744    
    373750   242.81524      242.81504      0.00020739597  296.21605      2491.0595      1.0177122      4455.7805      0.00020739597  20739.597    
    374000   224.36733      224.36713      0.00020085298  273.71099      2301.8014      1.0177122      4455.7805      0.00020085298  20085.298    
    374250   260.53811      260.53788      0.00022909868  317.83658      2672.8797      1.0177122      4455.7805      0.00022909868  22909.868    
    374500   242.13665      242.13644      0.00021678377  295.38821      2484.0977      1.0177122      4455.7805      0.00021678377  21678.377    
    374750   249.11997      249.11975      0.00022696859  303.90732      2555.74        1.0177122      4455.7805      0.00022696859  22696.859    
    375000   249.46586      249.46566      0.00019788305  304.32931      2559.2895      1.0177122      4455.7805      0.00019788305  19788.305    
    375250   263.46266      263.46245      0.00020763916  321.40434      2702.8833      1.0177122      4455.7805      0.00020763916  20763.916    
    375500   233.244        233.24376      0.00024187341  284.53981      2392.8665      1.0177122      4455.7805      0.00024187341  24187.341    
    375750   263.75116      263.75094      0.00021913322  321.75627      2705.8426      1.0177122      4455.7805      0.00021913322  21913.322    
    376000   253.26876      253.26853      0.00022425376  308.96853      2598.3034      1.0177122      4455.7805      0.00022425376  22425.376    
    376250   228.72829      228.7281       0.00019435766  279.03104      2346.5407      1.0177122      4455.7805      0.00019435766  19435.766    
    376500   231.29632      231.29608      0.00023712906  282.16379      2372.8852      1.0177122      4455.7805      0.00023712906  23712.906    
    376750   244.96557      244.96535      0.00021789604  298.83927      2513.1197      1.0177122      4455.7805      0.00021789604  21789.604    
    377000   259.8305       259.83028      0.00021564256  316.97336      2665.6207      1.0177122      4455.7805      0.00021564256  21564.256    
    377250   252.78762      252.78741      0.00021659256  308.38159      2593.367       1.0177122      4455.7805      0.00021659256  21659.256    
    377500   253.82857      253.82834      0.00022414311  309.65145      2604.0462      1.0177122      4455.7805      0.00022414311  22414.311    
    377750   250.74467      250.74444      0.00023595423  305.88932      2572.4078      1.0177122      4455.7805      0.00023595423  23595.423    
    378000   249.22862      249.22842      0.00019848931  304.03989      2556.8556      1.0177122      4455.7805      0.00019848931  19848.931    
    378250   226.52162      226.52138      0.00024424546  276.33901      2323.9009      1.0177122      4455.7805      0.00024424546  24424.546    
    378500   245.03155      245.03131      0.00023373776  298.91974      2513.7963      1.0177122      4455.7805      0.00023373776  23373.776    
    378750   256.45602      256.45581      0.00021651295  312.85676      2631.0016      1.0177122      4455.7805      0.00021651295  21651.295    
    379000   245.00965      245.00942      0.00023288612  298.89303      2513.572       1.0177122      4455.7805      0.00023288612  23288.612    
    379250   249.18838      249.18816      0.00021660832  303.99078      2556.4421      1.0177122      4455.7805      0.00021660832  21660.832    
    379500   243.36313      243.3629       0.0002283215   296.8844       2496.6796      1.0177122      4455.7805      0.0002283215   22832.15     
    379750   236.99322      236.993        0.00022132745  289.1136       2431.3308      1.0177122      4455.7805      0.00022132745  22132.745    
    380000   239.50692      239.50666      0.00025984559  292.18008      2457.118       1.0177122      4455.7805      0.00025984559  25984.559    
    380250   252.95295      252.95272      0.0002369222   308.58325      2595.0627      1.0177122      4455.7805      0.0002369222   23692.22     
    380500   234.03302      234.03278      0.00024061497  285.50235      2400.9608      1.0177122      4455.7805      0.00024061497  24061.497    
    380750   243.8319       243.83165      0.00025768716  297.45624      2501.4881      1.0177122      4455.7805      0.00025768716  25768.716    
    381000   268.0019       268.00165      0.00024287159  326.94182      2749.4512      1.0177122      4455.7805      0.00024287159  24287.159    
    381250   234.11942      234.11919      0.00023509449  285.60777      2401.8477      1.0177122      4455.7805      0.00023509449  23509.449    
    381500   234.89062      234.89042      0.00019670403  286.54862      2409.7607      1.0177122      4455.7805      0.00019670403  19670.403    
    381750   230.87701      230.87677      0.00024520387  281.65226      2368.5834      1.0177122      4455.7805      0.00024520387  24520.387    
    382000   254.33516      254.33493      0.00023178845  310.26945      2609.2427      1.0177122      4455.7805      0.00023178845  23178.845    
    382250   251.72993      251.7297       0.00023763348  307.09126      2582.5157      1.0177122      4455.7805      0.00023763348  23763.348    
    382500   240.86127      240.86102      0.00025485234  293.83229      2471.0125      1.0177122      4455.7805      0.00025485234  25485.234    
    382750   222.76686      222.7666       0.00025906916  271.75847      2285.3803      1.0177122      4455.7805      0.00025906916  25906.916    
    383000   239.82798      239.82775      0.00023071469  292.57178      2460.4127      1.0177122      4455.7805      0.00023071469  23071.469    
    383250   245.70304      245.70283      0.00021329156  299.73893      2520.6857      1.0177122      4455.7805      0.00021329156  21329.156    
    383500   234.62661      234.6264       0.00021444863  286.22653      2407.0517      1.0177122      4455.7805      0.00021444863  21444.863    
    383750   251.79132      251.79107      0.00025669903  307.16613      2583.1451      1.0177122      4455.7805      0.00025669903  25669.903    
    384000   241.44064      241.4404       0.00023530373  294.5391       2476.9568      1.0177122      4455.7805      0.00023530373  23530.373    
    384250   240.3251       240.32486      0.0002401444   293.17822      2465.5123      1.0177122      4455.7805      0.0002401444   24014.44     
    384500   246.45911      246.45888      0.00023196056  300.66126      2528.442       1.0177122      4455.7805      0.00023196056  23196.056    
    384750   243.46899      243.46874      0.00025103021  297.01351      2497.7654      1.0177122      4455.7805      0.00025103021  25103.021    
    385000   287.45786      287.45764      0.00021509092  350.67666      2949.0522      1.0177122      4455.7805      0.00021509092  21509.092    
    385250   232.59099      232.59079      0.00020340143  283.74324      2386.1679      1.0177122      4455.7805      0.00020340143  20340.143    
    385500   232.01897      232.01873      0.00024098736  283.04536      2380.2988      1.0177122      4455.7805      0.00024098736  24098.736    
    385750   240.2043       240.20406      0.00023486894  293.03086      2464.2731      1.0177122      4455.7805      0.00023486894  23486.894    
    386000   250.10912      250.10888      0.00023896732  305.11399      2565.8871      1.0177122      4455.7805      0.00023896732  23896.732    
    386250   255.13235      255.13213      0.00022178275  311.24198      2617.4214      1.0177122      4455.7805      0.00022178275  22178.275    
    386500   268.5653       268.56506      0.00024576465  327.62913      2755.2312      1.0177122      4455.7805      0.00024576465  24576.465    
    386750   237.11958      237.11933      0.00025607785  289.26771      2432.6263      1.0177122      4455.7805      0.00025607785  25607.785    
    387000   259.20039      259.20013      0.00025920164  316.20463      2659.1553      1.0177122      4455.7805      0.00025920164  25920.164    
    387250   266.33467      266.33446      0.00021148841  324.90797      2732.348       1.0177122      4455.7805      0.00021148841  21148.841    
    387500   223.00078      223.00056      0.0002172279   272.04388      2287.781       1.0177122      4455.7805      0.0002172279   21722.79     
    387750   236.39868      236.39845      0.00022139926  288.3883       2425.231       1.0177122      4455.7805      0.00022139926  22139.926    
    388000   250.69512      250.69489      0.00023560848  305.82887      2571.8996      1.0177122      4455.7805      0.00023560848  23560.848    
    388250   245.39295      245.39275      0.0002065611   299.36066      2517.5046      1.0177122      4455.7805      0.0002065611   20656.11     
    388500   261.34926      261.34906      0.00020094505  318.82616      2681.2022      1.0177122      4455.7805      0.00020094505  20094.505    
    388750   243.69769      243.69747      0.00021708919  297.29255      2500.1125      1.0177122      4455.7805      0.00021708919  21708.919    
    389000   245.72716      245.72696      0.00019313899  299.76838      2520.9334      1.0177122      4455.7805      0.00019313899  19313.899    
    389250   218.29032      218.29006      0.00025955171  266.29742      2239.4547      1.0177122      4455.7805      0.00025955171  25955.171    
    389500   244.39101      244.39077      0.0002416061   298.13832      2507.2248      1.0177122      4455.7805      0.0002416061   24160.61     
    389750   257.85789      257.85767      0.00022312414  314.56693      2645.3836      1.0177122      4455.7805      0.00022312414  22312.414    
    390000   260.9107       260.91047      0.0002247008   318.29112      2676.7023      1.0177122      4455.7805      0.0002247008   22470.08     
    390250   245.58504      245.58481      0.00022434565  299.59496      2519.4746      1.0177122      4455.7805      0.00022434565  22434.565    
    390500   267.32676      267.32653      0.00022792994  326.11822      2742.5253      1.0177122      4455.7805      0.00022792994  22792.994    
    390750   228.7587       228.75843      0.00026400464  279.06805      2346.8506      1.0177122      4455.7805      0.00026400464  26400.464    
    391000   253.38256      253.38234      0.00022128581  309.10736      2599.4705      1.0177122      4455.7805      0.00022128581  22128.581    
    391250   226.58096      226.58071      0.00024480604  276.4114       2324.5095      1.0177122      4455.7805      0.00024480604  24480.604    
    391500   268.06033      268.06009      0.00024018511  327.01311      2750.0509      1.0177122      4455.7805      0.00024018511  24018.511    
    391750   235.28435      235.28409      0.00026011148  287.02886      2413.7982      1.0177122      4455.7805      0.00026011148  26011.148    
    392000   259.21842      259.21819      0.00023592439  316.22665      2659.3405      1.0177122      4455.7805      0.00023592439  23592.439    
    392250   241.75124      241.751        0.00024519333  294.918        2480.1433      1.0177122      4455.7805      0.00024519333  24519.333    
    392500   261.54889      261.54866      0.00023618329  319.06965      2683.2492      1.0177122      4455.7805      0.00023618329  23618.329    
    392750   248.9113       248.91106      0.00024162216  303.65273      2553.5986      1.0177122      4455.7805      0.00024162216  24162.216    
    393000   257.36544      257.36516      0.00028064768  313.9661       2640.3299      1.0177122      4455.7805      0.00028064768  28064.768    
    393250   250.04906      250.04884      0.00021766046  305.04074      2565.2721      1.0177122      4455.7805      0.00021766046  21766.046    
    393500   247.64473      247.6445       0.00022798259  302.10763      2540.605       1.0177122      4455.7805      0.00022798259  22798.259    
    393750   224.34667      224.34642      0.00025158924  273.68573      2301.5878      1.0177122      4455.7805      0.00025158924  25158.924    
    394000   257.12652      257.1263       0.0002152043   313.67471      2637.8802      1.0177122      4455.7805      0.0002152043   21520.43     
    394250   259.44328      259.44305      0.00023539282  316.50097      2661.6478      1.0177122      4455.7805      0.00023539282  23539.282    
    394500   264.04149      264.04119      0.00029697044  322.11036      2708.8197      1.0177122      4455.7805      0.00029697044  29697.044    
    394750   249.80083      249.80059      0.00023150756  304.7379       2562.7251      1.0177122      4455.7805      0.00023150756  23150.756    
    395000   246.64793      246.64772      0.00021002945  300.89164      2530.3795      1.0177122      4455.7805      0.00021002945  21002.945    
    395250   250.66604      250.66583      0.00021124656  305.79342      2571.6017      1.0177122      4455.7805      0.00021124656  21124.656    
    395500   240.61389      240.61367      0.00021892874  293.53055      2468.4757      1.0177122      4455.7805      0.00021892874  21892.874    
    395750   234.00037      234.00016      0.00021082371  285.46256      2400.6273      1.0177122      4455.7805      0.00021082371  21082.371    
    396000   248.47013      248.46995      0.00018655092  303.11461      2549.0745      1.0177122      4455.7805      0.00018655092  18655.092    
    396250   246.95744      246.95723      0.00020869143  301.26921      2533.5549      1.0177122      4455.7805      0.00020869143  20869.143    
    396500   253.16324      253.16302      0.00022318576  308.8398       2597.2207      1.0177122      4455.7805      0.00022318576  22318.576    
    396750   253.09954      253.09931      0.00023662024  308.76208      2596.5666      1.0177122      4455.7805      0.00023662024  23662.024    
    397000   251.08344      251.08321      0.00022805648  306.30259      2575.8834      1.0177122      4455.7805      0.00022805648  22805.648    
    397250   265.074        265.07377      0.00023032061  323.37003      2719.4142      1.0177122      4455.7805      0.00023032061  23032.061    
    397500   257.4264       257.42616      0.00023525314  314.04052      2640.9563      1.0177122      4455.7805      0.00023525314  23525.314    
    397750   264.19473      264.19447      0.00026626299  322.29734      2710.3924      1.0177122      4455.7805      0.00026626299  26626.299    
    398000   271.11797      271.11772      0.0002454196   330.74319      2781.419       1.0177122      4455.7805      0.0002454196   24541.96     
    398250   233.43391      233.43366      0.00025288574  284.77147      2394.8146      1.0177122      4455.7805      0.00025288574  25288.574    
    398500   248.12012      248.11991      0.00020860096  302.68759      2545.4829      1.0177122      4455.7805      0.00020860096  20860.096    
    398750   227.58504      227.58481      0.00022753559  277.63632      2334.8107      1.0177122      4455.7805      0.00022753559  22753.559    
    399000   239.94254      239.94231      0.00023268713  292.71154      2461.5879      1.0177122      4455.7805      0.00023268713  23268.713    
    399250   225.73997      225.73971      0.00025331032  275.38544      2315.8817      1.0177122      4455.7805      0.00025331032  25331.032    
    399500   231.02383      231.0236       0.00023240924  281.83138      2370.0898      1.0177122      4455.7805      0.00023240924  23240.924    
    399750   250.71407      250.71382      0.00024649481  305.85197      2572.0938      1.0177122      4455.7805      0.00024649481  24649.481    
    400000   262.64663      262.64638      0.00024921613  320.40879      2694.5105      1.0177122      4455.7805      0.00024921613  24921.613    
    400250   257.19909      257.19888      0.00021181647  313.76325      2638.625       1.0177122      4455.7805      0.00021181647  21181.647    
    400500   260.67923      260.679        0.00022963873  318.00874      2674.3274      1.0177122      4455.7805      0.00022963873  22963.873    
    400750   238.25352      238.25329      0.00022918122  290.65106      2444.2603      1.0177122      4455.7805      0.00022918122  22918.122    
    401000   270.11343      270.1132       0.00022860538  329.51775      2771.1135      1.0177122      4455.7805      0.00022860538  22860.538    
    401250   243.52725      243.52701      0.0002345832   297.08461      2498.3634      1.0177122      4455.7805      0.0002345832   23458.32     
    401500   252.30016      252.29993      0.00022347158  307.7869       2588.3661      1.0177122      4455.7805      0.00022347158  22347.158    
    401750   246.44038      246.44015      0.00022594744  300.63842      2528.2498      1.0177122      4455.7805      0.00022594744  22594.744    
    402000   218.62654      218.62632      0.00022679587  266.70763      2242.9052      1.0177122      4455.7805      0.00022679587  22679.587    
    402250   264.93942      264.93918      0.00023505843  323.20584      2718.0325      1.0177122      4455.7805      0.00023505843  23505.843    
    402500   268.4351       268.43486      0.00023639475  327.4703       2753.8952      1.0177122      4455.7805      0.00023639475  23639.475    
    402750   256.714        256.71374      0.00026226759  313.17142      2633.6473      1.0177122      4455.7805      0.00026226759  26226.759    
    403000   262.65824      262.658        0.00023261741  320.42297      2694.6303      1.0177122      4455.7805      0.00023261741  23261.741    
    403250   258.02918      258.02896      0.00022703251  314.77588      2647.1402      1.0177122      4455.7805      0.00022703251  22703.251    
    403500   252.77294      252.77271      0.00023348067  308.36366      2593.2163      1.0177122      4455.7805      0.00023348067  23348.067    
    403750   257.04428      257.04406      0.00022500992  313.57438      2637.0362      1.0177122      4455.7805      0.00022500992  22500.992    
    404000   251.59415      251.5939       0.00025222727  306.9256       2581.122       1.0177122      4455.7805      0.00025222727  25222.727    
    404250   236.69277      236.69257      0.00019680488  288.7471       2428.2492      1.0177122      4455.7805      0.00019680488  19680.488    
    404500   248.50306      248.50283      0.00022519336  303.15473      2549.4106      1.0177122      4455.7805      0.00022519336  22519.336    
    404750   262.29085      262.29062      0.00023012288  319.97479      2690.8611      1.0177122      4455.7805      0.00023012288  23012.288    
    405000   250.83174      250.8315       0.00023399627  305.99553      2573.3009      1.0177122      4455.7805      0.00023399627  23399.627    
    405250   250.83381      250.83358      0.00023643507  305.99806      2573.3226      1.0177122      4455.7805      0.00023643507  23643.507    
    405500   232.13841      232.1382       0.00020786088  283.19111      2381.5251      1.0177122      4455.7805      0.00020786088  20786.088    
    405750   232.39979      232.39959      0.0002030761   283.50999      2384.2065      1.0177122      4455.7805      0.0002030761   20307.61     
    406000   252.22609      252.22586      0.00022721754  307.69654      2587.606       1.0177122      4455.7805      0.00022721754  22721.754    
    406250   243.67203      243.67182      0.0002163511   297.26125      2499.8494      1.0177122      4455.7805      0.0002163511   21635.11     
    406500   235.58737      235.58714      0.00022515036  287.39856      2416.9078      1.0177122      4455.7805      0.00022515036  22515.036    
    406750   232.82789      232.82766      0.00022839467  284.0322       2388.5982      1.0177122      4455.7805      0.00022839467  22839.467    
    407000   236.5552       236.55498      0.00021670363  288.57925      2426.8375      1.0177122      4455.7805      0.00021670363  21670.363    
    407250   244.62634      244.62611      0.00022885757  298.42542      2509.6394      1.0177122      4455.7805      0.00022885757  22885.757    
    407500   246.37457      246.37433      0.00024047406  300.55811      2527.5739      1.0177122      4455.7805      0.00024047406  24047.406    
    407750   240.90701      240.90681      0.00020619108  293.88815      2471.4829      1.0177122      4455.7805      0.00020619108  20619.108    
    408000   246.03857      246.03833      0.00023738307  300.14823      2524.1272      1.0177122      4455.7805      0.00023738307  23738.307    
    408250   265.41285      265.41262      0.00023220301  323.7834       2722.8901      1.0177122      4455.7805      0.00023220301  23220.301    
    408500   273.17233      273.17207      0.00025802431  333.24934      2802.4945      1.0177122      4455.7805      0.00025802431  25802.431    
    408750   257.0061       257.00585      0.00024912095  313.52777      2636.6444      1.0177122      4455.7805      0.00024912095  24912.095    
    409000   264.77268      264.77244      0.00023693789  323.00243      2716.3223      1.0177122      4455.7805      0.00023693789  23693.789    
    409250   239.65821      239.65798      0.00022664999  292.36468      2458.6708      1.0177122      4455.7805      0.00022664999  22664.999    
    409500   235.68307      235.68282      0.00024650761  287.51528      2417.8897      1.0177122      4455.7805      0.00024650761  24650.761    
    409750   240.3723       240.37207      0.00023285044  293.23581      2465.9968      1.0177122      4455.7805      0.00023285044  23285.044    
    410000   244.66265      244.66242      0.00022806016  298.46972      2510.0116      1.0177122      4455.7805      0.00022806016  22806.016    
    410250   254.52221      254.52197      0.00023748759  310.49762      2611.1618      1.0177122      4455.7805      0.00023748759  23748.759    
    410500   266.34828      266.34803      0.00025173835  324.92453      2732.486       1.0177122      4455.7805      0.00025173835  25173.835    
    410750   261.36637      261.36616      0.00021391631  318.84702      2681.3774      1.0177122      4455.7805      0.00021391631  21391.631    
    411000   258.69402      258.69379      0.00022966513  315.58692      2653.961       1.0177122      4455.7805      0.00022966513  22966.513    
    411250   243.78242      243.7822       0.00022097821  297.39592      2500.982       1.0177122      4455.7805      0.00022097821  22097.821    
    411500   250.86409      250.86384      0.0002446113   306.03499      2573.633       1.0177122      4455.7805      0.0002446113   24461.13     
    411750   240.91357      240.91334      0.00023433999  293.89612      2471.5493      1.0177122      4455.7805      0.00023433999  23433.999    
    412000   231.70631      231.7061       0.00021261006  282.66398      2377.0921      1.0177122      4455.7805      0.00021261006  21261.006    
    412250   253.1214       253.12118      0.00022829181  308.78876      2596.7913      1.0177122      4455.7805      0.00022829181  22829.181    
    412500   237.57491      237.57467      0.00024335821  289.8232       2437.2979      1.0177122      4455.7805      0.00024335821  24335.821    
    412750   247.83403      247.83382      0.00021458617  302.33858      2542.5474      1.0177122      4455.7805      0.00021458617  21458.617    
    413000   235.19627      235.19603      0.00024355042  286.92143      2412.895       1.0177122      4455.7805      0.00024355042  24355.042    
    413250   256.99486      256.99463      0.00022618045  313.51408      2636.5293      1.0177122      4455.7805      0.00022618045  22618.045    
    413500   241.91828      241.91806      0.00021843061  295.1218       2481.8575      1.0177122      4455.7805      0.00021843061  21843.061    
    413750   246.60323      246.60299      0.00023619547  300.83707      2529.9203      1.0177122      4455.7805      0.00023619547  23619.547    
    414000   238.65068      238.65044      0.00024624856  291.13555      2448.334       1.0177122      4455.7805      0.00024624856  24624.856    
    414250   254.87793      254.8777       0.00022598802  310.93159      2614.8116      1.0177122      4455.7805      0.00022598802  22598.802    
    414500   246.16921      246.16899      0.00022270843  300.30762      2525.4681      1.0177122      4455.7805      0.00022270843  22270.843    
    414750   256.61169      256.61147      0.00022854796  313.04665      2632.5983      1.0177122      4455.7805      0.00022854796  22854.796    
    415000   259.91198      259.91177      0.00020778195  317.07277      2666.4566      1.0177122      4455.7805      0.00020778195  20778.195    
    415250   248.83703      248.83677      0.00025417241  303.56211      2552.8367      1.0177122      4455.7805      0.00025417241  25417.241    
    415500   263.63956      263.63935      0.00021153872  321.62014      2704.6979      1.0177122      4455.7805      0.00021153872  21153.872    
    415750   258.81663      258.8164       0.0002224859   315.73651      2655.2193      1.0177122      4455.7805      0.0002224859   22248.59     
    416000   232.74888      232.74865      0.00022691229  283.93581      2387.7876      1.0177122      4455.7805      0.00022691229  22691.229    
    416250   230.80677      230.80651      0.00025324567  281.56655      2367.8623      1.0177122      4455.7805      0.00025324567  25324.567    
    416500   270.4237       270.42347      0.00022965332  329.89626      2774.2972      1.0177122      4455.7805      0.00022965332  22965.332    
    416750   242.81127      242.81103      0.00023452882  296.21116      2491.0179      1.0177122      4455.7805      0.00023452882  23452.882    
    417000   250.31927      250.31904      0.00023692157  305.37036      2568.0439      1.0177122      4455.7805      0.00023692157  23692.157    
    417250   251.95699      251.95674      0.00024718509  307.36824      2584.8447      1.0177122      4455.7805      0.00024718509  24718.509    
    417500   252.59004      252.58981      0.00023020994  308.14053      2591.3396      1.0177122      4455.7805      0.00023020994  23020.994    
    417750   249.466        249.46577      0.00022715675  304.32944      2559.2899      1.0177122      4455.7805      0.00022715675  22715.675    
    418000   248.23499      248.23477      0.00022173018  302.82772      2546.661       1.0177122      4455.7805      0.00022173018  22173.018    
    418250   259.32628      259.32605      0.00022182539  316.35824      2660.4476      1.0177122      4455.7805      0.00022182539  22182.539    
    418500   238.64555      238.64531      0.00023590238  291.1293       2448.2816      1.0177122      4455.7805      0.00023590238  23590.238    
    418750   223.71649      223.71626      0.00022846895  272.91698      2295.1231      1.0177122      4455.7805      0.00022846895  22846.895    
    419000   260.24273      260.24249      0.0002406318   317.47623      2669.849       1.0177122      4455.7805      0.0002406318   24063.18     
    419250   242.25638      242.25616      0.000225253    295.53426      2485.3258      1.0177122      4455.7805      0.000225253    22525.3      
    419500   252.05385      252.0536       0.00024447717  307.4864       2585.8382      1.0177122      4455.7805      0.00024447717  24447.717    
    419750   246.8673       246.86708      0.0002212813   301.15923      2532.63        1.0177122      4455.7805      0.0002212813   22128.13     
    420000   256.40096      256.40071      0.0002438539   312.78955      2630.4356      1.0177122      4455.7805      0.0002438539   24385.39     
    420250   277.14579      277.14554      0.0002481499   338.09668      2843.2591      1.0177122      4455.7805      0.0002481499   24814.99     
    420500   239.19356      239.19332      0.00024590559  291.79782      2453.9036      1.0177122      4455.7805      0.00024590559  24590.559    
    420750   268.58403      268.5838       0.00022763303  327.65199      2755.4236      1.0177122      4455.7805      0.00022763303  22763.303    
    421000   250.28963      250.28939      0.0002408124   305.33419      2567.739       1.0177122      4455.7805      0.0002408124   24081.24     
    421250   239.6428       239.64258      0.00022221546  292.34589      2458.513       1.0177122      4455.7805      0.00022221546  22221.546    
    421500   243.71157      243.71132      0.00024990994  297.30945      2500.2542      1.0177122      4455.7805      0.00024990994  24990.994    
    421750   225.75833      225.7581       0.00022322606  275.40787      2316.0707      1.0177122      4455.7805      0.00022322606  22322.606    
    422000   235.12489      235.12464      0.00024237991  286.83435      2412.1631      1.0177122      4455.7805      0.00024237991  24237.991    
    422250   254.34794      254.34773      0.00020149973  310.28507      2609.3753      1.0177122      4455.7805      0.00020149973  20149.973    
    422500   264.93754      264.9373       0.00023639194  323.20354      2718.0133      1.0177122      4455.7805      0.00023639194  23639.194    
    422750   247.42283      247.42262      0.00020526319  301.83695      2538.3294      1.0177122      4455.7805      0.00020526319  20526.319    
    423000   246.75736      246.75713      0.00023157983  301.02511      2531.5017      1.0177122      4455.7805      0.00023157983  23157.983    
    423250   236.28959      236.28935      0.00023843305  288.2552       2424.1115      1.0177122      4455.7805      0.00023843305  23843.305    
    423500   241.85861      241.85838      0.00023056579  295.049        2481.2453      1.0177122      4455.7805      0.00023056579  23056.579    
    423750   274.11063      274.1104       0.00022720883  334.39403      2812.1217      1.0177122      4455.7805      0.00022720883  22720.883    
    424000   241.77103      241.77079      0.00023332997  294.94215      2480.3464      1.0177122      4455.7805      0.00023332997  23332.997    
    424250   277.9425       277.94228      0.00022729762  339.06863      2851.4331      1.0177122      4455.7805      0.00022729762  22729.762    
    424500   242.78358      242.78334      0.00023777095  296.17738      2490.734       1.0177122      4455.7805      0.00023777095  23777.095    
    424750   242.99268      242.99243      0.00024334503  296.43246      2492.8791      1.0177122      4455.7805      0.00024334503  24334.503    
    425000   261.94613      261.94592      0.00021465347  319.55428      2687.3253      1.0177122      4455.7805      0.00021465347  21465.347    
    425250   240.16428      240.16406      0.00021830989  292.98206      2463.8627      1.0177122      4455.7805      0.00021830989  21830.989    
    425500   234.28285      234.28257      0.00027339769  285.80708      2403.5231      1.0177122      4455.7805      0.00027339769  27339.769    
    425750   253.8447       253.84449      0.00020803673  309.67115      2604.2122      1.0177122      4455.7805      0.00020803673  20803.673    
    426000   243.58942      243.5892       0.00022127161  297.16047      2499.0018      1.0177122      4455.7805      0.00022127161  22127.161    
    426250   243.34425      243.34399      0.00025710165  296.86134      2496.4858      1.0177122      4455.7805      0.00025710165  25710.165    
    426500   260.09411      260.0939       0.00021232223  317.29496      2668.3248      1.0177122      4455.7805      0.00021232223  21232.223    
    426750   246.99801      246.9978       0.00021410474  301.3187       2533.9708      1.0177122      4455.7805      0.00021410474  21410.474    
    427000   257.90304      257.9028       0.00023643422  314.62199      2645.8463      1.0177122      4455.7805      0.00023643422  23643.422    
    427250   260.0778       260.07759      0.00020509358  317.27506      2668.1579      1.0177122      4455.7805      0.00020509358  20509.358    
    427500   234.51966      234.51943      0.00022487734  286.09603      2405.954       1.0177122      4455.7805      0.00022487734  22487.734    
    427750   245.77157      245.77134      0.00022434605  299.82252      2521.3883      1.0177122      4455.7805      0.00022434605  22434.605    
    428000   265.98545      265.9852       0.00025099524  324.4819       2728.7641      1.0177122      4455.7805      0.00025099524  25099.524    
    428250   228.65059      228.65035      0.00024390279  278.9362       2345.7424      1.0177122      4455.7805      0.00024390279  24390.279    
    428500   253.18949      253.18927      0.00021884229  308.87183      2597.4897      1.0177122      4455.7805      0.00021884229  21884.229    
    428750   248.7347       248.73446      0.00023579716  303.4373       2551.7871      1.0177122      4455.7805      0.00023579716  23579.716    
    429000   243.41748      243.41723      0.00024266549  296.95068      2497.2375      1.0177122      4455.7805      0.00024266549  24266.549    
    429250   253.43752      253.43732      0.00019704849  309.17444      2600.0347      1.0177122      4455.7805      0.00019704849  19704.849    
    429500   252.7698       252.76956      0.0002385615   308.35982      2593.1841      1.0177122      4455.7805      0.0002385615   23856.15     
    429750   255.0563       255.05608      0.00021608817  311.1492       2616.6411      1.0177122      4455.7805      0.00021608817  21608.817    
    430000   258.2562       258.25595      0.00025228173  315.05279      2649.4692      1.0177122      4455.7805      0.00025228173  25228.173    
    430250   248.43601      248.43577      0.00023683728  303.07292      2548.7232      1.0177122      4455.7805      0.00023683728  23683.728    
    430500   222.9936       222.99336      0.00023460254  272.0351       2287.7066      1.0177122      4455.7805      0.00023460254  23460.254    
    430750   249.03438      249.03416      0.00021966078  303.80291      2554.8621      1.0177122      4455.7805      0.00021966078  21966.078    
    431000   276.32856      276.32834      0.00022553419  337.09975      2834.876       1.0177122      4455.7805      0.00022553419  22553.419    
    431250   232.157        232.1568       0.00020339277  283.2138       2381.7158      1.0177122      4455.7805      0.00020339277  20339.277    
    431500   263.34518      263.34494      0.00023445745  321.26098      2701.6774      1.0177122      4455.7805      0.00023445745  23445.745    
    431750   282.64074      282.64048      0.00026716761  344.80008      2899.6318      1.0177122      4455.7805      0.00026716761  26716.761    
    432000   237.1085       237.10826      0.00024146353  289.25421      2432.5132      1.0177122      4455.7805      0.00024146353  24146.353    
    432250   260.71969      260.71947      0.00021895998  318.05811      2674.7431      1.0177122      4455.7805      0.00021895998  21895.998    
    432500   267.52038      267.5201       0.00027858928  326.35436      2744.51        1.0177122      4455.7805      0.00027858928  27858.928    
    432750   244.23111      244.23087      0.00023986683  297.94326      2505.5844      1.0177122      4455.7805      0.00023986683  23986.683    
    433000   238.43965      238.43943      0.00022595286  290.87813      2446.1699      1.0177122      4455.7805      0.00022595286  22595.286    
    433250   235.17498      235.17476      0.00021218881  286.89549      2412.6775      1.0177122      4455.7805      0.00021218881  21218.881    
    433500   224.96971      224.96946      0.00025360883  274.44579      2307.9797      1.0177122      4455.7805      0.00025360883  25360.883    
    433750   258.35837      258.35816      0.0002083068   315.17749      2650.518       1.0177122      4455.7805      0.0002083068   20830.68     
    434000   262.66585      262.6656       0.00024086035  320.43224      2694.7079      1.0177122      4455.7805      0.00024086035  24086.035    
    434250   251.62341      251.62314      0.00026602261  306.96127      2581.4225      1.0177122      4455.7805      0.00026602261  26602.261    
    434500   254.51305      254.51281      0.00023361275  310.48645      2611.0677      1.0177122      4455.7805      0.00023361275  23361.275    
    434750   241.74837      241.74816      0.0002114553   294.91454      2480.1146      1.0177122      4455.7805      0.0002114553   21145.53     
    435000   240.56372      240.56351      0.00021516679  293.46935      2467.9607      1.0177122      4455.7805      0.00021516679  21516.679    
    435250   263.4702       263.46996      0.00024023236  321.4135       2702.9603      1.0177122      4455.7805      0.00024023236  24023.236    
    435500   240.24691      240.24667      0.00024287671  293.08283      2464.7099      1.0177122      4455.7805      0.00024287671  24287.671    
    435750   243.74666      243.74642      0.00023871629  297.35227      2500.6144      1.0177122      4455.7805      0.00023871629  23871.629    
    436000   240.62225      240.62202      0.0002355921   293.54073      2468.5606      1.0177122      4455.7805      0.0002355921   23559.21     
    436250   253.69136      253.69113      0.0002350859   309.48406      2602.6386      1.0177122      4455.7805      0.0002350859   23508.59     
    436500   239.68823      239.68801      0.00022008777  292.40131      2458.9789      1.0177122      4455.7805      0.00022008777  22008.777    
    436750   264.37958      264.37936      0.00022487628  322.52289      2712.2896      1.0177122      4455.7805      0.00022487628  22487.628    
    437000   244.62176      244.62153      0.00023157728  298.41983      2509.5924      1.0177122      4455.7805      0.00023157728  23157.728    
    437250   266.93728      266.93702      0.0002576498   325.64305      2738.5285      1.0177122      4455.7805      0.0002576498   25764.98     
    437500   263.01932      263.01909      0.00022920863  320.86347      2698.3349      1.0177122      4455.7805      0.00022920863  22920.863    
    437750   242.69292      242.69269      0.00023044469  296.0668       2489.8042      1.0177122      4455.7805      0.00023044469  23044.469    
    438000   255.9031       255.90287      0.00023233582  312.18222      2625.3287      1.0177122      4455.7805      0.00023233582  23233.582    
    438250   269.88546      269.88523      0.00023002135  329.23964      2768.7752      1.0177122      4455.7805      0.00023002135  23002.135    
    438500   265.95507      265.95482      0.00025037643  324.44484      2728.4524      1.0177122      4455.7805      0.00025037643  25037.643    
    438750   243.28452      243.28429      0.00023797495  296.7885       2495.8733      1.0177122      4455.7805      0.00023797495  23797.495    
    439000   257.40144      257.40124      0.00019329899  314.01012      2640.7016      1.0177122      4455.7805      0.00019329899  19329.899    
    439250   255.80547      255.80523      0.00023926311  312.0631       2624.3269      1.0177122      4455.7805      0.00023926311  23926.311    
    439500   247.4861       247.48587      0.0002372136   301.91411      2538.9777      1.0177122      4455.7805      0.0002372136   23721.36     
    439750   269.36407      269.36383      0.00023507677  328.60358      2763.4259      1.0177122      4455.7805      0.00023507677  23507.677    
    440000   262.80959      262.80937      0.00022063752  320.60762      2696.1833      1.0177122      4455.7805      0.00022063752  22063.752    
    440250   240.78923      240.78898      0.0002485848   293.74441      2470.2733      1.0177122      4455.7805      0.0002485848   24858.48     
    440500   253.76255      253.76233      0.00022051388  309.57091      2603.3688      1.0177122      4455.7805      0.00022051388  22051.388    
    440750   258.22818      258.22794      0.00023402983  315.01863      2649.1819      1.0177122      4455.7805      0.00023402983  23402.983    
    441000   263.08837      263.08813      0.00024394252  320.94769      2699.0428      1.0177122      4455.7805      0.00024394252  24394.252    
    441250   246.77455      246.77432      0.00022314269  301.04608      2531.6783      1.0177122      4455.7805      0.00022314269  22314.269    
    441500   235.34453      235.34432      0.00020547707  287.10234      2414.4168      1.0177122      4455.7805      0.00020547707  20547.707    
    441750   234.91176      234.91154      0.00022153056  286.57437      2409.9769      1.0177122      4455.7805      0.00022153056  22153.056    
    442000   268.72275      268.72249      0.00025506719  327.82119      2756.8461      1.0177122      4455.7805      0.00025506719  25506.719    
    442250   241.88316      241.88296      0.00020209358  295.07898      2481.4972      1.0177122      4455.7805      0.00020209358  20209.358    
    442500   236.63984      236.63961      0.00022688321  288.68249      2427.705       1.0177122      4455.7805      0.00022688321  22688.321    
    442750   231.13853      231.13828      0.0002444655   281.97129      2371.2661      1.0177122      4455.7805      0.0002444655   24446.55     
    443000   256.43435      256.43415      0.0001988907   312.83034      2630.7794      1.0177122      4455.7805      0.0001988907   19889.07     
    443250   254.0322       254.03196      0.00023755806  309.89985      2606.1348      1.0177122      4455.7805      0.00023755806  23755.806    
    443500   245.92544      245.92522      0.00021686611  300.01024      2522.9672      1.0177122      4455.7805      0.00021686611  21686.611    
    443750   285.84216      285.84194      0.00021734473  348.70563      2932.4769      1.0177122      4455.7805      0.00021734473  21734.473    
    444000   261.92458      261.92433      0.00025411591  319.52795      2687.1027      1.0177122      4455.7805      0.00025411591  25411.591    
    444250   283.03561      283.03539      0.00022011815  345.28184      2903.684       1.0177122      4455.7805      0.00022011815  22011.815    
    444500   261.49935      261.49912      0.00022719698  319.00922      2682.7411      1.0177122      4455.7805      0.00022719698  22719.698    
    444750   255.09904      255.09881      0.00022897692  311.20133      2617.0802      1.0177122      4455.7805      0.00022897692  22897.692    
    445000   221.00726      221.00703      0.0002289724   269.61193      2267.3289      1.0177122      4455.7805      0.0002289724   22897.24     
    445250   255.07611      255.07586      0.00025418206  311.17332      2616.8441      1.0177122      4455.7805      0.00025418206  25418.206    
    445500   234.35524      234.355        0.00024653641  285.89544      2404.2667      1.0177122      4455.7805      0.00024653641  24653.641    
    445750   248.70743      248.70718      0.00025152915  303.40402      2551.507       1.0177122      4455.7805      0.00025152915  25152.915    
    446000   244.64713      244.64687      0.00025510077  298.45075      2509.8516      1.0177122      4455.7805      0.00025510077  25510.077    
    446250   238.53446      238.53421      0.00025156127  290.99376      2447.1416      1.0177122      4455.7805      0.00025156127  25156.127    
    446500   258.1021       258.10188      0.00021981374  314.86485      2647.8887      1.0177122      4455.7805      0.00021981374  21981.374    
    446750   245.2195       245.21923      0.00026518505  299.14899      2515.724       1.0177122      4455.7805      0.00026518505  26518.505    
    447000   249.42741      249.42716      0.00024435575  304.28234      2558.8935      1.0177122      4455.7805      0.00024435575  24435.575    
    447250   253.76867      253.76845      0.0002183058   309.57838      2603.4313      1.0177122      4455.7805      0.0002183058   21830.58     
    447500   235.33905      235.33879      0.00026138227  287.09559      2414.3597      1.0177122      4455.7805      0.00026138227  26138.227    
    447750   269.22105      269.22082      0.00023665482  328.42911      2761.9589      1.0177122      4455.7805      0.00023665482  23665.482    
    448000   253.23738      253.23712      0.00025442997  308.93021      2597.9801      1.0177122      4455.7805      0.00025442997  25442.997    
    448250   254.08572      254.08549      0.00022731249  309.96515      2606.6847      1.0177122      4455.7805      0.00022731249  22731.249    
    448500   242.18872      242.1885       0.0002141853   295.45172      2484.632       1.0177122      4455.7805      0.0002141853   21418.53     
    448750   256.92352      256.92328      0.00023345946  313.42705      2635.797       1.0177122      4455.7805      0.00023345946  23345.946    
    449000   266.4068       266.40657      0.00022750942  324.99595      2733.0872      1.0177122      4455.7805      0.00022750942  22750.942    
    449250   252.13305      252.13282      0.00023300797  307.58304      2586.651       1.0177122      4455.7805      0.00023300797  23300.797    
    449500   243.74686      243.74659      0.00026545309  297.35248      2500.6158      1.0177122      4455.7805      0.00026545309  26545.309    
    449750   247.84602      247.84581      0.00020359096  302.35322      2542.671       1.0177122      4455.7805      0.00020359096  20359.096    
    450000   249.82051      249.82031      0.00019752423  304.76195      2562.9275      1.0177122      4455.7805      0.00019752423  19752.423    
    450250   230.56731      230.56709      0.00022405151  281.27448      2365.4064      1.0177122      4455.7805      0.00022405151  22405.151    
    450500   248.93501      248.93478      0.00023010464  303.68167      2553.8425      1.0177122      4455.7805      0.00023010464  23010.464    
    450750   261.71186      261.71161      0.00024532966  319.26844      2684.9207      1.0177122      4455.7805      0.00024532966  24532.966    
    451000   246.20592      246.20566      0.00025767336  300.35236      2525.8439      1.0177122      4455.7805      0.00025767336  25767.336    
    451250   258.98619      258.98593      0.0002595456   315.94332      2656.9578      1.0177122      4455.7805      0.0002595456   25954.56     
    451500   247.42992      247.4297       0.00021948919  301.84559      2538.4018      1.0177122      4455.7805      0.00021948919  21948.919    
    451750   248.50998      248.50975      0.00022285129  303.16317      2549.4821      1.0177122      4455.7805      0.00022285129  22285.129    
    452000   243.42533      243.4251       0.00023210686  296.96028      2497.3182      1.0177122      4455.7805      0.00023210686  23210.686    
    452250   242.26182      242.26158      0.00023579606  295.54087      2485.3809      1.0177122      4455.7805      0.00023579606  23579.606    
    452500   252.19238      252.19216      0.00022207432  307.65543      2587.2601      1.0177122      4455.7805      0.00022207432  22207.432    
    452750   259.5338       259.53355      0.00024581625  316.61138      2662.5762      1.0177122      4455.7805      0.00024581625  24581.625    
    453000   254.69596      254.69574      0.00022372693  310.70961      2612.9447      1.0177122      4455.7805      0.00022372693  22372.693    
    453250   254.23442      254.2342       0.00021820923  310.14657      2608.2098      1.0177122      4455.7805      0.00021820923  21820.923    
    453500   260.57918      260.57894      0.00024164325  317.88666      2673.3009      1.0177122      4455.7805      0.00024164325  24164.325    
    453750   231.68954      231.68932      0.00021714033  282.64351      2376.9197      1.0177122      4455.7805      0.00021714033  21714.033    
    454000   251.22957      251.22932      0.00025265689  306.48084      2577.3819      1.0177122      4455.7805      0.00025265689  25265.689    
    454250   268.77417      268.77391      0.00025966538  327.88392      2757.3735      1.0177122      4455.7805      0.00025966538  25966.538    
    454500   238.72122      238.721        0.00022124289  291.22163      2449.0586      1.0177122      4455.7805      0.00022124289  22124.289    
    454750   248.31426      248.31401      0.00024389083  302.92438      2547.4737      1.0177122      4455.7805      0.00024389083  24389.083    
    455000   252.56905      252.56883      0.00022183188  308.11494      2591.1247      1.0177122      4455.7805      0.00022183188  22183.188    
    455250   254.14686      254.14663      0.00023765429  310.03973      2607.3114      1.0177122      4455.7805      0.00023765429  23765.429    
    455500   261.43931      261.43906      0.00024914777  318.93595      2682.1247      1.0177122      4455.7805      0.00024914777  24914.777    
    455750   263.35568      263.35542      0.00026403382  321.27376      2701.7851      1.0177122      4455.7805      0.00026403382  26403.382    
    456000   256.31829      256.31805      0.00024361153  312.68871      2629.588       1.0177122      4455.7805      0.00024361153  24361.153    
    456250   248.91817      248.91793      0.00024170719  303.66111      2553.6694      1.0177122      4455.7805      0.00024170719  24170.719    
    456500   240.14226      240.14202      0.00024036901  292.95516      2463.6369      1.0177122      4455.7805      0.00024036901  24036.901    
    456750   255.69164      255.6914       0.00023707632  311.92424      2623.1595      1.0177122      4455.7805      0.00023707632  23707.632    
    457000   238.14951      238.1493       0.00021064802  290.5242       2443.1933      1.0177122      4455.7805      0.00021064802  21064.802    
    457250   250.99971      250.99948      0.0002289348   306.20045      2575.0242      1.0177122      4455.7805      0.0002289348   22893.48     
    457500   240.36791      240.36771      0.00019957925  293.23049      2465.9527      1.0177122      4455.7805      0.00019957925  19957.925    
    457750   228.27233      228.27211      0.00022350114  278.47477      2341.8627      1.0177122      4455.7805      0.00022350114  22350.114    
    458000   255.81719      255.81697      0.00022089592  312.07742      2624.4475      1.0177122      4455.7805      0.00022089592  22089.592    
    458250   251.20318      251.20295      0.00023031325  306.44867      2577.1116      1.0177122      4455.7805      0.00023031325  23031.325    
    458500   239.47826      239.47802      0.00024350453  292.14513      2456.8244      1.0177122      4455.7805      0.00024350453  24350.453    
    458750   246.328        246.32776      0.00023978306  300.50131      2527.0968      1.0177122      4455.7805      0.00023978306  23978.306    
    459000   235.22453      235.22428      0.00024945243  286.9559       2413.1849      1.0177122      4455.7805      0.00024945243  24945.243    
    459250   256.81763      256.81738      0.00025630011  313.29785      2634.7101      1.0177122      4455.7805      0.00025630011  25630.011    
    459500   233.81241      233.81217      0.00023763318  285.23323      2398.698       1.0177122      4455.7805      0.00023763318  23763.318    
    459750   259.54582      259.54559      0.00023034764  316.62606      2662.6996      1.0177122      4455.7805      0.00023034764  23034.764    
    460000   246.18681      246.18657      0.00023799526  300.32906      2525.6478      1.0177122      4455.7805      0.00023799526  23799.526    
    460250   258.78621      258.78597      0.0002335791   315.69939      2654.9071      1.0177122      4455.7805      0.0002335791   23357.91     
    460500   251.66899      251.66875      0.00023905954  307.01691      2581.8899      1.0177122      4455.7805      0.00023905954  23905.954    
    460750   247.07009      247.06985      0.00024469781  301.40659      2534.7094      1.0177122      4455.7805      0.00024469781  24469.781    
    461000   238.10597      238.10574      0.00023000096  290.47106      2442.7465      1.0177122      4455.7805      0.00023000096  23000.096    
    461250   256.85513      256.85489      0.00023553704  313.34361      2635.0953      1.0177122      4455.7805      0.00023553704  23553.704    
    461500   258.10588      258.10567      0.00021369689  314.86947      2647.9277      1.0177122      4455.7805      0.00021369689  21369.689    
    461750   256.83101      256.83078      0.00023027979  313.3142       2634.8484      1.0177122      4455.7805      0.00023027979  23027.979    
    462000   231.37298      231.37273      0.00024370764  282.2573       2373.6711      1.0177122      4455.7805      0.00024370764  24370.764    
    462250   265.8861       265.88588      0.00022266659  324.36074      2727.7455      1.0177122      4455.7805      0.00022266659  22266.659    
    462500   257.55507      257.55481      0.00026094751  314.19746      2642.2759      1.0177122      4455.7805      0.00026094751  26094.751    
    462750   257.79533      257.79507      0.00025743491  314.49056      2644.7407      1.0177122      4455.7805      0.00025743491  25743.491    
    463000   224.81514      224.8149       0.00024220829  274.25724      2306.3939      1.0177122      4455.7805      0.00024220829  24220.829    
    463250   261.6986       261.6984       0.00020504233  319.25232      2684.7859      1.0177122      4455.7805      0.00020504233  20504.233    
    463500   245.76478      245.76457      0.00021047478  299.81425      2521.3197      1.0177122      4455.7805      0.00021047478  21047.478    
    463750   246.02973      246.02947      0.00025487848  300.13742      2524.0364      1.0177122      4455.7805      0.00025487848  25487.848    
    464000   261.26898      261.26875      0.00023068279  318.72819      2680.3776      1.0177122      4455.7805      0.00023068279  23068.279    
    464250   267.91644      267.91622      0.00021747903  326.8376       2748.5748      1.0177122      4455.7805      0.00021747903  21747.903    
    464500   243.19632      243.19607      0.00024663531  296.68088      2494.9684      1.0177122      4455.7805      0.00024663531  24663.531    
    464750   245.77372      245.77348      0.0002408637   299.82512      2521.41        1.0177122      4455.7805      0.0002408637   24086.37     
    465000   262.42951      262.42931      0.00019478858  320.14399      2692.2846      1.0177122      4455.7805      0.00019478858  19478.858    
    465250   230.81667      230.81645      0.00022015726  281.57868      2367.9649      1.0177122      4455.7805      0.00022015726  22015.726    
    465500   269.37707      269.37685      0.00021555303  328.61946      2763.5602      1.0177122      4455.7805      0.00021555303  21555.303    
    465750   257.10879      257.10854      0.00024996878  313.65305      2637.6974      1.0177122      4455.7805      0.00024996878  24996.878    
    466000   246.0369       246.03665      0.00024141408  300.14618      2524.1104      1.0177122      4455.7805      0.00024141408  24141.408    
    466250   270.28218      270.28194      0.00023971939  329.72359      2772.8445      1.0177122      4455.7805      0.00023971939  23971.939    
    466500   229.69017      229.68991      0.00025460907  280.20439      2356.4077      1.0177122      4455.7805      0.00025460907  25460.907    
    466750   234.5793       234.57906      0.00024316987  286.16878      2406.5654      1.0177122      4455.7805      0.00024316987  24316.987    
    467000   266.88043      266.88021      0.00021676328  325.57374      2737.9466      1.0177122      4455.7805      0.00021676328  21676.328    
    467250   242.75436      242.75413      0.00023332064  296.14174      2490.4347      1.0177122      4455.7805      0.00023332064  23332.064    
    467500   265.17911      265.17887      0.00024793005  323.49823      2720.4917      1.0177122      4455.7805      0.00024793005  24793.005    
    467750   260.10313      260.10289      0.00023586202  317.30593      2668.4171      1.0177122      4455.7805      0.00023586202  23586.202    
    468000   245.75071      245.75049      0.00022272628  299.79708      2521.1745      1.0177122      4455.7805      0.00022272628  22272.628    
    468250   256.27349      256.27325      0.00023808448  312.63406      2629.1282      1.0177122      4455.7805      0.00023808448  23808.448    
    468500   257.70028      257.70004      0.00023912106  314.37463      2643.7662      1.0177122      4455.7805      0.00023912106  23912.106    
    468750   246.46207      246.46186      0.00020862782  300.66489      2528.4725      1.0177122      4455.7805      0.00020862782  20862.782    
    469000   257.9962       257.99598      0.00022002835  314.73566      2646.8022      1.0177122      4455.7805      0.00022002835  22002.835    
    469250   252.7724       252.77218      0.00022318539  308.36301      2593.2108      1.0177122      4455.7805      0.00022318539  22318.539    
    469500   244.11922      244.11902      0.00020569572  297.8068       2504.4371      1.0177122      4455.7805      0.00020569572  20569.572    
    469750   230.07016      230.06995      0.00020811372  280.668        2360.3065      1.0177122      4455.7805      0.00020811372  20811.372    
    470000   240.96697      240.96675      0.0002220635   293.96128      2472.0977      1.0177122      4455.7805      0.0002220635   22206.35     
    470250   250.48755      250.48732      0.00023141792  305.57566      2569.7703      1.0177122      4455.7805      0.00023141792  23141.792    
    470500   240.51719      240.51694      0.00024935666  293.41254      2467.4829      1.0177122      4455.7805      0.00024935666  24935.666    
    470750   263.55873      263.5585       0.00023109977  321.52151      2703.8685      1.0177122      4455.7805      0.00023109977  23109.977    
    471000   245.35111      245.35085      0.00026702008  299.30954      2517.0737      1.0177122      4455.7805      0.00026702008  26702.008    
    471250   274.34228      274.34206      0.00021504286  334.67664      2814.4984      1.0177122      4455.7805      0.00021504286  21504.286    
    471500   239.69059      239.69039      0.00020046947  292.40421      2459.0037      1.0177122      4455.7805      0.00020046947  20046.947    
    471750   238.10485      238.10462      0.00023378024  290.46969      2442.7347      1.0177122      4455.7805      0.00023378024  23378.024    
    472000   227.21211      227.21189      0.00021730445  277.18139      2330.9857      1.0177122      4455.7805      0.00021730445  21730.445    
    472250   255.84481      255.84458      0.00023483172  312.11111      2624.7304      1.0177122      4455.7805      0.00023483172  23483.172    
    472500   255.03582      255.03558      0.00024137269  311.12419      2616.431       1.0177122      4455.7805      0.00024137269  24137.269    
    472750   275.46222      275.46199      0.00022743298  336.04287      2825.9878      1.0177122      4455.7805      0.00022743298  22743.298    
    473000   248.66811      248.66788      0.00023605316  303.35607      2551.104       1.0177122      4455.7805      0.00023605316  23605.316    
    473250   245.44014      245.4399       0.00024005192  299.41818      2517.9884      1.0177122      4455.7805      0.00024005192  24005.192    
    473500   227.45793      227.4577       0.00022990078  277.48125      2333.5066      1.0177122      4455.7805      0.00022990078  22990.078    
    473750   240.00629      240.00607      0.00022391133  292.78931      2462.2422      1.0177122      4455.7805      0.00022391133  22391.133    
    474000   252.94069      252.94047      0.00021491909  308.56831      2594.9373      1.0177122      4455.7805      0.00021491909  21491.909    
    474250   247.81024      247.81002      0.00022196108  302.30955      2542.3033      1.0177122      4455.7805      0.00022196108  22196.108    
    474500   245.13645      245.13622      0.00023245146  299.04771      2514.8726      1.0177122      4455.7805      0.00023245146  23245.146    
    474750   257.03014      257.02993      0.00021252639  313.55714      2636.8916      1.0177122      4455.7805      0.00021252639  21252.639    
    475000   248.07482      248.07459      0.00022922492  302.6323       2545.0176      1.0177122      4455.7805      0.00022922492  22922.492    
    475250   239.855        239.85477      0.00022917909  292.60474      2460.6893      1.0177122      4455.7805      0.00022917909  22917.909    
    475500   293.77608      293.77585      0.00023343428  358.3844       3013.8712      1.0177122      4455.7805      0.00023343428  23343.428    
    475750   263.02229      263.02207      0.0002205416   320.8671       2698.3652      1.0177122      4455.7805      0.0002205416   22054.16     
    476000   238.70386      238.70365      0.00021058917  291.20046      2448.8807      1.0177122      4455.7805      0.00021058917  21058.917    
    476250   237.57872      237.57849      0.00022933066  289.82786      2437.3375      1.0177122      4455.7805      0.00022933066  22933.066    
    476500   230.11807      230.11784      0.0002320104   280.72642      2360.797       1.0177122      4455.7805      0.0002320104   23201.04     
    476750   271.07699      271.07674      0.00024560871  330.6932       2780.9986      1.0177122      4455.7805      0.00024560871  24560.871    
    477000   261.94328      261.94308      0.00020335165  319.55082      2687.2959      1.0177122      4455.7805      0.00020335165  20335.165    
    477250   263.6733       263.67305      0.00024743231  321.66125      2705.0435      1.0177122      4455.7805      0.00024743231  24743.231    
    477500   254.93983      254.93961      0.00021973312  311.00712      2615.4466      1.0177122      4455.7805      0.00021973312  21973.312    
    477750   242.4269       242.42669      0.00020709075  295.74229      2487.0756      1.0177122      4455.7805      0.00020709075  20709.075    
    478000   260.22989      260.22966      0.00023855329  317.46057      2669.7177      1.0177122      4455.7805      0.00023855329  23855.329    
    478250   247.40371      247.40348      0.00022941113  301.8136       2538.1327      1.0177122      4455.7805      0.00022941113  22941.113    
    478500   258.69651      258.69628      0.0002285296   315.58996      2653.9864      1.0177122      4455.7805      0.0002285296   22852.96     
    478750   260.50805      260.50784      0.00021899653  317.79993      2672.5715      1.0177122      4455.7805      0.00021899653  21899.653    
    479000   256.22712      256.22692      0.0002027895   312.57754      2628.6535      1.0177122      4455.7805      0.0002027895   20278.95     
    479250   239.15866      239.1584       0.00025655667  291.75523      2453.5455      1.0177122      4455.7805      0.00025655667  25655.667    
    479500   259.61842      259.6182       0.00021545255  316.71464      2663.4451      1.0177122      4455.7805      0.00021545255  21545.255    
    479750   249.79935      249.79911      0.00024577199  304.73609      2562.7092      1.0177122      4455.7805      0.00024577199  24577.199    
    480000   264.9599       264.95967      0.00022275823  323.23083      2718.2432      1.0177122      4455.7805      0.00022275823  22275.823    
    480250   262.67573      262.6755       0.00022801196  320.44432      2694.81        1.0177122      4455.7805      0.00022801196  22801.196    
    480500   257.70822      257.70802      0.00020059763  314.38436      2643.8484      1.0177122      4455.7805      0.00020059763  20059.763    
    480750   250.71844      250.71821      0.00023460132  305.85732      2572.1384      1.0177122      4455.7805      0.00023460132  23460.132    
    481000   265.25022      265.25         0.00021685578  323.58502      2721.222       1.0177122      4455.7805      0.00021685578  21685.578    
    481250   248.7181       248.71786      0.00024011671  303.41704      2551.617       1.0177122      4455.7805      0.00024011671  24011.671    
    481500   249.41553      249.41527      0.00025838588  304.26783      2558.7714      1.0177122      4455.7805      0.00025838588  25838.588    
    481750   249.2491       249.24889      0.00020463954  304.06487      2557.0652      1.0177122      4455.7805      0.00020463954  20463.954    
    482000   252.25363      252.2534       0.00022464255  307.73014      2587.8887      1.0177122      4455.7805      0.00022464255  22464.255    
    482250   267.79315      267.79294      0.00021190694  326.68721      2747.3107      1.0177122      4455.7805      0.00021190694  21190.694    
    482500   276.47044      276.47019      0.00024145057  337.2728       2836.3305      1.0177122      4455.7805      0.00024145057  24145.057    
    482750   248.20101      248.20076      0.00025285155  302.78622      2546.3123      1.0177122      4455.7805      0.00025285155  25285.155    
    483000   273.57006      273.56983      0.00023110036  333.73458      2806.5753      1.0177122      4455.7805      0.00023110036  23110.036    
    483250   255.41035      255.41012      0.0002332072   311.5811       2620.2735      1.0177122      4455.7805      0.0002332072   23320.72     
    483500   255.83224      255.83199      0.00024573538  312.09575      2624.6015      1.0177122      4455.7805      0.00024573538  24573.538    
    483750   234.60848      234.60826      0.00022616976  286.20439      2406.8654      1.0177122      4455.7805      0.00022616976  22616.976    
    484000   249.43283      249.4326       0.00023505434  304.28897      2558.9491      1.0177122      4455.7805      0.00023505434  23505.434    
    484250   252.39748      252.39725      0.00023398811  307.90563      2589.3641      1.0177122      4455.7805      0.00023398811  23398.811    
    484500   242.5082       242.50791      0.00029130378  295.84138      2487.9077      1.0177122      4455.7805      0.00029130378  29130.378    
    484750   263.12998      263.12977      0.00021004376  320.9985       2699.4706      1.0177122      4455.7805      0.00021004376  21004.376    
    485000   232.549        232.54879      0.00020792663  283.692        2385.7375      1.0177122      4455.7805      0.00020792663  20792.663    
    485250   226.52915      226.52893      0.00022343501  276.34823      2323.979       1.0177122      4455.7805      0.00022343501  22343.501    
    485500   250.52497      250.52475      0.00022290172  305.62131      2570.1541      1.0177122      4455.7805      0.00022290172  22290.172    
    485750   243.40015      243.39988      0.00026546263  296.92952      2497.0589      1.0177122      4455.7805      0.00026546263  26546.263    
    486000   259.46973      259.46953      0.00020274793  316.53327      2661.9201      1.0177122      4455.7805      0.00020274793  20274.793    
    486250   248.02038      248.02014      0.00023518191  302.56588      2544.4592      1.0177122      4455.7805      0.00023518191  23518.191    
    486500   268.12751      268.12729      0.00022281389  327.09508      2750.7404      1.0177122      4455.7805      0.00022281389  22281.389    
    486750   270.99231      270.99206      0.00024298202  330.5899       2780.1298      1.0177122      4455.7805      0.00024298202  24298.202    
    487000   243.30999      243.30977      0.00022459022  296.81958      2496.1349      1.0177122      4455.7805      0.00022459022  22459.022    
    487250   273.79995      273.79972      0.00022994207  334.01503      2808.9342      1.0177122      4455.7805      0.00022994207  22994.207    
    487500   240.58409      240.58385      0.00023849802  293.49417      2468.1693      1.0177122      4455.7805      0.00023849802  23849.802    
    487750   265.68136      265.68115      0.00021795546  324.11098      2725.645       1.0177122      4455.7805      0.00021795546  21795.546    
    488000   254.67478      254.67457      0.00020628274  310.68378      2612.7278      1.0177122      4455.7805      0.00020628274  20628.274    
    488250   233.27913      233.27889      0.00023715187  284.58267      2393.2271      1.0177122      4455.7805      0.00023715187  23715.187    
    488500   244.32869      244.32847      0.0002204484   298.06232      2506.5857      1.0177122      4455.7805      0.0002204484   22044.84     
    488750   249.22909      249.22884      0.00025175618  304.0404       2556.8589      1.0177122      4455.7805      0.00025175618  25175.618    
    489000   226.03539      226.03514      0.00024646942  275.74584      2318.9125      1.0177122      4455.7805      0.00024646942  24646.942    
    489250   248.45996      248.45969      0.00026707313  303.1021       2548.9678      1.0177122      4455.7805      0.00026707313  26707.313    
    489500   255.9305       255.93027      0.00022820394  312.21565      2625.6098      1.0177122      4455.7805      0.00022820394  22820.394    
    489750   254.89906      254.89884      0.00022058603  310.95738      2615.0282      1.0177122      4455.7805      0.00022058603  22058.603    
    490000   254.32132      254.32111      0.00020647238  310.25259      2609.1017      1.0177122      4455.7805      0.00020647238  20647.238    
    490250   243.50952      243.50931      0.00021283897  297.063        2498.182       1.0177122      4455.7805      0.00021283897  21283.897    
    490500   227.53759      227.53736      0.00022983719  277.57843      2334.3239      1.0177122      4455.7805      0.00022983719  22983.719    
    490750   246.10831      246.10809      0.00022328692  300.23332      2524.8432      1.0177122      4455.7805      0.00022328692  22328.692    
    491000   226.98171      226.98147      0.0002346938   276.90029      2328.6216      1.0177122      4455.7805      0.0002346938   23469.38     
    491250   227.11135      227.11112      0.00023375608  277.05845      2329.9513      1.0177122      4455.7805      0.00023375608  23375.608    
    491500   220.84004      220.83983      0.00021427178  269.40795      2265.6135      1.0177122      4455.7805      0.00021427178  21427.178    
    491750   264.48373      264.4835       0.00023081749  322.64994      2713.3581      1.0177122      4455.7805      0.00023081749  23081.749    
    492000   244.34595      244.34572      0.00022291997  298.08337      2506.7628      1.0177122      4455.7805      0.00022291997  22291.997    
    492250   237.17085      237.17062      0.0002305618   289.33028      2433.1524      1.0177122      4455.7805      0.0002305618   23056.18     
    492500   248.52377      248.52355      0.00022462305  303.18         2549.6235      1.0177122      4455.7805      0.00022462305  22462.305    
    492750   247.35354      247.3533       0.00024346783  301.75239      2537.6177      1.0177122      4455.7805      0.00024346783  24346.783    
    493000   251.39604      251.39582      0.00022232322  306.68395      2579.0906      1.0177122      4455.7805      0.00022232322  22232.322    
    493250   237.63961      237.63937      0.00024073883  289.90212      2437.9613      1.0177122      4455.7805      0.00024073883  24073.883    
    493500   241.76864      241.7684       0.00024166674  294.93923      2480.3215      1.0177122      4455.7805      0.00024166674  24166.674    
    493750   264.19506      264.19481      0.00024311599  322.29777      2710.3962      1.0177122      4455.7805      0.00024311599  24311.599    
    494000   249.42744      249.42722      0.00022319601  304.28241      2558.8945      1.0177122      4455.7805      0.00022319601  22319.601    
    494250   241.92579      241.92556      0.00023241441  295.13095      2481.9345      1.0177122      4455.7805      0.00023241441  23241.441    
    494500   258.44239      258.44219      0.0002021375   315.27999      2651.38        1.0177122      4455.7805      0.0002021375   20213.75     
    494750   239.8091       239.80886      0.00023697127  292.54874      2460.2186      1.0177122      4455.7805      0.00023697127  23697.127    
    495000   255.51102      255.51078      0.00023478666  311.7039       2621.3062      1.0177122      4455.7805      0.00023478666  23478.666    
    495250   234.95659      234.95635      0.00024396509  286.62904      2410.4358      1.0177122      4455.7805      0.00024396509  24396.509    
    495500   249.44376      249.44355      0.00021070488  304.30234      2559.0623      1.0177122      4455.7805      0.00021070488  21070.488    
    495750   248.98465      248.98441      0.00023994637  303.74221      2554.3515      1.0177122      4455.7805      0.00023994637  23994.637    
    496000   248.72171      248.72146      0.00025665659  303.42143      2551.6535      1.0177122      4455.7805      0.00025665659  25665.659    
    496250   245.92981      245.92957      0.00024323761  300.01554      2523.0114      1.0177122      4455.7805      0.00024323761  24323.761    
    496500   229.71471      229.71446      0.00025050094  280.23433      2356.659       1.0177122      4455.7805      0.00025050094  25050.094    
    496750   272.70172      272.70148      0.00024068983  332.67526      2797.6673      1.0177122      4455.7805      0.00024068983  24068.983    
    497000   250.3284       250.32816      0.00023777369  305.38149      2568.137       1.0177122      4455.7805      0.00023777369  23777.369    
    497250   261.88925      261.88903      0.00021769706  319.48488      2686.7416      1.0177122      4455.7805      0.00021769706  21769.706    
    497500   234.5672       234.56692      0.00027969424  286.15396      2406.4404      1.0177122      4455.7805      0.00027969424  27969.424    
    497750   238.87913      238.87891      0.00021427272  291.41427      2450.6781      1.0177122      4455.7805      0.00021427272  21427.272    
    498000   262.00037      262.00012      0.0002510954   319.6204       2687.8807      1.0177122      4455.7805      0.0002510954   25109.54     
    498250   231.28035      231.28014      0.00021577449  282.14434      2372.7219      1.0177122      4455.7805      0.00021577449  21577.449    
    498500   247.14862      247.14839      0.00023441007  301.50241      2535.5156      1.0177122      4455.7805      0.00023441007  23441.007    
    498750   251.00999      251.00977      0.00021931516  306.213        2575.1302      1.0177122      4455.7805      0.00021931516  21931.516    
    499000   249.71255      249.71234      0.00020995053  304.63024      2561.8196      1.0177122      4455.7805      0.00020995053  20995.053    
    499250   256.95602      256.95576      0.0002585727   313.46666      2636.1296      1.0177122      4455.7805      0.0002585727   25857.27     
    499500   235.23028      235.23005      0.00022900432  286.96294      2413.2445      1.0177122      4455.7805      0.00022900432  22900.432    
    499750   264.73         264.72975      0.00024777029  322.95035      2715.8846      1.0177122      4455.7805      0.00024777029  24777.029    
    500000   232.28204      232.28181      0.00023182929  283.3663       2382.9976      1.0177122      4455.7805      0.00023182929  23182.929    
Loop time of 33.517 on 4 procs for 500000 steps with 276 atoms

Performance: 1288.899 ns/day, 0.019 hours/ns, 14917.816 timesteps/s
99.4% CPU use with 4 MPI tasks x no OpenMP threads

MPI task timing breakdown:
Section |  min time  |  avg time  |  max time  |%varavg| %total
---------------------------------------------------------------
Pair    | 0.034575   | 0.035662   | 0.036651   |   0.5 |  0.11
Bond    | 2.5224     | 2.6736     | 2.8764     |   7.9 |  7.98
Neigh   | 14.508     | 14.51      | 14.511     |   0.0 | 43.29
Comm    | 13.683     | 13.905     | 14.065     |   3.7 | 41.49
Output  | 0.032771   | 0.044525   | 0.048484   |   3.2 |  0.13
Modify  | 1.8588     | 1.8795     | 1.9        |   1.1 |  5.61
Other   |            | 0.4685     |            |       |  1.40

Nlocal:             69 ave          74 max          64 min
Histogram: 1 0 0 0 1 0 1 0 0 1
Nghost:        3677.75 ave        3700 max        3651 min
Histogram: 1 0 1 0 0 0 0 0 0 2
Neighs:        27081.8 ave       29302 max       25174 min
Histogram: 1 0 0 0 2 0 0 0 0 1

Total # of neighbors = 108327
Ave neighs/atom = 392.48913
Ave special neighs/atom = 6.4347826
Neighbor list builds = 24966
Dangerous builds = 0

unfix 			f1
unfix 			f2

Total wall time: 0:00:46
