
#------------------------------------------------------------------------------#
# simulation settings
#------------------------------------------------------------------------------#

##### simulation variables

variable        seed 	equal  77229
variable        T       equal  300	    #K
variable        p       equal  0.0 	#bar
variable        damp_T  equal  100 		  	#K
variable        damp_P  equal  1000.0	  	#bar
variable        dT      equal  1.0 		 	#fs
variable        kb      equal  0.0019872041

## system setup ##

units           real
atom_style      full
boundary        p p p

pair_style      zero 12.5 nocoeff
bond_style      harmonic
angle_style     hybrid fourier cosine/periodic
dihedral_style  harmonic
improper_style  fourier

pair_modify 	tail yes mix arithmetic
special_bonds 	lj/coul 0.0 0.0 1.0

read_data 	 	../data.emin_pto-4c_In-3c_BTB_DMA_fe
Reading data file ...
  triclinic box = (1.0127974 1.2506642 1.0737052) to (27.573203 27.546212 27.449243) with tilt (-0.4871608 -0.79355401 -0.31961632)
  2 by 1 by 2 MPI processor grid
  reading atoms ...
  456 atoms
  reading velocities ...
  456 velocities
  scanning bonds ...
  8 = max bonds/atom
  scanning angles ...
  28 = max angles/atom
  scanning dihedrals ...
  12 = max dihedrals/atom
  scanning impropers ...
  3 = max impropers/atom
  reading bonds ...
  516 bonds
  reading angles ...
  972 angles
  reading dihedrals ...
  1164 dihedrals
  reading impropers ...
  648 impropers
Finding 1-2 1-3 1-4 neighbors ...
  special bond factors lj:    0        0        1       
  special bond factors coul:  0        0        1       
     8 = max # of 1-2 neighbors
     9 = max # of 1-3 neighbors
    12 = max # of special neighbors
  special bonds CPU = 0.000 seconds
  read_data CPU = 0.003 seconds
include 	 	../bonded_pto-4c_In-3c_BTB.param
### Parameters for Equilibration ###

### Parameters for MOF ###

mass 1 12.010700000
mass 2 1.007940000
mass 3 114.818000000
mass 4 15.999400000


variable b1 equal ${lambda}*462.655054
variable b1 equal 1e-08*462.655054
bond_coeff 1 ${b1} 1.379256
bond_coeff 1 4.62655054e-06 1.379256
variable b2 equal ${lambda}*391.669513
variable b2 equal 1e-08*391.669513
bond_coeff 2 ${b2} 1.458000
bond_coeff 2 3.91669513e-06 1.458000
variable b3 equal ${lambda}*357.440381
variable b3 equal 1e-08*357.440381
bond_coeff 3 ${b3} 1.081418
bond_coeff 3 3.57440381e-06 1.081418
variable b4 equal ${lambda}*187.991596
variable b4 equal 1e-08*187.991596
bond_coeff 4 ${b4} 2.033568
bond_coeff 4 1.87991596e-06 2.033568
variable b5 equal ${lambda}*646.680887
variable b5 equal 1e-08*646.680887
bond_coeff 5 ${b5} 1.311940
bond_coeff 5 6.46680887e-06 1.311940

variable a1 equal ${lambda}*111.297508
variable a1 equal 1e-08*111.297508
angle_coeff 1 cosine/periodic ${a1} -1 3
angle_coeff 1 cosine/periodic 1.11297508e-06 -1 3
variable a2 equal ${lambda}*102.183280
variable a2 equal 1e-08*102.183280
angle_coeff 2 cosine/periodic ${a2} -1 3
angle_coeff 2 cosine/periodic 1.0218328e-06 -1 3
variable a3 equal ${lambda}*57.289016
variable a3 equal 1e-08*57.289016
angle_coeff 3 cosine/periodic ${a3} -1 3
angle_coeff 3 cosine/periodic 5.7289016e-07 -1 3
variable a4 equal ${lambda}*127.915933
variable a4 equal 1e-08*127.915933
angle_coeff 4 fourier ${a4} 0.343737 0.374972 0.281246
angle_coeff 4 fourier 1.27915933e-06 0.343737 0.374972 0.281246
variable a5 equal ${lambda}*77.909182
variable a5 equal 1e-08*77.909182
angle_coeff 5 cosine/periodic ${a5} -1 3
angle_coeff 5 cosine/periodic 7.7909182e-07 -1 3
variable a6 equal ${lambda}*131.755710
variable a6 equal 1e-08*131.755710
angle_coeff 6 cosine/periodic ${a6} -1 3
angle_coeff 6 cosine/periodic 1.3175571e-06 -1 3
variable a7 equal ${lambda}*187.136328
variable a7 equal 1e-08*187.136328
angle_coeff 7 cosine/periodic ${a7} -1 3
angle_coeff 7 cosine/periodic 1.87136328e-06 -1 3

variable d1 equal ${lambda}*3.368555
variable d1 equal 1e-08*3.368555
dihedral_coeff 1 ${d1} -1 2
dihedral_coeff 1 3.368555e-08 -1 2
variable d2 equal ${lambda}*1.250000
variable d2 equal 1e-08*1.250000
dihedral_coeff 2 ${d2} -1 2
dihedral_coeff 2 1.25e-08 -1 2
variable d3 equal ${lambda}*6.737110
variable d3 equal 1e-08*6.737110
dihedral_coeff 3 ${d3} -1 2
dihedral_coeff 3 6.73711e-08 -1 2

variable i1 equal ${lambda}*2.000000
variable i1 equal 1e-08*2.000000
improper_coeff 1 ${i1} 1.000000 -1.000000 0.000000 0
improper_coeff 1 2e-08 1.000000 -1.000000 0.000000 0

### Parameters for Molecule ###

mass 5 12.010700000
mass 6 1.007940000
mass 7 14.006700000


bond_coeff 6 331.069389 1.109401
bond_coeff 7 528.634538 1.451071
bond_coeff 8 527.945261 1.044419

angle_coeff 8 fourier 75.498766 0.343737 0.374972 0.281246
angle_coeff 9 fourier 169.780468 0.343737 0.374972 0.281246
angle_coeff 10 fourier 260.869388 0.317506 0.313225 0.272502
angle_coeff 11 fourier 144.695053 0.317506 0.313225 0.272502
angle_coeff 12 fourier 97.017167 0.317506 0.313225 0.272502

dihedral_coeff 4 0.054250 1 3


pair_coeff * *

group			fram type < 5
390 atoms in group fram

fix				SPRING fram spring/self 10 	# harmonic restraint to framework

group			cation type > 4
66 atoms in group cation
group			center type 7
6 atoms in group center
fix			SPRING2 center spring/self 1



#------------------------------------------------------------------------------#
# equilibration
#------------------------------------------------------------------------------#

reset_timestep	0

thermo_style	custom step etotal ke pe temp press density vol ebond eangle edihed eimp emol
thermo 			5000

velocity 		all create ${T} ${seed}
velocity 		all create 300 ${seed}
velocity 		all create 300 77229

fix				f1 all nve
fix 			f2 all langevin ${T} ${T} ${damp_T} ${seed} zero yes
fix 			f2 all langevin 300 ${T} ${damp_T} ${seed} zero yes
fix 			f2 all langevin 300 300 ${damp_T} ${seed} zero yes
fix 			f2 all langevin 300 300 100 ${seed} zero yes
fix 			f2 all langevin 300 300 100 77229 zero yes
compute 		c1 all temp/com
fix_modify		f2 temp c1

run				200000
Generated 0 of 21 mixed pair_coeff terms from arithmetic mixing rule
Neighbor list info ...
  update every 1 steps, delay 10 steps, check yes
  max neighbors/atom: 2000, page size: 100000
  master list distance cutoff = 14.5
  ghost atom cutoff = 14.5
  binsize = 7.25, bins = 4 4 4
  1 neighbor lists, perpetual/occasional/extra = 1 0 0
  (1) pair zero, perpetual
      attributes: half, newton on
      pair build: half/bin/newton/tri
      stencil: half/bin/3d/tri
      bin: standard
WARNING: Inconsistent image flags (../domain.cpp:819)
Per MPI rank memory allocation (min/avg/max) = 20.35 | 20.35 | 20.35 Mbytes
   Step         TotEng         KinEng         PotEng          Temp          Press         Density         Volume         E_bond        E_angle        E_dihed        E_impro         E_mol     
         0   422.00245      406.88057      15.121875      300            263.74001      0.40101743     18421.214      3.1675723      11.930275      0.024028264    1.6186922e-08  15.121875    
      5000   462.47154      407.73331      54.73823       300.62874      1024.6672      0.40101743     18421.214      19.103478      32.606991      3.0277582      2.3990665e-06  54.73823     
     10000   454.84595      393.52567      61.320278      290.1532       871.59604      0.40101743     18421.214      23.508243      33.659678      4.1523538      2.7341935e-06  61.320278    
     15000   429.57642      369.22765      60.348766      272.23786      1222.4269      0.40101743     18421.214      24.066702      32.907533      3.3745285      2.405334e-06   60.348766    
     20000   473.88814      412.73538      61.152756      304.31685      948.03942      0.40101743     18421.214      23.621949      34.368403      3.1624016      2.0991048e-06  61.152756    
     25000   464.61972      410.18725      54.432469      302.43807      721.24111      0.40101743     18421.214      17.469351      33.416525      3.5465914      2.5358832e-06  54.432469    
     30000   478.66463      430.75136      47.913272      317.60034      996.58303      0.40101743     18421.214      15.511014      27.060142      5.3421134      2.5213506e-06  47.913272    
     35000   500.99922      440.76621      60.233013      324.98446      762.42495      0.40101743     18421.214      19.793248      35.12977       5.3099921      2.7284549e-06  60.233013    
     40000   458.80341      399.55884      59.244563      294.60157      869.47108      0.40101743     18421.214      16.369191      39.392447      3.4829218      2.4961562e-06  59.244563    
     45000   479.04453      426.16386      52.880673      314.2179       1033.8229      0.40101743     18421.214      14.853612      32.783461      5.2435976      2.3893428e-06  52.880673    
     50000   487.33408      424.13257      63.201514      312.72019      556.91035      0.40101743     18421.214      17.591264      40.752413      4.8578342      2.2095329e-06  63.201514    
     55000   468.66716      418.78693      49.880238      308.77876      811.26333      0.40101743     18421.214      15.12359       30.565627      4.1910172      2.7953763e-06  49.880238    
     60000   454.09794      399.41607      54.681875      294.4963       885.0948       0.40101743     18421.214      19.259039      31.558123      3.8647107      2.7588299e-06  54.681875    
     65000   455.76727      396.68051      59.086756      292.47932      1042.6412      0.40101743     18421.214      20.992852      34.458707      3.6351942      2.860439e-06   59.086756    
     70000   477.00927      417.90427      59.104999      308.12796      1205.1726      0.40101743     18421.214      21.72821       35.122058      2.2547284      2.6749122e-06  59.104999    
     75000   526.50814      463.30529      63.202843      341.60291      1433.1024      0.40101743     18421.214      18.75388       40.772466      3.676495       2.4223585e-06  63.202843    
     80000   479.8153       414.35599      65.459309      305.51175      1147.361       0.40101743     18421.214      21.038885      41.305071      3.1153502      2.3758293e-06  65.459309    
     85000   468.13906      413.17434      54.964716      304.64051      817.43356      0.40101743     18421.214      20.755886      30.304765      3.9040638      2.4480931e-06  54.964716    
     90000   458.25231      393.59127      64.661034      290.20157      1007.3332      0.40101743     18421.214      18.856378      40.704714      5.0999387      2.6413487e-06  64.661034    
     95000   481.93928      421.49677      60.442511      310.77678      1143.195       0.40101743     18421.214      29.244661      27.446116      3.7517319      2.7077269e-06  60.442511    
    100000   470.22361      409.05676      61.166853      301.60454      947.29227      0.40101743     18421.214      21.909143      36.649032      2.6086758      2.5501414e-06  61.166853    
    105000   457.68811      392.31774      65.370369      289.26258      1181.1483      0.40101743     18421.214      26.827473      32.312806      6.2300872      2.7684009e-06  65.370369    
    110000   474.06141      413.2904       60.771003      304.72608      1145.9554      0.40101743     18421.214      20.763943      37.101361      2.9056952      3.2958152e-06  60.771003    
    115000   438.84554      380.23765      58.607895      280.35572      946.98816      0.40101743     18421.214      22.462519      33.229789      2.9155849      2.4135204e-06  58.607895    
    120000   444.42377      394.36686      50.05691       290.77342      1018.693       0.40101743     18421.214      18.857568      26.844699      4.3546398      2.9656382e-06  50.05691     
    125000   457.55101      397.64365      59.907365      293.18946      1079.3628      0.40101743     18421.214      22.058574      33.212411      4.6363786      2.1762478e-06  59.907365    
    130000   484.57173      422.87353      61.698199      311.79188      1342.3397      0.40101743     18421.214      24.205731      32.387435      5.1050307      2.5539795e-06  61.698199    
    135000   469.88775      400.15184      69.735916      295.03879      575.46852      0.40101743     18421.214      27.594933      39.521232      2.6197481      2.5002621e-06  69.735916    
    140000   439.5876       379.18282      60.404777      279.57797      797.84734      0.40101743     18421.214      13.495354      43.926204      2.9832164      2.6474768e-06  60.404777    
    145000   453.77624      397.22509      56.551152      292.88085      837.04315      0.40101743     18421.214      18.37831       33.406113      4.7667264      2.407838e-06   56.551152    
    150000   449.69482      395.36758      54.327241      291.51128      1080.1023      0.40101743     18421.214      16.808134      33.457983      4.061122       2.5635461e-06  54.327241    
    155000   467.93584      412.1792       55.756639      303.90677      440.33234      0.40101743     18421.214      22.889275      28.42564       4.4417226      2.4020265e-06  55.756639    
    160000   459.60127      410.10427      49.496994      302.37689      711.59199      0.40101743     18421.214      17.803397      29.042886      2.6507089      2.4977933e-06  49.496994    
    165000   467.56063      410.27187      57.288764      302.50046      636.10496      0.40101743     18421.214      16.835767      36.076038      4.3769566      2.8791823e-06  57.288764    
    170000   464.47103      406.37864      58.092389      299.62991      664.61624      0.40101743     18421.214      18.939503      36.056668      3.0962155      2.5310007e-06  58.092389    
    175000   455.61508      407.57298      48.0421        300.51052      626.69746      0.40101743     18421.214      17.933198      27.354411      2.7544882      3.0126989e-06  48.0421      
    180000   462.38883      401.2697       61.11913       295.863        1055.4961      0.40101743     18421.214      22.203792      34.116219      4.7991166      2.5934339e-06  61.11913     
    185000   474.98075      417.15496      57.825791      307.57548      713.93874      0.40101743     18421.214      21.875664      31.457264      4.4928603      2.8165367e-06  57.825791    
    190000   465.64122      414.70401      50.937213      305.76835      1521.4736      0.40101743     18421.214      14.175962      33.585201      3.1760474      2.5997343e-06  50.937213    
    195000   474.95362      420.99613      53.957488      310.40764      1405.464       0.40101743     18421.214      17.766456      30.965676      5.2253533      2.6471017e-06  53.957488    
    200000   480.56084      426.70196      53.858879      314.61465      738.74202      0.40101743     18421.214      16.21271       33.579094      4.0670718      2.7272495e-06  53.858879    
Loop time of 9.73996 on 4 procs for 200000 steps with 456 atoms

Performance: 1774.134 ns/day, 0.014 hours/ns, 20533.964 timesteps/s
99.6% CPU use with 4 MPI tasks x no OpenMP threads

MPI task timing breakdown:
Section |  min time  |  avg time  |  max time  |%varavg| %total
---------------------------------------------------------------
Pair    | 0.0081149  | 0.0081857  | 0.0082881  |   0.1 |  0.08
Bond    | 1.8209     | 1.8536     | 1.8868     |   2.1 | 19.03
Neigh   | 3.5064     | 3.5073     | 3.5079     |   0.0 | 36.01
Comm    | 3.2525     | 3.2899     | 3.3192     |   1.6 | 33.78
Output  | 0.0003975  | 0.00041398 | 0.00046267 |   0.0 |  0.00
Modify  | 0.9181     | 0.92226    | 0.92595    |   0.3 |  9.47
Other   |            | 0.1583     |            |       |  1.62

Nlocal:            114 ave         130 max         100 min
Histogram: 1 0 1 0 0 0 1 0 0 1
Nghost:         2255.5 ave        2337 max        2171 min
Histogram: 1 0 1 0 0 0 0 1 0 1
Neighs:          17703 ave       20579 max       13528 min
Histogram: 1 0 0 0 0 0 1 1 0 1

Total # of neighbors = 70812
Ave neighs/atom = 155.28947
Ave special neighs/atom = 6.3157895
Neighbor list builds = 9929
Dangerous builds = 0

#------------------------------------------------------------------------------#
# sampling
#------------------------------------------------------------------------------#

reset_timestep	0

compute 		MOF_pe_a fram pe/atom bond angle dihedral improper	# per atom quantity
compute			MOF_pe all reduce sum c_MOF_pe_a	# reduce to bulk quantity

variable 		dudlam	equal c_MOF_pe/${lambda}
variable 		dudlam	equal c_MOF_pe/1e-08

fix				BOND all ave/time 250 1 250 v_dudlam file bond_${lambda}.lmp
fix				BOND all ave/time 250 1 250 v_dudlam file bond_1e-08.lmp

thermo_style	custom step etotal ke pe temp press density vol c_MOF_pe v_dudlam
thermo 			250

run 			500000
Generated 0 of 21 mixed pair_coeff terms from arithmetic mixing rule
WARNING: Inconsistent image flags (../domain.cpp:819)
Per MPI rank memory allocation (min/avg/max) = 21.35 | 21.35 | 21.35 Mbytes
   Step         TotEng         KinEng         PotEng          Temp          Press         Density         Volume        c_MOF_pe       v_dudlam   
         0   480.56084      426.70196      53.858879      314.61465      738.74202      0.40101743     18421.214      0.00035369689  35369.689    
       250   442.15591      387.27685      54.879064      285.54584      840.34502      0.40101743     18421.214      0.00040066114  40066.114    
       500   454.71858      405.10137      49.617208      298.68816      1029.4449      0.40101743     18421.214      0.00035512255  35512.255    
       750   471.68792      406.5531       65.13482       299.75855      828.64792      0.40101743     18421.214      0.00036043879  36043.879    
      1000   464.03393      407.15648      56.877451      300.20343      1010.2346      0.40101743     18421.214      0.00038345325  38345.325    
      1250   468.10853      411.68624      56.422295      303.5433       801.99508      0.40101743     18421.214      0.00032993262  32993.262    
      1500   469.83338      407.67551      62.157872      300.58612      1088.8997      0.40101743     18421.214      0.00034177457  34177.457    
      1750   470.48829      415.33778      55.150514      306.23564      1353.5834      0.40101743     18421.214      0.00038607653  38607.653    
      2000   453.22704      394.04917      59.177869      290.53919      731.22931      0.40101743     18421.214      0.00035125189  35125.189    
      2250   483.42767      426.99006      56.437616      314.82707      465.89961      0.40101743     18421.214      0.00037643889  37643.889    
      2500   472.04268      414.8825       57.160187      305.89996      822.38685      0.40101743     18421.214      0.00037616692  37616.692    
      2750   458.6532       403.57897      55.074227      297.56568      1526.1993      0.40101743     18421.214      0.00034283377  34283.377    
      3000   502.54547      440.79195      61.753524      325.00344      453.43141      0.40101743     18421.214      0.00036960594  36960.594    
      3250   461.1037       407.15127      53.952427      300.19959      589.11205      0.40101743     18421.214      0.00037425965  37425.965    
      3500   466.60814      418.34737      48.260763      308.45467      673.77706      0.40101743     18421.214      0.00036109857  36109.857    
      3750   453.07945      403.03553      50.043921      297.16498      1401.876       0.40101743     18421.214      0.00035659342  35659.342    
      4000   464.22568      406.26613      57.959553      299.54696      934.37197      0.40101743     18421.214      0.00035675897  35675.897    
      4250   491.90131      429.82465      62.076658      316.91706      818.90912      0.40101743     18421.214      0.00036922194  36922.194    
      4500   517.17055      446.8489       70.321652      329.46933      703.68264      0.40101743     18421.214      0.00036896755  36896.755    
      4750   459.16248      400.50311      58.659369      295.29779      1609.4728      0.40101743     18421.214      0.00036854125  36854.125    
      5000   468.63937      405.82176      62.817618      299.21932      946.85986      0.40101743     18421.214      0.00036019453  36019.453    
      5250   469.88596      400.28964      69.596314      295.14039      1005.4279      0.40101743     18421.214      0.00037113306  37113.306    
      5500   472.85769      408.92322      63.934463      301.50608      793.95943      0.40101743     18421.214      0.00037559376  37559.376    
      5750   485.88837      426.73475      59.153619      314.63883      1014.8838      0.40101743     18421.214      0.00038675047  38675.047    
      6000   476.04572      411.43245      64.613265      303.35618      848.54136      0.40101743     18421.214      0.00037465009  37465.009    
      6250   425.26253      372.99164      52.270888      275.01311      1211.7982      0.40101743     18421.214      0.00035233949  35233.949    
      6500   434.40197      388.54592      45.856051      286.48155      860.83566      0.40101743     18421.214      0.00040043717  40043.717    
      6750   442.92326      384.40876      58.514501      283.43115      676.20248      0.40101743     18421.214      0.00036757524  36757.524    
      7000   458.49648      395.5971       62.899382      291.6805       802.39025      0.40101743     18421.214      0.00036505011  36505.011    
      7250   489.54413      419.83904      69.705093      309.5545       807.27309      0.40101743     18421.214      0.00036945543  36945.543    
      7500   498.79362      438.95085      59.842765      323.64597      937.96105      0.40101743     18421.214      0.00038478185  38478.185    
      7750   463.66952      409.67702      53.992501      302.06187      369.46607      0.40101743     18421.214      0.00035619     35619        
      8000   481.40698      428.65419      52.752789      316.05406      747.40223      0.40101743     18421.214      0.00037201007  37201.007    
      8250   462.00805      403.74082      58.267224      297.68501      485.45813      0.40101743     18421.214      0.00036679436  36679.436    
      8500   484.98485      433.66257      51.322283      319.74682      941.72563      0.40101743     18421.214      0.00033045789  33045.789    
      8750   491.31314      431.74158      59.571559      318.33044      934.90056      0.40101743     18421.214      0.00036005269  36005.269    
      9000   481.17297      414.01908      67.153886      305.26335      884.8876       0.40101743     18421.214      0.00031642433  31642.433    
      9250   460.51273      407.17075      53.341978      300.21395      723.89969      0.40101743     18421.214      0.0003766529   37665.29     
      9500   479.36593      414.62489      64.741049      305.71001      1252.5003      0.40101743     18421.214      0.00034985654  34985.654    
      9750   492.40048      431.98118      60.419304      318.50711      977.4532       0.40101743     18421.214      0.00038214576  38214.576    
     10000   493.05797      434.42656      58.631406      320.31013      591.45295      0.40101743     18421.214      0.00036776952  36776.952    
     10250   452.41554      398.83265      53.582888      294.06613      849.5312       0.40101743     18421.214      0.00035633914  35633.914    
     10500   431.92869      374.10033      57.828361      275.83056      836.30812      0.40101743     18421.214      0.0003363217   33632.17     
     10750   471.63798      408.60069      63.03729       301.26827      981.02618      0.40101743     18421.214      0.00036522075  36522.075    
     11000   501.96867      435.84937      66.119309      321.35919      731.3665       0.40101743     18421.214      0.00035601671  35601.671    
     11250   470.71884      405.52768      65.191157      299.00249      1257.7725      0.40101743     18421.214      0.00035491238  35491.238    
     11500   456.75225      398.74967      58.002576      294.00495      792.68982      0.40101743     18421.214      0.0003393515   33935.15     
     11750   486.1887       429.42439      56.764308      316.62194      1225.223       0.40101743     18421.214      0.00037708214  37708.214    
     12000   483.31548      429.55589      53.759592      316.7189       631.50257      0.40101743     18421.214      0.00037710726  37710.726    
     12250   465.08479      416.88296      48.201836      307.37493      1001.4728      0.40101743     18421.214      0.00033553034  33553.034    
     12500   495.2295       433.55152      61.677979      319.66495      691.99907      0.40101743     18421.214      0.00034479922  34479.922    
     12750   484.9636       425.76344      59.200157      313.92266      836.51707      0.40101743     18421.214      0.00036974828  36974.828    
     13000   452.68241      403.62459      49.057818      297.59931      993.48774      0.40101743     18421.214      0.00037353727  37353.727    
     13250   471.58791      420.76341      50.824498      310.23605      777.19578      0.40101743     18421.214      0.00036825117  36825.117    
     13500   449.35403      402.03661      47.31742       296.42846      714.24095      0.40101743     18421.214      0.00035074672  35074.672    
     13750   452.00549      401.23813      50.76736       295.83973      412.00837      0.40101743     18421.214      0.00035407717  35407.717    
     14000   455.45442      400.8469       54.607525      295.55127      929.66861      0.40101743     18421.214      0.00035054345  35054.345    
     14250   459.17277      406.48277      52.689993      299.7067       1372.4235      0.40101743     18421.214      0.00037012664  37012.664    
     14500   483.93808      428.51138      55.426709      315.94876      832.12872      0.40101743     18421.214      0.00036422284  36422.284    
     14750   473.0323       413.94521      59.087094      305.20888      544.57243      0.40101743     18421.214      0.00035000374  35000.374    
     15000   475.45586      409.95007      65.505789      302.26319      759.67102      0.40101743     18421.214      0.0003597645   35976.45     
     15250   460.7605       401.32927      59.431238      295.90693      789.27102      0.40101743     18421.214      0.00037813841  37813.841    
     15500   458.67688      402.85864      55.818235      297.03456      938.59206      0.40101743     18421.214      0.00034771304  34771.304    
     15750   466.48461      407.82377      58.660837      300.69544      690.81506      0.40101743     18421.214      0.00033910157  33910.157    
     16000   462.47808      415.25061      47.22747       306.17138      569.10105      0.40101743     18421.214      0.00035440345  35440.345    
     16250   463.06526      404.3436       58.721664      298.12945      1286.8524      0.40101743     18421.214      0.00036328168  36328.168    
     16500   451.71566      392.83959      58.876066      289.64735      675.54232      0.40101743     18421.214      0.00037704766  37704.766    
     16750   471.54973      416.73905      54.810674      307.26883      486.49317      0.40101743     18421.214      0.00035675311  35675.311    
     17000   471.33697      420.28279      51.054183      309.88168      903.8833       0.40101743     18421.214      0.00036432587  36432.587    
     17250   428.76864      375.59798      53.170663      276.93481      939.74241      0.40101743     18421.214      0.00038655704  38655.704    
     17500   490.821        426.84328      63.977718      314.71884      974.27071      0.40101743     18421.214      0.00037084477  37084.477    
     17750   449.39364      400.93839      48.455246      295.61873      1048.1121      0.40101743     18421.214      0.00036319398  36319.398    
     18000   459.12808      401.49755      57.630531      296.031        259.69175      0.40101743     18421.214      0.00036980532  36980.532    
     18250   453.57479      388.27376      65.301026      286.28088      1053.0591      0.40101743     18421.214      0.00037329469  37329.469    
     18500   489.14526      430.31848      58.826779      317.28117      707.01027      0.40101743     18421.214      0.00038102472  38102.472    
     18750   467.76532      405.98639      61.778933      299.3407       762.07667      0.40101743     18421.214      0.00037034595  37034.595    
     19000   428.43714      376.06678      52.370357      277.28046      710.02517      0.40101743     18421.214      0.00036544454  36544.454    
     19250   468.22948      411.07129      57.158191      303.08989      1122.0528      0.40101743     18421.214      0.00035189679  35189.679    
     19500   453.52359      396.94361      56.579982      292.67331      533.55616      0.40101743     18421.214      0.00036346442  36346.442    
     19750   481.33777      420.09072      61.247042      309.74007      1146.2565      0.40101743     18421.214      0.00036882038  36882.038    
     20000   499.89766      443.47054      56.427129      326.97841      1020.5731      0.40101743     18421.214      0.00034220982  34220.982    
     20250   472.77791      423.68998      49.087928      312.39386      913.21395      0.40101743     18421.214      0.00034521964  34521.964    
     20500   472.12843      422.02519      50.103248      311.16638      936.85545      0.40101743     18421.214      0.00037436626  37436.626    
     20750   504.92935      439.31398      65.615369      323.91371      677.60901      0.40101743     18421.214      0.00036992601  36992.601    
     21000   455.87115      399.99475      55.876395      294.92297      376.01895      0.40101743     18421.214      0.00034550072  34550.072    
     21250   479.52646      415.40122      64.125237      306.28242      1053.7911      0.40101743     18421.214      0.0003542199   35421.99     
     21500   471.97259      401.67157      70.301015      296.15932      481.40468      0.40101743     18421.214      0.00034231604  34231.604    
     21750   445.90821      394.37608      51.532127      290.78023      436.68016      0.40101743     18421.214      0.00037331022  37331.022    
     22000   470.89062      417.90125      52.989367      308.12574      924.11556      0.40101743     18421.214      0.00036353986  36353.986    
     22250   464.81348      405.28569      59.527789      298.82407      645.43956      0.40101743     18421.214      0.00036454904  36454.904    
     22500   516.89836      456.093        60.805358      336.28517      836.2911       0.40101743     18421.214      0.00033312009  33312.009    
     22750   464.62269      408.45482      56.16787       301.16072      913.00579      0.40101743     18421.214      0.00038194396  38194.396    
     23000   480.10268      420.54232      59.560356      310.07304      882.80746      0.40101743     18421.214      0.00036026664  36026.664    
     23250   478.04645      423.87755      54.168895      312.53216      543.06167      0.40101743     18421.214      0.00036322872  36322.872    
     23500   443.7277       397.23134      46.496359      292.88546      577.7345       0.40101743     18421.214      0.00039642338  39642.338    
     23750   452.58678      400.12367      52.463112      295.01802      1156.0841      0.40101743     18421.214      0.0003301546   33015.46     
     24000   476.69493      418.08376      58.611172      308.2603       1047.5362      0.40101743     18421.214      0.00036853206  36853.206    
     24250   469.19105      404.24278      64.948273      298.05511      660.92714      0.40101743     18421.214      0.00035093536  35093.536    
     24500   437.76962      386.14928      51.620344      284.71446      609.91239      0.40101743     18421.214      0.00034574548  34574.548    
     24750   472.59931      421.65699      50.942318      310.8949       670.72885      0.40101743     18421.214      0.00036534016  36534.016    
     25000   457.04998      396.48285      60.567128      292.33358      380.38919      0.40101743     18421.214      0.0003480761   34807.61     
     25250   470.39856      405.64594      64.75262       299.08968      657.89925      0.40101743     18421.214      0.00041011882  41011.882    
     25500   461.26896      401.27443      59.994524      295.8665       648.995        0.40101743     18421.214      0.0003839796   38397.96     
     25750   435.20753      373.67153      61.535995      275.51441      569.83235      0.40101743     18421.214      0.00039033806  39033.806    
     26000   446.69791      393.37893      53.318984      290.04501      1335.7676      0.40101743     18421.214      0.00038030772  38030.772    
     26250   478.15544      418.64126      59.514184      308.67135      495.07229      0.40101743     18421.214      0.0003245365   32453.65     
     26500   445.27995      387.00624      58.27371       285.34631      901.21378      0.40101743     18421.214      0.00036488712  36488.712    
     26750   463.1221       403.68832      59.433778      297.6463       924.77524      0.40101743     18421.214      0.00034635015  34635.015    
     27000   471.93819      416.8509       55.087294      307.35129      1386.0245      0.40101743     18421.214      0.00036243742  36243.742    
     27250   472.91005      421.62133      51.288726      310.86861      1017.1436      0.40101743     18421.214      0.00038200665  38200.665    
     27500   472.5734       418.00412      54.569272      308.20159      620.9674       0.40101743     18421.214      0.00036740167  36740.167    
     27750   480.12262      426.09736      54.025262      314.16887      947.66954      0.40101743     18421.214      0.00039073627  39073.627    
     28000   478.46882      419.29949      59.169332      309.15668      345.0049       0.40101743     18421.214      0.00033145231  33145.231    
     28250   510.73212      450.73534      59.996782      332.33487      1048.8468      0.40101743     18421.214      0.00038711346  38711.346    
     28500   452.63105      390.85552      61.775526      288.18446      598.57642      0.40101743     18421.214      0.00036582972  36582.972    
     28750   461.00325      401.66407      59.339182      296.15378      577.85758      0.40101743     18421.214      0.00037664248  37664.248    
     29000   506.91674      444.29022      62.62652       327.58277      1070.6675      0.40101743     18421.214      0.00035733552  35733.552    
     29250   468.64136      409.13519      59.506178      301.66237      800.80943      0.40101743     18421.214      0.00034991877  34991.877    
     29500   466.96902      403.2444       63.724616      297.31899      773.50219      0.40101743     18421.214      0.0003591986   35919.86     
     29750   434.19022      375.00215      59.188075      276.49549      439.16407      0.40101743     18421.214      0.00036411804  36411.804    
     30000   491.5309       428.73409      62.796809      316.11297      827.82682      0.40101743     18421.214      0.00034954298  34954.298    
     30250   487.75757      435.68398      52.073589      321.23725      1156.4084      0.40101743     18421.214      0.00034273775  34273.775    
     30500   463.17905      408.02412      55.154927      300.84316      1337.6013      0.40101743     18421.214      0.0003497207   34972.07     
     30750   448.37847      398.30814      50.07033       293.6794       904.93662      0.40101743     18421.214      0.00035215006  35215.006    
     31000   476.91319      415.21089      61.702297      306.14208      1233.5271      0.40101743     18421.214      0.00036220154  36220.154    
     31250   484.55525      431.28392      53.271332      317.99301      853.37244      0.40101743     18421.214      0.00032500665  32500.665    
     31500   465.35604      404.17439      61.181653      298.00469      1165.1925      0.40101743     18421.214      0.00035676215  35676.215    
     31750   458.82681      395.92728      62.89953       291.92395      623.73815      0.40101743     18421.214      0.00032096389  32096.389    
     32000   456.61093      390.28094      66.329986      287.76081      459.71954      0.40101743     18421.214      0.00034750853  34750.853    
     32250   443.86333      384.59703      59.266295      283.56996      995.50869      0.40101743     18421.214      0.0003414424   34144.24     
     32500   456.04183      397.27147      58.770359      292.91505      178.28937      0.40101743     18421.214      0.00034913382  34913.382    
     32750   459.28238      401.05689      58.225493      295.7061       532.97837      0.40101743     18421.214      0.00032852859  32852.859    
     33000   444.36483      390.47415      53.890684      287.90326      835.68553      0.40101743     18421.214      0.00038113799  38113.799    
     33250   454.93914      405.02705      49.912089      298.63337      438.53495      0.40101743     18421.214      0.00036434548  36434.548    
     33500   469.64039      419.75282      49.887572      309.49093      896.87598      0.40101743     18421.214      0.00037157726  37157.726    
     33750   469.49716      403.65011      65.847058      297.61812      873.19756      0.40101743     18421.214      0.00036814895  36814.895    
     34000   509.46335      438.40403      71.059319      323.24278      558.15489      0.40101743     18421.214      0.0003586954   35869.54     
     34250   450.88155      398.87187      52.009678      294.09505      893.90773      0.40101743     18421.214      0.00035231734  35231.734    
     34500   470.38651      415.70925      54.677263      306.50953      1235.9207      0.40101743     18421.214      0.00035916333  35916.333    
     34750   454.79179      404.95076      49.841025      298.57712      957.50345      0.40101743     18421.214      0.00035956705  35956.705    
     35000   492.04657      429.94002      62.106548      317.00213      302.73018      0.40101743     18421.214      0.00037771448  37771.448    
     35250   470.55231      416.56743      53.984881      307.14229      614.7225       0.40101743     18421.214      0.00037393282  37393.282    
     35500   480.28653      428.42367      51.862857      315.8841       830.8261       0.40101743     18421.214      0.00035338993  35338.993    
     35750   486.95077      430.33151      56.619258      317.29078      531.77631      0.40101743     18421.214      0.00038817311  38817.311    
     36000   467.56235      402.35318      65.209172      296.66187      114.23298      0.40101743     18421.214      0.00037473631  37473.631    
     36250   428.04647      376.42088      51.625588      277.54155      1065.9211      0.40101743     18421.214      0.00037146562  37146.562    
     36500   455.9642       401.52204      54.442151      296.04907      1032.7501      0.40101743     18421.214      0.00039042872  39042.872    
     36750   448.18487      390.01398      58.170891      287.56398      852.06534      0.40101743     18421.214      0.00038399481  38399.481    
     37000   470.15242      411.61152      58.540901      303.48821      808.55313      0.40101743     18421.214      0.00039067696  39067.696    
     37250   487.20099      430.46835      56.732643      317.39167      737.97215      0.40101743     18421.214      0.00037748049  37748.049    
     37500   479.44407      427.47462      51.969456      315.18434      714.59017      0.40101743     18421.214      0.0003893066   38930.66     
     37750   487.67446      430.78227      56.892189      317.62313      1191.568       0.40101743     18421.214      0.00035485379  35485.379    
     38000   467.25833      408.32684      58.931497      301.06636      836.85592      0.40101743     18421.214      0.00037824757  37824.757    
     38250   456.3812       407.09248      49.288721      300.15624      958.79915      0.40101743     18421.214      0.00035274609  35274.609    
     38500   471.75034      407.07716      64.673179      300.14495      1205.4729      0.40101743     18421.214      0.00037768944  37768.944    
     38750   459.47019      407.95338      51.516806      300.791        357.15889      0.40101743     18421.214      0.00036932855  36932.855    
     39000   453.40906      404.98206      48.427         298.6002       1077.79        0.40101743     18421.214      0.00035614568  35614.568    
     39250   466.08712      419.11988      46.967239      309.02425      863.62606      0.40101743     18421.214      0.00038738714  38738.714    
     39500   475.29634      411.13304      64.163298      303.13542      764.03358      0.40101743     18421.214      0.00037224827  37224.827    
     39750   472.94127      412.73584      60.205427      304.31719      1207.3697      0.40101743     18421.214      0.00035734443  35734.443    
     40000   457.59083      397.51651      60.074322      293.09572      1131.2836      0.40101743     18421.214      0.00038227584  38227.584    
     40250   460.007        408.14722      51.859778      300.93392      1204.1052      0.40101743     18421.214      0.00037860409  37860.409    
     40500   495.07154      433.13634      61.935201      319.35883      1292.748       0.40101743     18421.214      0.00035986181  35986.181    
     40750   469.42296      409.37559      60.047372      301.83962      738.16488      0.40101743     18421.214      0.00040278971  40278.971    
     41000   459.12777      407.2796       51.848174      300.29421      679.12226      0.40101743     18421.214      0.00035297241  35297.241    
     41250   472.25859      416.47197      55.786613      307.0719       689.31708      0.40101743     18421.214      0.00035852305  35852.305    
     41500   452.24276      391.54203      60.700728      288.69063      805.03856      0.40101743     18421.214      0.00036646031  36646.031    
     41750   433.37419      380.50465      52.869542      280.55258      1096.4571      0.40101743     18421.214      0.00033881756  33881.756    
     42000   462.23731      401.79665      60.440659      296.25154      1084.7611      0.40101743     18421.214      0.00035801569  35801.569    
     42250   456.25287      401.09135      55.161527      295.73151      1119.2593      0.40101743     18421.214      0.00037359639  37359.639    
     42500   482.02784      422.20794      59.819903      311.30113      781.92945      0.40101743     18421.214      0.00035705759  35705.759    
     42750   494.85988      428.58423      66.275651      316.00248      1325.8957      0.40101743     18421.214      0.0003819911   38199.11     
     43000   483.76381      419.39044      64.373365      309.22374      1038.1451      0.40101743     18421.214      0.00040245211  40245.211    
     43250   451.89117      386.89287      64.998304      285.26272      739.4423       0.40101743     18421.214      0.00037693737  37693.737    
     43500   466.67767      415.87284      50.804834      306.63015      703.25594      0.40101743     18421.214      0.00036348944  36348.944    
     43750   433.4452       383.16167      50.283524      282.51165      1103.2938      0.40101743     18421.214      0.00040222283  40222.283    
     44000   445.31513      393.8766       51.438531      290.41195      973.34697      0.40101743     18421.214      0.00038444228  38444.228    
     44250   470.25295      415.07312      55.179823      306.04051      627.95656      0.40101743     18421.214      0.00037511815  37511.815    
     44500   471.35066      414.57983      56.770834      305.67679      1204.2236      0.40101743     18421.214      0.00036624289  36624.289    
     44750   479.30175      405.95983      73.341914      299.32112      1014.3235      0.40101743     18421.214      0.0003610934   36109.34     
     45000   482.09472      417.2404       64.854313      307.63848      771.44629      0.40101743     18421.214      0.00037883661  37883.661    
     45250   457.01346      399.00374      58.009716      294.19228      885.33919      0.40101743     18421.214      0.00037206097  37206.097    
     45500   479.49202      422.26862      57.223394      311.34587      682.26216      0.40101743     18421.214      0.00038717833  38717.833    
     45750   475.4386       423.88987      51.548736      312.54124      485.78485      0.40101743     18421.214      0.00034879332  34879.332    
     46000   457.96559      406.75585      51.209739      299.90804      796.74847      0.40101743     18421.214      0.00037139067  37139.067    
     46250   451.11214      399.07328      52.038867      294.24355      1296.0103      0.40101743     18421.214      0.00037094789  37094.789    
     46500   456.26004      400.82504      55.434996      295.53515      804.13724      0.40101743     18421.214      0.00034800251  34800.251    
     46750   484.83878      423.44547      61.393306      312.21359      739.0772       0.40101743     18421.214      0.00032355637  32355.637    
     47000   452.71791      397.91028      54.807633      293.38605      1375.7358      0.40101743     18421.214      0.0004128281   41282.81     
     47250   484.7493       423.14379      61.605509      311.99115      1114.0265      0.40101743     18421.214      0.00038913287  38913.287    
     47500   468.97997      415.91453      53.06544       306.66089      800.0316       0.40101743     18421.214      0.00039685175  39685.175    
     47750   476.52748      414.42469      62.102791      305.56241      1051.905       0.40101743     18421.214      0.00034580707  34580.707    
     48000   470.18287      409.4092       60.773672      301.8644       900.62266      0.40101743     18421.214      0.00039905516  39905.516    
     48250   463.47836      406.58771      56.890653      299.78407      842.53325      0.40101743     18421.214      0.00036043092  36043.092    
     48500   448.3639       383.88311      64.480791      283.04358      1013.0527      0.40101743     18421.214      0.00034992233  34992.233    
     48750   472.88437      420.07755      52.80682       309.73036      1166.5579      0.40101743     18421.214      0.00035373844  35373.844    
     49000   478.18598      422.06394      56.122039      311.19496      1025.9119      0.40101743     18421.214      0.00037835567  37835.567    
     49250   442.12201      387.17192      54.950089      285.46847      1089.5494      0.40101743     18421.214      0.00034882538  34882.538    
     49500   456.93046      401.37993      55.550523      295.94428      685.57653      0.40101743     18421.214      0.0003535074   35350.74     
     49750   478.07282      413.37544      64.697386      304.78877      193.34441      0.40101743     18421.214      0.00035337796  35337.796    
     50000   451.13695      404.6923       46.444651      298.38655      1019.0897      0.40101743     18421.214      0.00037427729  37427.729    
     50250   469.13607      410.61509      58.520984      302.75352      333.651        0.40101743     18421.214      0.0003802054   38020.54     
     50500   481.19463      414.30159      66.893039      305.47164      595.84983      0.40101743     18421.214      0.00034988589  34988.589    
     50750   458.09739      401.38388      56.713514      295.94719      709.40177      0.40101743     18421.214      0.00036341953  36341.953    
     51000   466.65063      403.55346      63.097171      297.54686      869.04425      0.40101743     18421.214      0.00034278117  34278.117    
     51250   433.71915      383.99084      49.728309      283.12301      980.46541      0.40101743     18421.214      0.00036360815  36360.815    
     51500   465.16003      408.47365      56.686384      301.1746       956.03347      0.40101743     18421.214      0.00034564539  34564.539    
     51750   476.69813      422.10354      54.59459       311.22415      1000.2057      0.40101743     18421.214      0.00034952546  34952.546    
     52000   484.96223      421.37572      63.586508      310.68752      673.49436      0.40101743     18421.214      0.00038723754  38723.754    
     52250   473.26869      414.14892      59.119771      305.35908      1220.0417      0.40101743     18421.214      0.00034719552  34719.552    
     52500   470.31256      415.83332      54.47924       306.60102      791.25423      0.40101743     18421.214      0.000358053    35805.3      
     52750   473.00383      404.60795      68.395878      298.32436      937.9787       0.40101743     18421.214      0.00038240844  38240.844    
     53000   496.26631      437.52796      58.738356      322.59684      395.29089      0.40101743     18421.214      0.00036994665  36994.665    
     53250   463.10657      399.28676      63.819807      294.40095      776.81494      0.40101743     18421.214      0.00037224398  37224.398    
     53500   456.98799      399.12959      57.8584        294.28507      1373.7673      0.40101743     18421.214      0.00037273964  37273.964    
     53750   481.83539      421.29489      60.540504      310.62792      521.07898      0.40101743     18421.214      0.00032862951  32862.951    
     54000   438.3443       380.00089      58.34341       280.18115      978.56359      0.40101743     18421.214      0.00037362421  37362.421    
     54250   444.70212      385.88135      58.820767      284.51692      960.92234      0.40101743     18421.214      0.00038369683  38369.683    
     54500   432.26015      385.71634      46.543806      284.39525      648.77618      0.40101743     18421.214      0.00037435635  37435.635    
     54750   450.01884      402.69169      47.327147      296.91146      850.31942      0.40101743     18421.214      0.00037937938  37937.938    
     55000   470.89764      420.84645      50.051183      310.29728      391.95157      0.40101743     18421.214      0.00035789328  35789.328    
     55250   483.90499      424.55557      59.349426      313.03208      775.03744      0.40101743     18421.214      0.00037210274  37210.274    
     55500   462.75491      399.22377      63.531141      294.35451      847.55708      0.40101743     18421.214      0.00036436465  36436.465    
     55750   466.26466      419.47255      46.792109      309.28428      1096.1414      0.40101743     18421.214      0.00038324105  38324.105    
     56000   446.22351      396.52511      49.698404      292.36474      825.45905      0.40101743     18421.214      0.0003671528   36715.28     
     56250   475.00151      422.00836      52.993143      311.15398      1147.1855      0.40101743     18421.214      0.00035549853  35549.853    
     56500   464.82087      409.92709      54.893777      302.24625      611.83114      0.40101743     18421.214      0.00035133747  35133.747    
     56750   482.16945      423.86023      58.30922       312.51939      419.61939      0.40101743     18421.214      0.00038148138  38148.138    
     57000   478.61921      419.44012      59.179092      309.26037      1052.9081      0.40101743     18421.214      0.00032768445  32768.445    
     57250   488.34144      430.77849      57.562953      317.62034      718.92176      0.40101743     18421.214      0.00036736793  36736.793    
     57500   492.69317      440.23739      52.455779      324.59455      1178.5117      0.40101743     18421.214      0.00035585292  35585.292    
     57750   467.61539      418.61351      49.001878      308.6509       484.42778      0.40101743     18421.214      0.00040788838  40788.838    
     58000   475.16632      424.17003      50.996289      312.74781      760.52453      0.40101743     18421.214      0.00035928748  35928.748    
     58250   460.28547      411.94282      48.342647      303.73249      488.29063      0.40101743     18421.214      0.00039139756  39139.756    
     58500   462.94844      406.04946      56.89898       299.38721      824.47448      0.40101743     18421.214      0.0003622337   36223.37     
     58750   454.10455      396.47282      57.631726      292.32619      880.73329      0.40101743     18421.214      0.00035745765  35745.765    
     59000   475.84687      419.13504      56.711829      309.03543      524.6797       0.40101743     18421.214      0.00032972942  32972.942    
     59250   472.84476      413.01069      59.834073      304.51984      1076.9964      0.40101743     18421.214      0.00037625641  37625.641    
     59500   472.44294      408.36883      64.074118      301.09732      963.59036      0.40101743     18421.214      0.00038208909  38208.909    
     59750   470.71376      407.68428      63.029482      300.59259      993.17871      0.40101743     18421.214      0.00035758809  35758.809    
     60000   450.66089      392.15514      58.50575       289.14269      1160.6097      0.40101743     18421.214      0.00035955948  35955.948    
     60250   474.20581      414.35185      59.85396       305.5087       832.92791      0.40101743     18421.214      0.00034978129  34978.129    
     60500   479.00592      427.68818      51.317734      315.34181      681.28042      0.40101743     18421.214      0.00035919072  35919.072    
     60750   445.55984      396.23604      49.323803      292.1516       816.42049      0.40101743     18421.214      0.00039895373  39895.373    
     61000   478.82265      427.39489      51.427758      315.12556      780.53884      0.40101743     18421.214      0.00038912521  38912.521    
     61250   441.59628      383.81034      57.785942      282.98992      752.36249      0.40101743     18421.214      0.00040265711  40265.711    
     61500   474.86849      412.44385      62.424636      304.1019       875.88055      0.40101743     18421.214      0.00038080841  38080.841    
     61750   479.64675      425.91093      53.735817      314.03141      1007.5593      0.40101743     18421.214      0.00040880702  40880.702    
     62000   469.18474      417.33035      51.854391      307.7048       1372.1235      0.40101743     18421.214      0.00035537766  35537.766    
     62250   493.43707      444.23714      49.199933      327.54363      1362.0303      0.40101743     18421.214      0.00037769268  37769.268    
     62500   441.29095      389.78383      51.507124      287.39428      887.97537      0.40101743     18421.214      0.00038407926  38407.926    
     62750   475.23679      426.69278      48.544012      314.60788      810.26985      0.40101743     18421.214      0.00040766003  40766.003    
     63000   492.45449      434.06186      58.39263       320.04123      306.11856      0.40101743     18421.214      0.00036417647  36417.647    
     63250   472.58789      417.69344      54.894445      307.97251      902.08342      0.40101743     18421.214      0.00040365213  40365.213    
     63500   467.14923      413.49384      53.655391      304.87608      487.11796      0.40101743     18421.214      0.00035370203  35370.203    
     63750   458.45211      406.33455      52.11756       299.59741      592.52487      0.40101743     18421.214      0.0003489841   34898.41     
     64000   475.53646      421.95186      53.5846        311.11232      947.34079      0.40101743     18421.214      0.00031233368  31233.368    
     64250   491.71531      427.11817      64.597138      314.92153      1248.0442      0.40101743     18421.214      0.00039460784  39460.784    
     64500   453.85749      394.6139       59.243596      290.95557      512.79265      0.40101743     18421.214      0.00041331252  41331.252    
     64750   474.40654      416.50906      57.897478      307.09925      1649.527       0.40101743     18421.214      0.00035614345  35614.345    
     65000   465.02003      408.32496      56.695073      301.06497      579.74976      0.40101743     18421.214      0.00038459453  38459.453    
     65250   481.28863      417.28378      64.004847      307.67047      914.27994      0.40101743     18421.214      0.00035605468  35605.468    
     65500   449.01206      394.65704      54.355017      290.98738      435.17944      0.40101743     18421.214      0.000364294    36429.4      
     65750   439.96873      397.29569      42.673034      292.93291      609.29226      0.40101743     18421.214      0.00038093114  38093.114    
     66000   487.06539      429.49755      57.567834      316.67589      910.0127       0.40101743     18421.214      0.00037869057  37869.057    
     66250   473.09266      415.09497      57.997696      306.05661      738.89735      0.40101743     18421.214      0.00035750694  35750.694    
     66500   452.02344      395.11507      56.908366      291.3251       1323.6918      0.40101743     18421.214      0.00035345863  35345.863    
     66750   436.61667      381.50821      55.108463      281.29252      801.9313       0.40101743     18421.214      0.00036436757  36436.757    
     67000   444.16025      391.65148      52.508771      288.77133      726.17467      0.40101743     18421.214      0.00034826575  34826.575    
     67250   446.90973      398.0374       48.872323      293.47978      456.42963      0.40101743     18421.214      0.00036886462  36886.462    
     67500   502.19216      442.97974      59.21242       326.61653      795.94371      0.40101743     18421.214      0.00037500932  37500.932    
     67750   457.45149      404.71238      52.739114      298.40136      594.03605      0.40101743     18421.214      0.00033284876  33284.876    
     68000   451.03634      395.46042      55.575927      291.57972      996.80153      0.40101743     18421.214      0.00034888063  34888.063    
     68250   457.99446      404.16226      53.8322        297.99574      611.66641      0.40101743     18421.214      0.00034101072  34101.072    
     68500   454.76365      403.21266      51.550989      297.29559      1164.7391      0.40101743     18421.214      0.0003811272   38112.72     
     68750   436.81248      388.00374      48.808746      286.08179      939.25332      0.40101743     18421.214      0.00035993698  35993.698    
     69000   464.02769      409.35448      54.673209      301.82405      1096.6418      0.40101743     18421.214      0.00039090394  39090.394    
     69250   463.68511      404.2205       59.464611      298.03868      1029.0005      0.40101743     18421.214      0.00038362101  38362.101    
     69500   500.58715      430.99795      69.589197      317.78216      1112.9428      0.40101743     18421.214      0.00032003035  32003.035    
     69750   415.84532      368.6783       47.167025      271.83281      824.29986      0.40101743     18421.214      0.00037202861  37202.861    
     70000   461.32202      395.58582      65.736198      291.67219      1029.5736      0.40101743     18421.214      0.00035131058  35131.058    
     70250   459.57394      396.05557      63.518371      292.01854      686.45712      0.40101743     18421.214      0.00033482965  33482.965    
     70500   484.94681      420.73726      64.209554      310.21677      774.53594      0.40101743     18421.214      0.00036023461  36023.461    
     70750   426.18285      378.90497      47.277878      279.37311      786.80238      0.40101743     18421.214      0.00037748083  37748.083    
     71000   486.74672      428.16188      58.584844      315.69107      450.72992      0.40101743     18421.214      0.00034050075  34050.075    
     71250   444.82882      385.68507      59.143757      284.37219      679.62188      0.40101743     18421.214      0.00032299423  32299.423    
     71500   457.91051      400.11739      57.793127      295.01339      594.35345      0.40101743     18421.214      0.00036872492  36872.492    
     71750   471.33179      412.58923      58.742555      304.20909      1366.4621      0.40101743     18421.214      0.00038488749  38488.749    
     72000   449.54206      395.37487      54.16719       291.51665      708.24076      0.40101743     18421.214      0.00035953584  35953.584    
     72250   452.29806      390.3324       61.965655      287.79875      991.3466       0.40101743     18421.214      0.00037593772  37593.772    
     72500   463.91498      409.72571      54.189261      302.09777      1074.7124      0.40101743     18421.214      0.00034436699  34436.699    
     72750   461.79778      404.30387      57.493906      298.10016      1034.9368      0.40101743     18421.214      0.00036374642  36374.642    
     73000   482.15961      439.45335      42.70626       324.01647      1079.576       0.40101743     18421.214      0.00037781866  37781.866    
     73250   455.83657      390.94015      64.896422      288.24686      546.02628      0.40101743     18421.214      0.00039111003  39111.003    
     73500   473.03671      421.70893      51.32778       310.9332       963.68915      0.40101743     18421.214      0.00040913169  40913.169    
     73750   462.30949      408.78286      53.526635      301.40259      1188.3301      0.40101743     18421.214      0.00038024134  38024.134    
     74000   494.9803       435.34479      59.635509      320.98715      1046.0271      0.40101743     18421.214      0.00038694427  38694.427    
     74250   465.65788      414.01911      51.638776      305.26336      850.65812      0.40101743     18421.214      0.00036381426  36381.426    
     74500   469.11919      404.19482      64.924372      298.01975      337.70533      0.40101743     18421.214      0.0003544301   35443.01     
     74750   473.44682      412.32695      61.119863      304.01571      553.27798      0.40101743     18421.214      0.0003566822   35668.22     
     75000   456.94384      403.52015      53.423694      297.5223       1213.1537      0.40101743     18421.214      0.00035104895  35104.895    
     75250   483.03194      426.11698      56.914963      314.18333      1193.2474      0.40101743     18421.214      0.00035028041  35028.041    
     75500   448.70797      390.42373      58.284235      287.86609      689.73581      0.40101743     18421.214      0.0003581292   35812.92     
     75750   488.70172      433.51852      55.183192      319.64062      946.56983      0.40101743     18421.214      0.00035537519  35537.519    
     76000   466.04021      414.67446      51.365756      305.74656      1056.1041      0.40101743     18421.214      0.00037969257  37969.257    
     76250   469.84708      411.1582       58.688881      303.15397      772.58355      0.40101743     18421.214      0.00037329708  37329.708    
     76500   494.41721      432.63483      61.782378      318.98905      992.99925      0.40101743     18421.214      0.00035598752  35598.752    
     76750   467.11173      408.9733       58.138429      301.543        998.74231      0.40101743     18421.214      0.00035960519  35960.519    
     77000   491.88754      428.30929      63.578254      315.79976      1151.016       0.40101743     18421.214      0.00033145133  33145.133    
     77250   458.89246      406.38549      52.506979      299.63496      853.10184      0.40101743     18421.214      0.00035150009  35150.009    
     77500   436.37844      380.86539      55.513045      280.81856      761.52776      0.40101743     18421.214      0.00037257316  37257.316    
     77750   472.70667      410.39594      62.310735      302.59194      494.28064      0.40101743     18421.214      0.00034572923  34572.923    
     78000   481.23861      413.32612      67.912489      304.75242      682.44553      0.40101743     18421.214      0.00035372182  35372.182    
     78250   510.91459      448.78007      62.134518      330.89322      846.6003       0.40101743     18421.214      0.0003481904   34819.04     
     78500   441.70619      381.4628       60.243396      281.25904      801.71556      0.40101743     18421.214      0.00037059034  37059.034    
     78750   441.21775      386.54473      54.673018      285.00604      716.72913      0.40101743     18421.214      0.00036607054  36607.054    
     79000   449.15229      402.1584       46.993898      296.51826      889.42148      0.40101743     18421.214      0.0003411205   34112.05     
     79250   428.03202      378.3172       49.714812      278.93974      931.66526      0.40101743     18421.214      0.00035991626  35991.626    
     79500   456.79385      396.28906      60.50479       292.1907       762.87238      0.40101743     18421.214      0.00038011578  38011.578    
     79750   469.6874       410.85449      58.832911      302.93004      625.16009      0.40101743     18421.214      0.0003727937   37279.37     
     80000   463.44343      400.00238      63.441051      294.92859      695.76423      0.40101743     18421.214      0.00034626172  34626.172    
     80250   458.48863      409.27039      49.218238      301.76205      819.31792      0.40101743     18421.214      0.00040291326  40291.326    
     80500   453.6389       401.09227      52.546626      295.73219      391.158        0.40101743     18421.214      0.00038468745  38468.745    
     80750   485.07895      426.77926      58.299696      314.67164      781.65152      0.40101743     18421.214      0.0004098921   40989.21     
     81000   435.22158      374.60179      60.61979       276.2003       860.33512      0.40101743     18421.214      0.00040407066  40407.066    
     81250   493.3089       430.43994      62.868959      317.37073      1064.2986      0.40101743     18421.214      0.00032969675  32969.675    
     81500   477.89014      419.43636      58.453781      309.2576       1718.1354      0.40101743     18421.214      0.00035049128  35049.128    
     81750   441.46312      381.18605      60.277067      281.05499      724.03722      0.40101743     18421.214      0.00035915521  35915.521    
     82000   476.53142      416.0313       60.500113      306.74699      1192.3281      0.40101743     18421.214      0.00036055564  36055.564    
     82250   455.91756      402.92442      52.99314       297.08306      794.01036      0.40101743     18421.214      0.00034069871  34069.871    
     82500   470.87303      413.58549      57.287542      304.94365      1066.7099      0.40101743     18421.214      0.00032483358  32483.358    
     82750   466.49199      410.89636      55.595631      302.96091      863.28828      0.40101743     18421.214      0.00033016669  33016.669    
     83000   494.4131       437.16003      57.253075      322.32556      1280.6129      0.40101743     18421.214      0.0003847318   38473.18     
     83250   453.45299      399.82648      53.626514      294.7989       988.63422      0.40101743     18421.214      0.0003485899   34858.99     
     83500   475.96879      418.28135      57.687446      308.40599      1180.4643      0.40101743     18421.214      0.00036477357  36477.357    
     83750   461.68181      407.66345      54.018355      300.57723      480.91011      0.40101743     18421.214      0.00032567543  32567.543    
     84000   475.90889      414.94567      60.963216      305.94653      1340.6893      0.40101743     18421.214      0.00032544759  32544.759    
     84250   466.1565       405.69286      60.463636      299.12428      984.35265      0.40101743     18421.214      0.0003651675   36516.75     
     84500   459.87256      405.74887      54.123691      299.16558      997.35233      0.40101743     18421.214      0.0003480718   34807.18     
     84750   450.06115      395.56653      54.494625      291.65796      950.79615      0.40101743     18421.214      0.00036127716  36127.716    
     85000   432.37912      376.9296       55.449515      277.91664      489.95598      0.40101743     18421.214      0.00033992672  33992.672    
     85250   461.47705      398.05178      63.42527       293.49038      1006.3023      0.40101743     18421.214      0.00035428008  35428.008    
     85500   488.82588      427.45757      61.368304      315.17178      1139.4591      0.40101743     18421.214      0.00035425942  35425.942    
     85750   466.91516      417.55278      49.362378      307.8688       868.3918       0.40101743     18421.214      0.00037032796  37032.796    
     86000   435.16211      380.77035      54.391766      280.74848      1030.522       0.40101743     18421.214      0.00036832443  36832.443    
     86250   459.195        400.76484      58.430155      295.49077      589.16296      0.40101743     18421.214      0.0003270268   32702.68     
     86500   455.51966      396.72649      58.793161      292.51323      872.78574      0.40101743     18421.214      0.00038408875  38408.875    
     86750   472.71042      419.24228      53.468138      309.1145       1091.7037      0.40101743     18421.214      0.00036925197  36925.197    
     87000   458.28734      410.47809      47.809253      302.65251      697.96147      0.40101743     18421.214      0.00037392658  37392.658    
     87250   470.44716      408.10935      62.337813      300.906        598.09202      0.40101743     18421.214      0.00036981824  36981.824    
     87500   452.40339      395.3639       57.03949       291.50856      536.16665      0.40101743     18421.214      0.00037288172  37288.172    
     87750   461.52463      409.18248      52.342151      301.69723      718.71688      0.40101743     18421.214      0.00034326549  34326.549    
     88000   458.6335       402.6617       55.9718        296.88936      1266.678       0.40101743     18421.214      0.00037136702  37136.702    
     88250   453.15734      402.87509      50.282252      297.04669      338.25423      0.40101743     18421.214      0.00034627385  34627.385    
     88500   490.20425      428.94459      61.259662      316.26818      856.97304      0.40101743     18421.214      0.00040899276  40899.276    
     88750   444.94982      395.16126      49.788562      291.35915      804.95026      0.40101743     18421.214      0.00032896935  32896.935    
     89000   445.47502      379.55213      65.922883      279.85028      323.49198      0.40101743     18421.214      0.0003354161   33541.61     
     89250   474.94533      412.54493      62.400408      304.17642      821.89512      0.40101743     18421.214      0.00033825461  33825.461    
     89500   429.45788      376.99236      52.465523      277.96291      855.34847      0.40101743     18421.214      0.00035330852  35330.852    
     89750   491.91871      434.21271      57.705999      320.15246      1450.1373      0.40101743     18421.214      0.00033852084  33852.084    
     90000   444.8588       386.45253      58.406273      284.93805      1110.3063      0.40101743     18421.214      0.00032614407  32614.407    
     90250   488.90778      438.06982      50.837968      322.99636      1122.0324      0.40101743     18421.214      0.00032855805  32855.805    
     90500   458.58432      417.05838      41.525947      307.50427      719.47         0.40101743     18421.214      0.00039154858  39154.858    
     90750   459.42724      400.51519      58.912055      295.30669      626.85335      0.40101743     18421.214      0.00036265582  36265.582    
     91000   458.38656      400.98498      57.401588      295.65308      966.89823      0.40101743     18421.214      0.0003460111   34601.11     
     91250   475.0088       414.4991       60.509705      305.61727      860.19788      0.40101743     18421.214      0.00034400364  34400.364    
     91500   471.24342      418.11619      53.127229      308.28421      868.4254       0.40101743     18421.214      0.00036998982  36998.982    
     91750   465.2247       408.3725       56.852201      301.10002      941.90628      0.40101743     18421.214      0.0003829722   38297.22     
     92000   505.08107      431.53283      73.548234      318.17653      702.05307      0.40101743     18421.214      0.00035440461  35440.461    
     92250   477.84892      414.1849       63.664018      305.3856       149.6904       0.40101743     18421.214      0.00036537141  36537.141    
     92500   467.43084      406.89174      60.539097      300.00823      635.29692      0.40101743     18421.214      0.0003540038   35400.38     
     92750   474.82766      420.8402       53.987458      310.29267      616.11755      0.40101743     18421.214      0.00037354869  37354.869    
     93000   438.57662      383.09951      55.477104      282.46582      821.00901      0.40101743     18421.214      0.00036324965  36324.965    
     93250   425.94362      371.1951       54.748519      273.68849      719.643        0.40101743     18421.214      0.00036067652  36067.652    
     93500   471.14567      410.31684      60.828825      302.53362      570.27163      0.40101743     18421.214      0.00037425379  37425.379    
     93750   489.31909      432.66692      56.65217       319.01272      1205.7345      0.40101743     18421.214      0.00038042363  38042.363    
     94000   460.04245      406.69319      53.349265      299.86184      627.95403      0.40101743     18421.214      0.00035448047  35448.047    
     94250   496.09259      429.98002      66.112572      317.03162      942.91711      0.40101743     18421.214      0.00034293856  34293.856    
     94500   471.73237      415.30317      56.429204      306.21013      1099.7169      0.40101743     18421.214      0.00036600618  36600.618    
     94750   483.11706      421.40232      61.714743      310.70713      477.07366      0.40101743     18421.214      0.00037720198  37720.198    
     95000   472.11252      418.54595      53.566574      308.60108      394.91812      0.40101743     18421.214      0.0003803964   38039.64     
     95250   466.37655      403.9327       62.443843      297.82649      674.02929      0.40101743     18421.214      0.00036294075  36294.075    
     95500   469.92778      413.46474      56.463036      304.85462      1115.7007      0.40101743     18421.214      0.00038840385  38840.385    
     95750   466.5392       406.82711      59.712083      299.96058      1081.6874      0.40101743     18421.214      0.00036961116  36961.116    
     96000   457.33901      411.73563      45.603377      303.57972      716.21131      0.40101743     18421.214      0.00038640342  38640.342    
     96250   491.0582       436.43567      54.622527      321.79148      1236.0594      0.40101743     18421.214      0.00035401473  35401.473    
     96500   465.23937      412.5604       52.678974      304.18783      821.60254      0.40101743     18421.214      0.00036320699  36320.699    
     96750   442.95605      396.11626      46.839794      292.06329      965.45491      0.40101743     18421.214      0.000362197    36219.7      
     97000   477.12955      422.17077      54.958779      311.27372      1149.9827      0.40101743     18421.214      0.00036322137  36322.137    
     97250   456.79715      401.20715      55.590001      295.81689      893.95005      0.40101743     18421.214      0.00032697937  32697.937    
     97500   446.58461      394.54383      52.040783      290.90391      1059.9539      0.40101743     18421.214      0.00038657834  38657.834    
     97750   447.52325      387.34346      60.179798      285.59495      1033.0207      0.40101743     18421.214      0.00039631771  39631.771    
     98000   440.61433      379.82507      60.789263      280.05151      620.80483      0.40101743     18421.214      0.00036004295  36004.295    
     98250   481.28468      421.01456      60.27012       310.42123      821.54049      0.40101743     18421.214      0.00034537601  34537.601    
     98500   516.88142      457.2299       59.65152       337.12342      701.11369      0.40101743     18421.214      0.00039117496  39117.496    
     98750   455.47947      395.2241       60.25537       291.40548      970.82292      0.40101743     18421.214      0.00037084091  37084.091    
     99000   495.55712      432.80851      62.748605      319.11711      899.82988      0.40101743     18421.214      0.00038041626  38041.626    
     99250   477.54257      420.27683      57.265743      309.87729      717.82537      0.40101743     18421.214      0.00034523251  34523.251    
     99500   474.21204      423.15955      51.052491      312.00277      508.89179      0.40101743     18421.214      0.0003707057   37070.57     
     99750   474.67059      418.79049      55.880095      308.78139      731.15103      0.40101743     18421.214      0.00033479376  33479.376    
    100000   473.64801      423.91012      49.73789       312.55618      392.37802      0.40101743     18421.214      0.00036140364  36140.364    
    100250   454.52839      398.33936      56.18903       293.70242      917.60976      0.40101743     18421.214      0.00037248763  37248.763    
    100500   461.23501      404.97037      56.264639      298.59157      847.1393       0.40101743     18421.214      0.00038776322  38776.322    
    100750   459.14341      397.30783      61.835577      292.94185      506.45629      0.40101743     18421.214      0.00036297828  36297.828    
    101000   466.90319      411.55956      55.343628      303.4499       1118.4612      0.40101743     18421.214      0.00038786847  38786.847    
    101250   480.01212      422.406        57.606119      311.44717      992.91766      0.40101743     18421.214      0.00035690407  35690.407    
    101500   492.78507      432.70281      60.08226       319.03918      804.29792      0.40101743     18421.214      0.00035992173  35992.173    
    101750   473.98475      407.6746       66.310151      300.58545      751.70026      0.40101743     18421.214      0.00034606876  34606.876    
    102000   453.64815      391.19586      62.452281      288.4354       931.73844      0.40101743     18421.214      0.00038273488  38273.488    
    102250   460.11542      401.17625      58.939163      295.79411      1261.949       0.40101743     18421.214      0.00036662116  36662.116    
    102500   483.74778      434.17266      49.57512       320.12292      857.66054      0.40101743     18421.214      0.00037655936  37655.936    
    102750   470.27537      415.27         55.005373      306.18567      533.58347      0.40101743     18421.214      0.00036817459  36817.459    
    103000   498.56884      444.34679      54.222042      327.62449      1209.4793      0.40101743     18421.214      0.00036688128  36688.128    
    103250   449.55296      400.61238      48.940585      295.37835      642.54838      0.40101743     18421.214      0.0003546414   35464.14     
    103500   465.80531      408.42359      57.38172       301.13769      845.88273      0.40101743     18421.214      0.0003566102   35661.02     
    103750   463.16567      405.27788      57.887792      298.81831      407.35681      0.40101743     18421.214      0.00034723536  34723.536    
    104000   458.32815      398.04873      60.279413      293.48813      1073.766       0.40101743     18421.214      0.00039339697  39339.697    
    104250   467.95078      416.12242      51.828366      306.81417      861.44085      0.40101743     18421.214      0.00035517686  35517.686    
    104500   474.8129       409.71905      65.093851      302.09286      790.23501      0.40101743     18421.214      0.00037252708  37252.708    
    104750   459.85223      401.8022       58.050035      296.25563      1154.3304      0.40101743     18421.214      0.00034521993  34521.993    
    105000   469.13845      410.32529      58.813159      302.53985      1189.7974      0.40101743     18421.214      0.00036670793  36670.793    
    105250   455.86705      391.30378      64.563263      288.51497      1093.6825      0.40101743     18421.214      0.00034645968  34645.968    
    105500   475.3892       412.90926      62.47994       304.44505      833.69749      0.40101743     18421.214      0.00036311582  36311.582    
    105750   473.29932      420.85336      52.445957      310.30238      687.04235      0.40101743     18421.214      0.00034588889  34588.889    
    106000   446.30294      388.36573      57.937216      286.34869      674.61868      0.40101743     18421.214      0.00036454361  36454.361    
    106250   472.7965       418.73161      54.064899      308.73797      481.54894      0.40101743     18421.214      0.00037074842  37074.842    
    106500   462.69886      407.63002      55.068848      300.55258      823.28361      0.40101743     18421.214      0.00038589772  38589.772    
    106750   487.97969      440.55465      47.425037      324.82848      872.58103      0.40101743     18421.214      0.00036581512  36581.512    
    107000   461.49889      406.81639      54.682503      299.95268      1216.857       0.40101743     18421.214      0.00037769917  37769.917    
    107250   472.72151      418.89805      53.823462      308.86069      728.39102      0.40101743     18421.214      0.00035621221  35621.221    
    107500   449.35107      394.50208      54.848984      290.87313      1387.4195      0.40101743     18421.214      0.00036058561  36058.561    
    107750   449.18316      392.09999      57.083173      289.10203      861.69595      0.40101743     18421.214      0.00036009264  36009.264    
    108000   475.02348      421.34021      53.683265      310.66134      625.2129       0.40101743     18421.214      0.00036963221  36963.221    
    108250   466.62929      405.59938      61.029906      299.05536      1252.711       0.40101743     18421.214      0.00033481671  33481.671    
    108500   466.61889      404.10517      62.513726      297.95365      884.00614      0.40101743     18421.214      0.00040985992  40985.992    
    108750   462.68817      410.25912      52.429053      302.49106      828.49831      0.40101743     18421.214      0.00034847678  34847.678    
    109000   505.72863      450.4564       55.272231      332.1292       1052.492       0.40101743     18421.214      0.00037512494  37512.494    
    109250   472.98787      424.06922      48.918647      312.67349      335.27554      0.40101743     18421.214      0.0003752575   37525.75     
    109500   495.13123      437.21975      57.911481      322.36959      1051.0278      0.40101743     18421.214      0.00037961728  37961.728    
    109750   475.84141      416.63302      59.20839       307.19065      1139.0335      0.40101743     18421.214      0.00038987558  38987.558    
    110000   429.62836      385.11738      44.510971      283.95363      676.79404      0.40101743     18421.214      0.00038637011  38637.011    
    110250   471.24962      417.23082      54.018801      307.63142      822.72761      0.40101743     18421.214      0.00035947894  35947.894    
    110500   467.9636       417.76312      50.200481      308.02389      630.14764      0.40101743     18421.214      0.00036666174  36666.174    
    110750   476.76382      419.43337      57.330446      309.25539      1258.1177      0.40101743     18421.214      0.00035898605  35898.605    
    111000   463.61659      404.13219      59.484397      297.97357      966.08896      0.40101743     18421.214      0.00033258555  33258.555    
    111250   471.6536       412.81672      58.836879      304.37682      1026.6545      0.40101743     18421.214      0.00038095443  38095.443    
    111500   460.09894      394.3351       65.763843      290.75001      918.22117      0.40101743     18421.214      0.00038119003  38119.003    
    111750   455.99442      401.10088      54.893546      295.73853      1170.8094      0.40101743     18421.214      0.00037432808  37432.808    
    112000   425.03276      380.55774      44.47502       280.59173      749.80532      0.40101743     18421.214      0.00031475443  31475.443    
    112250   491.94516      428.25909      63.686067      315.76275      566.20634      0.40101743     18421.214      0.00036206837  36206.837    
    112500   485.96047      439.08698      46.873496      323.74633      1084.9156      0.40101743     18421.214      0.0003648488   36484.88     
    112750   446.87237      393.39731      53.475067      290.05856      887.7532       0.40101743     18421.214      0.00035384658  35384.658    
    113000   455.77026      402.05352      53.716737      296.44093      624.54444      0.40101743     18421.214      0.00034687446  34687.446    
    113250   471.87997      424.64182      47.238153      313.09567      714.55968      0.40101743     18421.214      0.00037191567  37191.567    
    113500   448.51957      387.07903      61.44054       285.39998      360.06425      0.40101743     18421.214      0.00036508764  36508.764    
    113750   453.43157      400.80097      52.630598      295.5174       739.58022      0.40101743     18421.214      0.00037192992  37192.992    
    114000   471.38435      410.28948      61.094865      302.51345      953.35561      0.40101743     18421.214      0.00038078499  38078.499    
    114250   486.98109      420.02862      66.952473      309.69428      1216.0048      0.40101743     18421.214      0.00034842557  34842.557    
    114500   456.46877      400.20588      56.262892      295.07864      551.58174      0.40101743     18421.214      0.00036291046  36291.046    
    114750   482.31101      426.75124      55.559768      314.65098      976.01523      0.40101743     18421.214      0.00038364712  38364.712    
    115000   466.67312      406.60863      60.064486      299.79949      728.33707      0.40101743     18421.214      0.00035407197  35407.197    
    115250   505.27992      439.01201      66.267905      323.69106      1030.9529      0.40101743     18421.214      0.00035638926  35638.926    
    115500   469.25104      412.78102      56.470011      304.3505       1045.3787      0.40101743     18421.214      0.00035471464  35471.464    
    115750   451.32844      387.72648      63.601964      285.87736      956.77151      0.40101743     18421.214      0.00035439673  35439.673    
    116000   469.47047      411.52118      57.949299      303.4216       1076.2776      0.40101743     18421.214      0.00035295129  35295.129    
    116250   456.84534      397.94627      58.899065      293.41259      1107.8481      0.40101743     18421.214      0.00039061057  39061.057    
    116500   452.45969      402.39963      50.060056      296.69613      1344.048       0.40101743     18421.214      0.00035382702  35382.702    
    116750   483.66076      422.32521      61.33555       311.38759      397.98277      0.40101743     18421.214      0.00036278837  36278.837    
    117000   488.78294      424.70535      64.077597      313.14251      780.42967      0.40101743     18421.214      0.0004071732   40717.32     
    117250   470.06796      411.95274      58.11522       303.7398       1082.298       0.40101743     18421.214      0.00035123534  35123.534    
    117500   463.91555      413.1886       50.726952      304.65102      584.20021      0.40101743     18421.214      0.00037716153  37716.153    
    117750   454.84796      401.25416      53.593798      295.85155      577.98397      0.40101743     18421.214      0.00034757793  34757.793    
    118000   454.96221      398.68717      56.27504       293.95887      534.85343      0.40101743     18421.214      0.00035028681  35028.681    
    118250   447.70398      392.86534      54.838638      289.66633      795.37238      0.40101743     18421.214      0.00036617723  36617.723    
    118500   470.25897      414.94519      55.313779      305.94618      944.29139      0.40101743     18421.214      0.00033439004  33439.004    
    118750   469.26261      415.83833      53.424274      306.60471      1307.0617      0.40101743     18421.214      0.00036255762  36255.762    
    119000   465.35385      407.03316      58.320691      300.11251      968.33498      0.40101743     18421.214      0.00039585671  39585.671    
    119250   491.34842      428.3947       62.953722      315.86273      502.89532      0.40101743     18421.214      0.00037989166  37989.166    
    119500   475.64134      427.27858      48.362755      315.0398       1440.4633      0.40101743     18421.214      0.00034864146  34864.146    
    119750   463.20463      402.44899      60.755644      296.73252      693.85959      0.40101743     18421.214      0.00040082042  40082.042    
    120000   458.41193      392.15276      66.259167      289.14093      915.45208      0.40101743     18421.214      0.00036392346  36392.346    
    120250   478.91492      411.67479      67.240132      303.53486      1006.347       0.40101743     18421.214      0.00032709589  32709.589    
    120500   431.56494      382.71714      48.8478        282.18389      1226.7879      0.40101743     18421.214      0.0003607546   36075.46     
    120750   461.35066      404.12789      57.222771      297.9704       563.97026      0.40101743     18421.214      0.00040520721  40520.721    
    121000   432.1051       377.1132       54.991902      278.05201      900.37458      0.40101743     18421.214      0.00035330865  35330.865    
    121250   458.1496       405.06615      53.083448      298.66219      460.21016      0.40101743     18421.214      0.00032024214  32024.214    
    121500   487.40898      435.57229      51.836693      321.15489      1353.2288      0.40101743     18421.214      0.00034134548  34134.548    
    121750   468.93193      418.7949       50.137022      308.78464      1028.8339      0.40101743     18421.214      0.00036691975  36691.975    
    122000   495.68777      431.56628      64.121492      318.20119      962.80515      0.40101743     18421.214      0.0003357863   33578.63     
    122250   479.59416      419.92513      59.669028      309.61798      1027.3482      0.40101743     18421.214      0.00033739523  33739.523    
    122500   475.28606      412.13548      63.150577      303.87453      898.3594       0.40101743     18421.214      0.00038577372  38577.372    
    122750   469.02646      407.13301      61.893454      300.18612      776.77492      0.40101743     18421.214      0.00035420573  35420.573    
    123000   436.47264      379.48676      56.985873      279.80208      992.15329      0.40101743     18421.214      0.00042367567  42367.567    
    123250   445.66679      390.40997      55.25682       287.85594      873.91818      0.40101743     18421.214      0.00037713971  37713.971    
    123500   459.67635      407.93425      51.742097      300.7769       1169.1326      0.40101743     18421.214      0.00035961367  35961.367    
    123750   453.55337      398.91911      54.634261      294.12988      474.81892      0.40101743     18421.214      0.00036612094  36612.094    
    124000   467.75329      406.49048      61.262819      299.71238      1117.1781      0.40101743     18421.214      0.00035360851  35360.851    
    124250   468.54834      416.01435      52.533997      306.73449      669.65874      0.40101743     18421.214      0.00036725129  36725.129    
    124500   472.89084      418.78557      54.105273      308.77776      393.5918       0.40101743     18421.214      0.0003408244   34082.44     
    124750   441.72219      383.74899      57.973192      282.94469      275.58766      0.40101743     18421.214      0.00034462589  34462.589    
    125000   458.40883      409.03218      49.376647      301.58642      709.92325      0.40101743     18421.214      0.00035375454  35375.454    
    125250   455.46298      402.59602      52.866959      296.84092      953.31708      0.40101743     18421.214      0.00038133376  38133.376    
    125500   473.77042      414.38559      59.384826      305.53358      597.13594      0.40101743     18421.214      0.0003725402   37254.02     
    125750   467.30693      409.25984      58.047081      301.75428      722.97227      0.40101743     18421.214      0.00040390817  40390.817    
    126000   473.61817      421.74387      51.874301      310.95896      1477.1725      0.40101743     18421.214      0.00036734062  36734.062    
    126250   459.89795      406.6049       53.293051      299.79674      981.09217      0.40101743     18421.214      0.00033886705  33886.705    
    126500   454.17184      397.88057      56.291269      293.36414      529.13864      0.40101743     18421.214      0.00037706783  37706.783    
    126750   443.82618      394.44839      49.377792      290.83354      883.59105      0.40101743     18421.214      0.00035636856  35636.856    
    127000   454.10166      398.73228      55.369376      293.99213      547.28094      0.40101743     18421.214      0.00035881109  35881.109    
    127250   486.35038      422.92991      63.420464      311.83345      1101.8105      0.40101743     18421.214      0.00037516558  37516.558    
    127500   486.04154      421.42128      64.620259      310.72111      1094.334       0.40101743     18421.214      0.00034557444  34557.444    
    127750   453.89538      385.99114      67.904242      284.59786      745.19367      0.40101743     18421.214      0.00040057507  40057.507    
    128000   456.55961      408.95309      47.606513      301.52811      434.94192      0.40101743     18421.214      0.00037018664  37018.664    
    128250   454.46757      402.61252      51.855054      296.85309      890.10369      0.40101743     18421.214      0.00037264275  37264.275    
    128500   477.68353      427.36262      50.320911      315.10176      930.75237      0.40101743     18421.214      0.00035004731  35004.731    
    128750   474.8193       424.42487      50.394427      312.93571      797.78196      0.40101743     18421.214      0.00035509233  35509.233    
    129000   488.41291      422.05235      66.360558      311.18641      1019.7283      0.40101743     18421.214      0.0003424474   34244.74     
    129250   447.76423      396.68729      51.076946      292.48432      1130.9929      0.40101743     18421.214      0.00038032408  38032.408    
    129500   464.651        403.89219      60.758811      297.79662      785.32204      0.40101743     18421.214      0.0003725368   37253.68     
    129750   458.31972      412.97074      45.348975      304.49039      996.20657      0.40101743     18421.214      0.0003617969   36179.69     
    130000   453.21656      398.98646      54.230095      294.17954      865.65725      0.40101743     18421.214      0.00036974371  36974.371    
    130250   459.11537      393.43461      65.680763      290.08606      1167.6791      0.40101743     18421.214      0.00033318829  33318.829    
    130500   461.90552      408.29778      53.607746      301.04493      964.49479      0.40101743     18421.214      0.00034350659  34350.659    
    130750   467.69142      409.93257      57.758857      302.25029      611.05968      0.40101743     18421.214      0.00034452096  34452.096    
    131000   474.66589      416.21383      58.452052      306.88157      925.16164      0.40101743     18421.214      0.00035730129  35730.129    
    131250   471.39785      411.14782      60.250027      303.14631      544.20359      0.40101743     18421.214      0.00033356497  33356.497    
    131500   462.95949      413.61076      49.348731      304.96228      1110.8827      0.40101743     18421.214      0.00037210104  37210.104    
    131750   498.3537       434.17235      64.181343      320.1227       765.34728      0.40101743     18421.214      0.00035641507  35641.507    
    132000   477.3828       421.30803      56.074778      310.63761      1248.4613      0.40101743     18421.214      0.00035141564  35141.564    
    132250   468.86164      411.60875      57.252889      303.48617      705.09319      0.40101743     18421.214      0.00036426797  36426.797    
    132500   454.37102      397.31108      57.059944      292.94425      833.92427      0.40101743     18421.214      0.00039227207  39227.207    
    132750   490.30143      433.00606      57.295375      319.26277      563.71668      0.40101743     18421.214      0.00037530836  37530.836    
    133000   464.15787      412.18895      51.968922      303.91396      1146.9071      0.40101743     18421.214      0.00035910886  35910.886    
    133250   446.71331      393.64404      53.069274      290.24048      588.44874      0.40101743     18421.214      0.00037947545  37947.545    
    133500   441.20958      391.46563      49.743957      288.6343       1056.5494      0.40101743     18421.214      0.00036620503  36620.503    
    133750   453.96476      399.67129      54.293477      294.68447      787.41795      0.40101743     18421.214      0.00033729803  33729.803    
    134000   450.86501      394.16306      56.701954      290.62316      1167.4457      0.40101743     18421.214      0.0003586806   35868.06     
    134250   457.38274      408.39162      48.991119      301.11412      1017.4206      0.40101743     18421.214      0.00035882405  35882.405    
    134500   489.82264      432.42483      57.397809      318.83422      991.73229      0.40101743     18421.214      0.00036941026  36941.026    
    134750   445.22163      395.9605       49.26113       291.94844      888.91815      0.40101743     18421.214      0.00040086179  40086.179    
    135000   441.15005      383.38274      57.767312      282.67465      471.73205      0.40101743     18421.214      0.00035847902  35847.902    
    135250   444.94861      395.86469      49.083917      291.8778       607.86692      0.40101743     18421.214      0.00033490733  33490.733    
    135500   499.33421      440.38982      58.944392      324.70694      851.67261      0.40101743     18421.214      0.00036277105  36277.105    
    135750   450.6934       400.93033      49.763077      295.61278      834.31576      0.40101743     18421.214      0.00037656     37656        
    136000   491.05655      423.02867      68.027873      311.90627      979.91343      0.40101743     18421.214      0.000352904    35290.4      
    136250   483.71002      426.52827      57.181752      314.48658      339.58706      0.40101743     18421.214      0.00039366345  39366.345    
    136500   465.34833      403.54979      61.79854       297.54415      941.61817      0.40101743     18421.214      0.00035831829  35831.829    
    136750   487.9696       421.84199      66.12761       311.03131      10.436697      0.40101743     18421.214      0.00036698218  36698.218    
    137000   485.16598      428.25615      56.909826      315.76058      973.91376      0.40101743     18421.214      0.00033245516  33245.516    
    137250   464.47451      411.06944      53.405062      303.08853      1147.8325      0.40101743     18421.214      0.00038334188  38334.188    
    137500   482.90425      431.47878      51.425477      318.13668      914.41429      0.40101743     18421.214      0.00038654195  38654.195    
    137750   448.24686      399.96064      48.286213      294.89782      1099.7853      0.40101743     18421.214      0.00038280978  38280.978    
    138000   492.76178      437.20709      55.554696      322.36026      1020.8434      0.40101743     18421.214      0.00038130918  38130.918    
    138250   470.79095      410.41848      60.372467      302.60856      974.71145      0.40101743     18421.214      0.00031455653  31455.653    
    138500   460.39583      394.07208      66.323749      290.55608      281.53671      0.40101743     18421.214      0.00037086413  37086.413    
    138750   478.05881      409.54116      68.517648      301.9617       364.35164      0.40101743     18421.214      0.00032669221  32669.221    
    139000   447.50142      389.79038      57.71104       287.39911      1034.9112      0.40101743     18421.214      0.00035603583  35603.583    
    139250   467.75775      408.75627      59.001481      301.38298      637.85797      0.40101743     18421.214      0.00038180607  38180.607    
    139500   475.96832      423.06595      52.902375      311.93375      764.26306      0.40101743     18421.214      0.00035033014  35033.014    
    139750   448.18976      396.98996      51.19979       292.70749      305.02905      0.40101743     18421.214      0.000371859    37185.9      
    140000   476.253        419.83866      56.414337      309.55422      1265.0745      0.40101743     18421.214      0.00035934029  35934.029    
    140250   479.43807      427.74372      51.694347      315.38276      440.8534       0.40101743     18421.214      0.00035864445  35864.445    
    140500   490.197        430.07965      60.117351      317.10508      449.94432      0.40101743     18421.214      0.00038327908  38327.908    
    140750   471.17794      418.01776      53.160174      308.21164      979.49081      0.40101743     18421.214      0.00037148529  37148.529    
    141000   481.71843      418.4911       63.227332      308.56064      874.07641      0.40101743     18421.214      0.00037092458  37092.458    
    141250   445.80768      391.53105      54.276629      288.68254      1122.9259      0.40101743     18421.214      0.0003654075   36540.75     
    141500   463.71082      407.55448      56.156339      300.49689      897.72292      0.40101743     18421.214      0.00032984011  32984.011    
    141750   494.18356      421.22085      72.962716      310.57333      486.87633      0.40101743     18421.214      0.00037743009  37743.009    
    142000   473.69868      422.80798      50.890693      311.74355      1020.4911      0.40101743     18421.214      0.00037127394  37127.394    
    142250   475.75491      424.29467      51.460242      312.83971      888.10818      0.40101743     18421.214      0.00036872563  36872.563    
    142500   463.13938      396.49169      66.647692      292.3401       1186.2801      0.40101743     18421.214      0.00040320113  40320.113    
    142750   473.96262      414.25822      59.704396      305.43967      599.35126      0.40101743     18421.214      0.00037955279  37955.279    
    143000   481.842        427.28846      54.553542      315.04709      1459.9342      0.40101743     18421.214      0.00041574968  41574.968    
    143250   470.29777      410.32179      59.975985      302.53727      1050.7911      0.40101743     18421.214      0.00038524271  38524.271    
    143500   473.58167      422.04743      51.534242      311.18279      1254.6439      0.40101743     18421.214      0.00036497067  36497.067    
    143750   436.99728      385.36494      51.632338      284.13616      637.45093      0.40101743     18421.214      0.000358471    35847.1      
    144000   456.04335      399.09728      56.946065      294.26125      1497.5152      0.40101743     18421.214      0.00035893121  35893.121    
    144250   496.50887      441.78299      54.725878      325.73415      1092.0957      0.40101743     18421.214      0.00037638991  37638.991    
    144500   467.43449      404.8549       62.579586      298.50644      747.35912      0.40101743     18421.214      0.00035892177  35892.177    
    144750   448.69764      392.48776      56.209884      289.38793      988.83745      0.40101743     18421.214      0.00032441694  32441.694    
    145000   463.47932      403.20096      60.278355      297.28696      593.12754      0.40101743     18421.214      0.0003699085   36990.85     
    145250   498.44279      431.22497      67.217822      317.94954      826.67619      0.40101743     18421.214      0.00036587327  36587.327    
    145500   469.00309      397.34315      71.659947      292.96789      539.70981      0.40101743     18421.214      0.00037900023  37900.023    
    145750   469.38701      415.03542      54.351596      306.01271      905.98706      0.40101743     18421.214      0.00035967422  35967.422    
    146000   483.22492      425.38883      57.836089      313.64645      848.86184      0.40101743     18421.214      0.00038222737  38222.737    
    146250   488.28362      436.65108      51.632547      321.9503       1124.3266      0.40101743     18421.214      0.00034454987  34454.987    
    146500   451.73017      392.46139      59.26878       289.36849      1002.4352      0.40101743     18421.214      0.00037437664  37437.664    
    146750   496.59579      434.67147      61.924319      320.4907       962.0376       0.40101743     18421.214      0.00037441222  37441.222    
    147000   461.00167      404.52758      56.474094      298.2651       957.85628      0.40101743     18421.214      0.00036760694  36760.694    
    147250   443.88744      391.2646       52.622839      288.48608      919.59287      0.40101743     18421.214      0.0003767365   37673.65     
    147500   430.35148      377.75053      52.600953      278.52192      761.03287      0.40101743     18421.214      0.00032802851  32802.851    
    147750   463.26252      408.45086      54.811657      301.1578       840.65051      0.40101743     18421.214      0.00035858192  35858.192    
    148000   482.35562      421.58244      60.773178      310.83994      500.43878      0.40101743     18421.214      0.0003366479   33664.79     
    148250   494.59434      425.88698      68.707356      314.01375      894.33713      0.40101743     18421.214      0.0003733864   37338.64     
    148500   448.39301      391.30016      57.092847      288.5123       674.29018      0.40101743     18421.214      0.00036419732  36419.732    
    148750   481.05377      423.47368      57.580086      312.23438      575.31286      0.40101743     18421.214      0.00038605384  38605.384    
    149000   481.50869      430.02343      51.485264      317.06362      794.33498      0.40101743     18421.214      0.00034446165  34446.165    
    149250   451.55772      394.09022      57.467503      290.56945      257.29665      0.40101743     18421.214      0.0003591104   35911.04     
    149500   464.96036      412.58435      52.376012      304.2055       504.14826      0.40101743     18421.214      0.00039161094  39161.094    
    149750   463.30583      407.7588       55.547033      300.64753      1445.0799      0.40101743     18421.214      0.00035570119  35570.119    
    150000   496.13976      434.99508      61.144684      320.7293       1085.4058      0.40101743     18421.214      0.00036037038  36037.038    
    150250   481.71344      420.51344      61.199998      310.05175      785.29612      0.40101743     18421.214      0.00033050199  33050.199    
    150500   468.93827      413.17491      55.763365      304.64092      926.64034      0.40101743     18421.214      0.00035938869  35938.869    
    150750   479.81604      430.34183      49.474217      317.29838      713.83515      0.40101743     18421.214      0.00036284862  36284.862    
    151000   436.99685      377.82811      59.168739      278.57912      1213.7372      0.40101743     18421.214      0.00032955944  32955.944    
    151250   478.2836       427.1018       51.181798      314.90946      815.50787      0.40101743     18421.214      0.00035072618  35072.618    
    151500   494.87592      430.30573      64.570186      317.27177      953.7111       0.40101743     18421.214      0.00035258095  35258.095    
    151750   480.89223      424.84754      56.044696      313.24735      745.0571       0.40101743     18421.214      0.00037957615  37957.615    
    152000   484.75078      439.50965      45.241139      324.05797      924.58648      0.40101743     18421.214      0.00039870449  39870.449    
    152250   482.15322      426.48304      55.670182      314.45324      973.46915      0.40101743     18421.214      0.00037031086  37031.086    
    152500   457.93263      401.88124      56.051382      296.31391      623.37363      0.40101743     18421.214      0.00037423253  37423.253    
    152750   457.33611      401.69649      55.639618      296.17769      796.7911       0.40101743     18421.214      0.00035432669  35432.669    
    153000   501.49109      438.04468      63.446403      322.97783      647.09307      0.40101743     18421.214      0.00037752629  37752.629    
    153250   441.23805      386.31586      54.922187      284.83729      510.92108      0.40101743     18421.214      0.00035067103  35067.103    
    153500   455.35856      403.11389      52.244676      297.22276      505.06849      0.40101743     18421.214      0.00037216634  37216.634    
    153750   464.53326      408.73671      55.796543      301.36856      794.32738      0.40101743     18421.214      0.00037602052  37602.052    
    154000   456.46342      403.42998      53.033443      297.45582      179.50173      0.40101743     18421.214      0.0003513353   35133.53     
    154250   462.06678      400.90578      61.160995      295.59469      743.05991      0.40101743     18421.214      0.0003433315   34333.15     
    154500   484.03181      431.6979       52.333905      318.29824      998.34152      0.40101743     18421.214      0.00035974542  35974.542    
    154750   465.57774      398.28832      67.28942       293.66479      579.43227      0.40101743     18421.214      0.00036635026  36635.026    
    155000   459.9455       400.66014      59.285354      295.41357      481.65716      0.40101743     18421.214      0.0003394115   33941.15     
    155250   474.43609      424.82899      49.607099      313.23368      783.38298      0.40101743     18421.214      0.00036307367  36307.367    
    155500   466.26361      412.07862      54.184986      303.83261      960.69136      0.40101743     18421.214      0.00034989974  34989.974    
    155750   478.49184      426.57642      51.915418      314.52208      1065.9063      0.40101743     18421.214      0.00037615928  37615.928    
    156000   445.42092      395.54288      49.878044      291.64053      558.15277      0.40101743     18421.214      0.00037327708  37327.708    
    156250   479.52147      424.70212      54.81935       313.14013      398.18836      0.40101743     18421.214      0.00035335259  35335.259    
    156500   468.64337      414.07258      54.57079       305.30279      926.50351      0.40101743     18421.214      0.00034824625  34824.625    
    156750   485.08872      426.74477      58.34395       314.64621      539.34701      0.40101743     18421.214      0.00032932517  32932.517    
    157000   453.64132      393.45992      60.181403      290.10472      687.46899      0.40101743     18421.214      0.00035341972  35341.972    
    157250   439.17439      387.68984      51.484547      285.85035      236.14711      0.40101743     18421.214      0.00036633982  36633.982    
    157500   449.54329      398.86593      50.677362      294.09067      668.51295      0.40101743     18421.214      0.00036265262  36265.262    
    157750   478.97321      407.76407      71.209136      300.65142      628.48926      0.40101743     18421.214      0.00034507551  34507.551    
    158000   460.20433      400.91973      59.284593      295.60497      905.21621      0.40101743     18421.214      0.00031777752  31777.752    
    158250   471.89119      407.37353      64.517659      300.36347      812.30714      0.40101743     18421.214      0.00036095138  36095.138    
    158500   468.6798       419.59562      49.08418       309.37502      982.80913      0.40101743     18421.214      0.00037006757  37006.757    
    158750   475.99473      425.27283      50.7219        313.56093      935.09037      0.40101743     18421.214      0.0003568822   35688.22     
    159000   448.8519       401.00642      47.84548       295.66889      615.43572      0.40101743     18421.214      0.00034603562  34603.562    
    159250   445.77485      388.42306      57.351796      286.39096      563.79259      0.40101743     18421.214      0.00036110281  36110.281    
    159500   476.34852      416.56432      59.784201      307.13999      830.73007      0.40101743     18421.214      0.00034439501  34439.501    
    159750   476.66472      414.67598      61.98874       305.74769      852.21523      0.40101743     18421.214      0.00037448031  37448.031    
    160000   495.15807      426.83866      68.319417      314.71544      909.80399      0.40101743     18421.214      0.00037512777  37512.777    
    160250   450.40612      395.9554       54.450719      291.94468      812.3623       0.40101743     18421.214      0.00032699064  32699.064    
    160500   468.29163      407.51074      60.780889      300.46464      902.257        0.40101743     18421.214      0.00034880884  34880.884    
    160750   473.21409      415.51047      57.703614      306.36297      1148.3024      0.40101743     18421.214      0.00037601158  37601.158    
    161000   509.92881      445.53306      64.395748      328.49914      494.29673      0.40101743     18421.214      0.00035229686  35229.686    
    161250   432.94466      378.08012      54.864539      278.76494      1032.1857      0.40101743     18421.214      0.0003574053   35740.53     
    161500   459.0626       407.44475      51.617847      300.41598      1023.4798      0.40101743     18421.214      0.00035801573  35801.573    
    161750   481.6391       428.98342      52.655675      316.29681      866.54917      0.40101743     18421.214      0.00036916853  36916.853    
    162000   467.826        413.87726      53.948733      305.15878      1158.8765      0.40101743     18421.214      0.00037484561  37484.561    
    162250   443.64975      384.82974      58.820013      283.74155      614.07465      0.40101743     18421.214      0.00032715897  32715.897    
    162500   449.14284      395.04936      54.093475      291.27665      1172.7703      0.40101743     18421.214      0.00037354532  37354.532    
    162750   483.70322      413.99575      69.707466      305.24615      398.44107      0.40101743     18421.214      0.00034467266  34467.266    
    163000   465.22959      407.66536      57.564228      300.57864      502.47347      0.40101743     18421.214      0.00037969753  37969.753    
    163250   467.5476       415.51099      52.03661       306.36335      1171.536       0.40101743     18421.214      0.00034184476  34184.476    
    163500   467.71006      416.08594      51.62412       306.78728      858.21892      0.40101743     18421.214      0.00036512748  36512.748    
    163750   481.35592      419.69034      61.665582      309.44486      1200.6051      0.40101743     18421.214      0.0003599309   35993.09     
    164000   481.8211       422.62684      59.194265      311.60999      1419.4915      0.40101743     18421.214      0.0003687723   36877.23     
    164250   484.17512      432.27734      51.897783      318.72547      1189.7751      0.40101743     18421.214      0.00035631511  35631.511    
    164500   480.55798      420.09807      60.459914      309.74549      405.44606      0.40101743     18421.214      0.00036311832  36311.832    
    164750   482.11155      425.15343      56.958119      313.47289      596.98135      0.40101743     18421.214      0.00039260203  39260.203    
    165000   483.87473      425.94897      57.925759      314.05945      848.0662       0.40101743     18421.214      0.00036388926  36388.926    
    165250   449.22863      386.38412      62.844505      284.88762      821.62057      0.40101743     18421.214      0.00033833626  33833.626    
    165500   459.72872      402.30668      57.422043      296.62759      496.89109      0.40101743     18421.214      0.0003482048   34820.48     
    165750   488.67572      440.52061      48.155112      324.80337      1346.3784      0.40101743     18421.214      0.00033961371  33961.371    
    166000   447.73054      394.65682      53.07372       290.98722      595.55557      0.40101743     18421.214      0.00034202112  34202.112    
    166250   450.28971      389.7979       60.491808      287.40465      977.76323      0.40101743     18421.214      0.00034999202  34999.202    
    166500   469.91072      412.17007      57.740658      303.90003      746.278        0.40101743     18421.214      0.000398187    39818.7      
    166750   482.03381      423.80999      58.223817      312.48235      942.59685      0.40101743     18421.214      0.00036347206  36347.206    
    167000   443.50412      387.17415      56.329971      285.47012      706.01708      0.40101743     18421.214      0.00033802719  33802.719    
    167250   500.80769      442.37304      58.434654      326.1692       1030.9265      0.40101743     18421.214      0.00034587206  34587.206    
    167500   477.02651      426.35523      50.671275      314.359        1183.6274      0.40101743     18421.214      0.00036942719  36942.719    
    167750   478.27263      416.30616      61.966476      306.94964      470.72295      0.40101743     18421.214      0.00037280736  37280.736    
    168000   446.7735       387.13663      59.636867      285.44246      796.13149      0.40101743     18421.214      0.00036737051  36737.051    
    168250   443.22854      386.03088      57.197666      284.62716      968.57739      0.40101743     18421.214      0.00034674968  34674.968    
    168500   445.59887      390.15852      55.440355      287.67054      1168.1763      0.40101743     18421.214      0.00034122405  34122.405    
    168750   474.56413      411.77397      62.790161      303.60799      378.38349      0.40101743     18421.214      0.0003640536   36405.36     
    169000   468.92554      415.89632      53.029215      306.64747      1438.7741      0.40101743     18421.214      0.00038404422  38404.422    
    169250   433.26184      376.52398      56.737856      277.61757      708.77387      0.40101743     18421.214      0.0003784074   37840.74     
    169500   480.60374      428.84935      51.754385      316.19796      1063.1826      0.40101743     18421.214      0.00036184323  36184.323    
    169750   447.31328      388.689        58.624277      286.58704      633.06675      0.40101743     18421.214      0.00035804166  35804.166    
    170000   439.53689      380.70727      58.829623      280.70197      940.44411      0.40101743     18421.214      0.00036535123  36535.123    
    170250   477.13855      419.14862      57.989934      309.04544      1222.3826      0.40101743     18421.214      0.00039087548  39087.548    
    170500   468.56096      406.39077      62.170194      299.63886      741.57435      0.40101743     18421.214      0.00034058566  34058.566    
    170750   476.8875       415.60207      61.285435      306.43051      573.22578      0.40101743     18421.214      0.00035052192  35052.192    
    171000   480.18538      419.68401      60.501369      309.44019      385.30695      0.40101743     18421.214      0.00035118081  35118.081    
    171250   472.90152      414.81449      58.08703       305.84982      951.24593      0.40101743     18421.214      0.00035972862  35972.862    
    171500   481.85229      422.30719      59.545098      311.37431      354.50707      0.40101743     18421.214      0.00034833624  34833.624    
    171750   472.5579       425.0141       47.543798      313.37016      704.19554      0.40101743     18421.214      0.00036345507  36345.507    
    172000   472.60131      420.95906      51.642249      310.38031      735.41069      0.40101743     18421.214      0.00039456212  39456.212    
    172250   456.60261      404.62223      51.980379      298.33489      887.3779       0.40101743     18421.214      0.00036854941  36854.941    
    172500   473.90332      411.27216      62.63116       303.23799      936.13978      0.40101743     18421.214      0.00039771563  39771.563    
    172750   484.46995      424.95805      59.511895      313.32884      1201.3354      0.40101743     18421.214      0.00035325168  35325.168    
    173000   463.14647      399.4082       63.738265      294.4905       1188.7081      0.40101743     18421.214      0.00034651956  34651.956    
    173250   473.8642       415.59086      58.273334      306.42225      883.39974      0.40101743     18421.214      0.00034878646  34878.646    
    173500   465.41875      412.90294      52.515802      304.4404       942.00849      0.40101743     18421.214      0.00036128558  36128.558    
    173750   463.34593      403.34928      59.996648      297.39632      592.61708      0.40101743     18421.214      0.00034824935  34824.935    
    174000   456.38016      399.04066      57.339505      294.2195       1206.1534      0.40101743     18421.214      0.00039365494  39365.494    
    174250   447.06559      390.58005      56.485538      287.98135      789.6947       0.40101743     18421.214      0.00034961563  34961.563    
    174500   449.44967      398.69239      50.75728       293.96271      912.20277      0.40101743     18421.214      0.00036322784  36322.784    
    174750   461.13737      400.46891      60.668457      295.27257      613.11876      0.40101743     18421.214      0.00034428679  34428.679    
    175000   473.31331      430.763        42.550312      317.60892      923.45944      0.40101743     18421.214      0.00037238049  37238.049    
    175250   469.33023      417.67254      51.657689      307.95711      508.53766      0.40101743     18421.214      0.00035457248  35457.248    
    175500   469.92428      418.03151      51.892763      308.22178      1384.6451      0.40101743     18421.214      0.00034338905  34338.905    
    175750   450.9415       397.75045      53.191052      293.26821      696.014        0.40101743     18421.214      0.00039080834  39080.834    
    176000   467.09598      408.60004      58.495937      301.26779      996.82762      0.40101743     18421.214      0.00037035351  37035.351    
    176250   464.66201      407.00571      57.656292      300.09227      1077.118       0.40101743     18421.214      0.00037431855  37431.855    
    176500   476.9533       421.39155      55.561747      310.6992       1267.1497      0.40101743     18421.214      0.00037221366  37221.366    
    176750   460.14887      403.25364      56.895232      297.3258       1047.3885      0.40101743     18421.214      0.0004122687   41226.87     
    177000   439.86685      379.9861       59.880757      280.17024      852.04837      0.40101743     18421.214      0.00034797048  34797.048    
    177250   452.1298       399.5716       52.558197      294.61097      985.38647      0.40101743     18421.214      0.00035449004  35449.004    
    177500   459.24599      394.30401      64.941971      290.72709      592.54897      0.40101743     18421.214      0.00034997843  34997.843    
    177750   481.49116      428.95742      52.53374       316.27763      1031.6753      0.40101743     18421.214      0.00037220705  37220.705    
    178000   447.90111      403.45884      44.442268      297.4771       1203.3293      0.40101743     18421.214      0.00035920527  35920.527    
    178250   459.64352      413.16101      46.482507      304.63067      1123.9469      0.40101743     18421.214      0.00033952998  33952.998    
    178500   450.01289      390.57204      59.440857      287.97544      653.84331      0.40101743     18421.214      0.00037090069  37090.069    
    178750   452.93854      401.49472      51.443814      296.02892      814.19353      0.40101743     18421.214      0.00034284184  34284.184    
    179000   460.98518      401.92866      59.056512      296.34887      701.15129      0.40101743     18421.214      0.00041007559  41007.559    
    179250   468.62013      415.19348      53.426654      306.12925      1014.1317      0.40101743     18421.214      0.00035948189  35948.189    
    179500   485.24513      432.39098      52.85415       318.80926      1182.6913      0.40101743     18421.214      0.00035537771  35537.771    
    179750   465.42355      412.17504      53.24852       303.9037       755.57759      0.40101743     18421.214      0.00037266556  37266.556    
    180000   476.31962      415.99441      60.325217      306.71979      1503.3917      0.40101743     18421.214      0.00038300664  38300.664    
    180250   484.72347      414.93469      69.788781      305.93844      122.22686      0.40101743     18421.214      0.00034663188  34663.188    
    180500   491.73694      430.48839      61.248552      317.40645      1474.5454      0.40101743     18421.214      0.00035501754  35501.754    
    180750   480.71025      420.84407      59.866176      310.29553      868.91666      0.40101743     18421.214      0.00036166008  36166.008    
    181000   438.54082      376.22437      62.316446      277.39666      762.89186      0.40101743     18421.214      0.00035144968  35144.968    
    181250   497.15293      441.23334      55.919589      325.32888      992.11413      0.40101743     18421.214      0.00036110958  36110.958    
    181500   443.57214      389.83572      53.736426      287.43254      1227.3068      0.40101743     18421.214      0.00033369343  33369.343    
    181750   489.65078      437.62372      52.027053      322.66745      762.41877      0.40101743     18421.214      0.00034325829  34325.829    
    182000   470.51378      418.36464      52.149134      308.4674       1585.5052      0.40101743     18421.214      0.00036104219  36104.219    
    182250   488.52177      422.00831      66.513453      311.15394      647.50247      0.40101743     18421.214      0.00035766154  35766.154    
    182500   453.23214      395.46643      57.765705      291.58416      504.21648      0.40101743     18421.214      0.00038111313  38111.313    
    182750   480.57175      423.81203      56.759727      312.48385      1286.1674      0.40101743     18421.214      0.00035871281  35871.281    
    183000   468.32537      405.64065      62.684725      299.08578      827.06912      0.40101743     18421.214      0.00035456133  35456.133    
    183250   484.25867      427.61408      56.64459       315.28717      966.70426      0.40101743     18421.214      0.00036674814  36674.814    
    183500   480.54894      425.46007      55.088874      313.69898      449.50549      0.40101743     18421.214      0.00033123308  33123.308    
    183750   477.48167      417.00954      60.472132      307.46826      556.28619      0.40101743     18421.214      0.0003376827   33768.27     
    184000   472.67604      408.29179      64.384249      301.04051      1203.3819      0.40101743     18421.214      0.00034639134  34639.134    
    184250   449.59177      402.72525      46.866518      296.93621      1007.2685      0.40101743     18421.214      0.00035277408  35277.408    
    184500   470.61772      419.86476      50.752958      309.57347      205.42801      0.40101743     18421.214      0.00034843298  34843.298    
    184750   477.16238      414.35034      62.812039      305.50759      678.52051      0.40101743     18421.214      0.0003802881   38028.81     
    185000   449.8101       392.401        57.409099      289.32396      938.80908      0.40101743     18421.214      0.00036935518  36935.518    
    185250   453.74693      406.65705      47.089879      299.83519      788.58628      0.40101743     18421.214      0.0003845061   38450.61     
    185500   474.79763      411.02229      63.775343      303.05376      1034.9065      0.40101743     18421.214      0.00036475927  36475.927    
    185750   475.34713      425.67855      49.668584      313.86007      718.99196      0.40101743     18421.214      0.00037770376  37770.376    
    186000   462.11515      405.95196      56.163193      299.31532      1085.5544      0.40101743     18421.214      0.00037824218  37824.218    
    186250   487.90964      435.34036      52.569274      320.98389      1272.4486      0.40101743     18421.214      0.00033911937  33911.937    
    186500   476.27705      417.77521      58.501836      308.03281      1354.5406      0.40101743     18421.214      0.000369434    36943.4      
    186750   475.38385      417.67672      57.707127      307.96019      513.67086      0.40101743     18421.214      0.00035626097  35626.097    
    187000   473.92111      421.1022       52.818911      310.48585      885.9518       0.40101743     18421.214      0.00036936451  36936.451    
    187250   469.3604       405.5046       63.855793      298.98547      810.85449      0.40101743     18421.214      0.00035251712  35251.712    
    187500   481.48965      427.23189      54.257761      315.00538      962.62119      0.40101743     18421.214      0.00035087295  35087.295    
    187750   466.88135      409.94464      56.936707      302.25919      756.09141      0.40101743     18421.214      0.00034577297  34577.297    
    188000   456.28252      401.4819       54.800626      296.01946      817.67326      0.40101743     18421.214      0.00039204402  39204.402    
    188250   470.96145      410.77897      60.182478      302.87436      847.37201      0.40101743     18421.214      0.00037409022  37409.022    
    188500   475.36447      417.46298      57.901484      307.80259      1366.481       0.40101743     18421.214      0.00033662159  33662.159    
    188750   465.61153      409.2492       56.362325      301.74643      1241.3242      0.40101743     18421.214      0.00037056343  37056.343    
    189000   456.3428       399.42995      56.912845      294.50653      594.45911      0.40101743     18421.214      0.00036411678  36411.678    
    189250   485.52632      426.94342      58.582901      314.79268      909.49752      0.40101743     18421.214      0.0003860741   38607.41     
    189500   469.10663      407.47279      61.633846      300.43665      1437.661       0.40101743     18421.214      0.00035649268  35649.268    
    189750   464.61883      408.01932      56.59951       300.83962      381.00746      0.40101743     18421.214      0.00035350909  35350.909    
    190000   480.63661      423.97581      56.660803      312.60461      1024.6758      0.40101743     18421.214      0.00035942363  35942.363    
    190250   477.45842      420.3739       57.084521      309.94886      850.07525      0.40101743     18421.214      0.0003589851   35898.51     
    190500   468.15634      406.96338      61.192958      300.06106      567.09916      0.40101743     18421.214      0.00032723707  32723.707    
    190750   483.15064      433.21358      49.937063      319.41577      1081.9505      0.40101743     18421.214      0.00037023021  37023.021    
    191000   512.33216      445.94308      66.389079      328.80145      754.52362      0.40101743     18421.214      0.00035926033  35926.033    
    191250   486.97742      426.00298      60.974444      314.09928      1049.3665      0.40101743     18421.214      0.00036427194  36427.194    
    191500   479.29113      430.59988      48.69125       317.48865      738.5821       0.40101743     18421.214      0.00039009663  39009.663    
    191750   471.49431      415.18105      56.313264      306.12008      1013.4473      0.40101743     18421.214      0.00037970075  37970.075    
    192000   459.29122      406.05897      53.232254      299.39422      550.05648      0.40101743     18421.214      0.00032635388  32635.388    
    192250   475.29938      422.84105      52.458336      311.76793      1472.8655      0.40101743     18421.214      0.00036881921  36881.921    
    192500   454.88303      391.86151      63.021518      288.92619      734.09367      0.40101743     18421.214      0.0003478691   34786.91     
    192750   477.50627      419.01968      58.486584      308.95037      722.63552      0.40101743     18421.214      0.00035264441  35264.441    
    193000   435.16679      384.98144      50.185344      283.8534       1170.1225      0.40101743     18421.214      0.00035917894  35917.894    
    193250   459.24849      404.90156      54.34693       298.54084      1247.1966      0.40101743     18421.214      0.000365312    36531.2      
    193500   449.88227      397.54236      52.339907      293.11478      812.1409       0.40101743     18421.214      0.00034305264  34305.264    
    193750   467.51963      415.67413      51.845499      306.48364      1052.7701      0.40101743     18421.214      0.00035136401  35136.401    
    194000   440.19344      380.56534      59.628096      280.59733      611.13629      0.40101743     18421.214      0.00039118988  39118.988    
    194250   452.68518      396.53321      56.151969      292.37071      989.00297      0.40101743     18421.214      0.00035408685  35408.685    
    194500   462.62855      408.91514      53.713407      301.50012      993.68089      0.40101743     18421.214      0.00036300873  36300.873    
    194750   469.93796      406.1364       63.801562      299.45131      528.57216      0.40101743     18421.214      0.00032037001  32037.001    
    195000   472.27214      413.54105      58.731091      304.91088      862.49961      0.40101743     18421.214      0.00037234406  37234.406    
    195250   469.37847      410.47867      58.899799      302.65294      662.60998      0.40101743     18421.214      0.00034448123  34448.123    
    195500   465.91474      408.50058      57.414158      301.19446      788.56785      0.40101743     18421.214      0.00039143129  39143.129    
    195750   461.86254      404.31796      57.54458       298.11055      1033.6087      0.40101743     18421.214      0.00032969312  32969.312    
    196000   479.92191      424.03165      55.890254      312.64579      741.13748      0.40101743     18421.214      0.0003509785   35097.85     
    196250   468.53057      418.05264      50.477934      308.23735      558.75639      0.40101743     18421.214      0.0003561328   35613.28     
    196500   466.68361      407.48493      59.198684      300.4456       930.3453       0.40101743     18421.214      0.00039840662  39840.662    
    196750   434.49611      390.26103      44.235078      287.74613      527.05176      0.40101743     18421.214      0.00037669565  37669.565    
    197000   492.33689      421.77198      70.564906      310.97969      1086.8324      0.40101743     18421.214      0.00038649025  38649.025    
    197250   469.29109      412.95527      56.335822      304.47898      702.88859      0.40101743     18421.214      0.00038670559  38670.559    
    197500   447.56387      396.13038      51.433495      292.0737       719.24867      0.40101743     18421.214      0.00036211503  36211.503    
    197750   463.99701      408.67833      55.318676      301.32552      1216.4488      0.40101743     18421.214      0.00037443841  37443.841    
    198000   464.95992      403.33666      61.62326       297.38701      1090.6916      0.40101743     18421.214      0.00034836929  34836.929    
    198250   444.42878      385.77776      58.651021      284.44054      653.82523      0.40101743     18421.214      0.0003919004   39190.04     
    198500   460.79896      403.94316      56.855809      297.83419      964.59188      0.40101743     18421.214      0.00033176854  33176.854    
    198750   483.94662      416.67769      67.26893       307.22358      512.62079      0.40101743     18421.214      0.00036049712  36049.712    
    199000   448.5225       397.84422      50.678275      293.33734      588.08473      0.40101743     18421.214      0.00034748791  34748.791    
    199250   471.74759      413.69134      58.056249      305.0217       725.93941      0.40101743     18421.214      0.000362334    36233.4      
    199500   457.50527      408.08167      49.423598      300.88559      1076.7502      0.40101743     18421.214      0.00037055555  37055.555    
    199750   469.02901      416.14941      52.879598      306.83408      748.74999      0.40101743     18421.214      0.00036127314  36127.314    
    200000   466.45663      415.17292      51.283717      306.11409      403.42891      0.40101743     18421.214      0.0004011401   40114.01     
    200250   476.97609      421.7032       55.272888      310.92898      1179.5798      0.40101743     18421.214      0.00034351352  34351.352    
    200500   484.59982      427.80595      56.793865      315.42864      370.7954       0.40101743     18421.214      0.00034790662  34790.662    
    200750   490.76471      430.7521       60.012612      317.60088      633.38058      0.40101743     18421.214      0.00034273512  34273.512    
    201000   464.41171      413.06027      51.351437      304.5564       1327.8334      0.40101743     18421.214      0.00037280171  37280.171    
    201250   476.91082      427.16293      49.747889      314.95453      1343.1829      0.40101743     18421.214      0.00035653668  35653.668    
    201500   441.76609      384.05093      57.715161      283.16732      1038.9408      0.40101743     18421.214      0.00039621883  39621.883    
    201750   468.19849      410.33054      57.867947      302.54372      1133.2167      0.40101743     18421.214      0.00038908123  38908.123    
    202000   467.73863      412.28889      55.449733      303.98765      482.69634      0.40101743     18421.214      0.00033438861  33438.861    
    202250   455.13964      385.63275      69.506893      284.33361      894.97851      0.40101743     18421.214      0.00034097585  34097.585    
    202500   466.95608      415.90197      51.054107      306.65163      959.6082       0.40101743     18421.214      0.00034903961  34903.961    
    202750   456.60091      401.22035      55.380564      295.82662      1257.9561      0.40101743     18421.214      0.00035152405  35152.405    
    203000   452.23062      406.09186      46.138759      299.41847      917.17363      0.40101743     18421.214      0.00036430408  36430.408    
    203250   436.46653      390.21068      46.255843      287.70901      551.1234       0.40101743     18421.214      0.0003831589   38315.89     
    203500   459.58818      396.47523      63.112954      292.32796      585.71927      0.40101743     18421.214      0.0003582903   35829.03     
    203750   472.5823       416.40421      56.178082      307.02194      1021.3201      0.40101743     18421.214      0.00035370986  35370.986    
    204000   486.95705      423.34125      63.615799      312.13674      948.06083      0.40101743     18421.214      0.00036750513  36750.513    
    204250   460.63416      389.75142      70.882742      287.37038      1111.37        0.40101743     18421.214      0.00039775269  39775.269    
    204500   479.93445      419.57407      60.360382      309.35913      817.66472      0.40101743     18421.214      0.00036232052  36232.052    
    204750   473.31542      405.50264      67.812773      298.98403      452.58572      0.40101743     18421.214      0.00034647297  34647.297    
    205000   461.32693      395.82703      65.499905      291.85003      303.27073      0.40101743     18421.214      0.00034321275  34321.275    
    205250   469.58101      404.48851      65.092501      298.23629      925.51377      0.40101743     18421.214      0.00035950066  35950.066    
    205500   446.43094      391.36448      55.06646       288.55972      1080.9628      0.40101743     18421.214      0.00033093819  33093.819    
    205750   435.97212      371.76622      64.205905      274.10959      875.34304      0.40101743     18421.214      0.00033951823  33951.823    
    206000   476.72704      425.88124      50.845797      314.00952      1091.4416      0.40101743     18421.214      0.00035636995  35636.995    
    206250   452.25431      388.67914      63.575173      286.57977      763.98119      0.40101743     18421.214      0.00036310441  36310.441    
    206500   454.0638       407.6194       46.444395      300.54475      1020.1051      0.40101743     18421.214      0.00034693937  34693.937    
    206750   453.36075      395.51836      57.842394      291.62245      379.09457      0.40101743     18421.214      0.00037156498  37156.498    
    207000   474.51413      414.28851      60.225612      305.462        729.38688      0.40101743     18421.214      0.0003729632   37296.32     
    207250   450.81646      394.62056      56.195903      290.96048      892.98561      0.40101743     18421.214      0.00035666159  35666.159    
    207500   445.59076      385.00417      60.58659       283.87016      905.88251      0.40101743     18421.214      0.00037942818  37942.818    
    207750   473.17651      423.28038      49.896132      312.09186      826.7949       0.40101743     18421.214      0.00038404018  38404.018    
    208000   444.10315      387.59419      56.508955      285.77982      883.64374      0.40101743     18421.214      0.00037327106  37327.106    
    208250   454.03238      406.67713      47.355247      299.85         613.43153      0.40101743     18421.214      0.00033934626  33934.626    
    208500   448.48367      393.75428      54.729389      290.32176      714.42356      0.40101743     18421.214      0.0003144103   31441.03     
    208750   447.11264      389.75981      57.352834      287.37657      860.9342       0.40101743     18421.214      0.00036846738  36846.738    
    209000   482.33273      420.2953       62.037427      309.89091      572.98554      0.40101743     18421.214      0.00038234575  38234.575    
    209250   464.91429      413.49638      51.417903      304.87795      865.57318      0.40101743     18421.214      0.00037757453  37757.453    
    209500   482.63225      419.64158      62.990673      309.40891      637.26092      0.40101743     18421.214      0.00038513597  38513.597    
    209750   458.12442      406.01859      52.105832      299.36444      820.56247      0.40101743     18421.214      0.00037023666  37023.666    
    210000   499.22572      441.96629      57.259431      325.8693       997.77507      0.40101743     18421.214      0.00034198586  34198.586    
    210250   494.5626       436.2961       58.266501      321.68857      757.52104      0.40101743     18421.214      0.00035708666  35708.666    
    210500   459.52874      402.80811      56.720624      296.99731      1062.3451      0.40101743     18421.214      0.00033774902  33774.902    
    210750   463.51693      410.70063      52.816301      302.81659      932.60759      0.40101743     18421.214      0.00036404734  36404.734    
    211000   478.04406      420.21509      57.828961      309.83177      449.66748      0.40101743     18421.214      0.00036417686  36417.686    
    211250   434.85977      383.56734      51.292432      282.81075      1414.0692      0.40101743     18421.214      0.00038882112  38882.112    
    211500   443.38271      395.67631      47.7064        291.73891      652.85906      0.40101743     18421.214      0.00034645167  34645.167    
    211750   473.98167      411.91318      62.068486      303.71063      729.03697      0.40101743     18421.214      0.0003655271   36552.71     
    212000   495.86987      441.71698      54.152888      325.68548      1130.521       0.40101743     18421.214      0.00033992716  33992.716    
    212250   499.95743      447.01087      52.946559      329.58875      1176.2471      0.40101743     18421.214      0.00037104168  37104.168    
    212500   464.50044      405.6238       58.876645      299.07336      1026.7227      0.40101743     18421.214      0.00039669452  39669.452    
    212750   467.741        416.3889       51.352104      307.01065      572.3012       0.40101743     18421.214      0.00038805373  38805.373    
    213000   486.5565       430.77567      55.780827      317.61827      1034.7396      0.40101743     18421.214      0.00035477799  35477.799    
    213250   450.63202      394.82264      55.809379      291.10948      1438.4043      0.40101743     18421.214      0.00042285418  42285.418    
    213500   463.34066      405.41456      57.926099      298.91909      740.50835      0.40101743     18421.214      0.00034755794  34755.794    
    213750   486.4329       423.77304      62.659865      312.4551       529.10512      0.40101743     18421.214      0.00032194427  32194.427    
    214000   473.69049      414.0027       59.687787      305.25127      536.60765      0.40101743     18421.214      0.00031701157  31701.157    
    214250   429.24802      373.11814      56.129875      275.10638      1020.5763      0.40101743     18421.214      0.00034561477  34561.477    
    214500   471.25171      420.00449      51.247219      309.67649      563.46614      0.40101743     18421.214      0.00035273048  35273.048    
    214750   428.51519      370.85147      57.663723      273.43512      726.36741      0.40101743     18421.214      0.00042142862  42142.862    
    215000   497.53107      437.4606       60.070471      322.54717      811.67319      0.40101743     18421.214      0.00035676954  35676.954    
    215250   456.00289      405.73318      50.269702      299.15401      704.35677      0.40101743     18421.214      0.00039414487  39414.487    
    215500   453.91749      407.66137      46.256114      300.5757       920.63988      0.40101743     18421.214      0.00038285947  38285.947    
    215750   493.68891      415.5827       78.106216      306.41623      1010.1785      0.40101743     18421.214      0.00038373522  38373.522    
    216000   476.05168      410.40271      65.648976      302.59693      226.94443      0.40101743     18421.214      0.0003451534   34515.34     
    216250   460.77311      399.44582      61.327295      294.51823      961.32309      0.40101743     18421.214      0.00036875064  36875.064    
    216500   456.86035      398.39593      58.464417      293.74413      759.21821      0.40101743     18421.214      0.00036233101  36233.101    
    216750   463.52611      408.54526      54.980845      301.22741      524.58755      0.40101743     18421.214      0.00037095432  37095.432    
    217000   481.12224      426.41525      54.706987      314.40326      1641.1855      0.40101743     18421.214      0.00037461359  37461.359    
    217250   451.75348      394.48383      57.269656      290.85967      568.29036      0.40101743     18421.214      0.00039327581  39327.581    
    217500   472.34044      416.71806      55.622383      307.25335      1050.8491      0.40101743     18421.214      0.00038551423  38551.423    
    217750   483.04451      416.50225      66.542268      307.09423      939.41991      0.40101743     18421.214      0.00038781686  38781.686    
    218000   477.32987      420.89988      56.429986      310.33668      622.79334      0.40101743     18421.214      0.00037406238  37406.238    
    218250   449.68003      395.94689      53.733145      291.93841      1060.0967      0.40101743     18421.214      0.00040265987  40265.987    
    218500   465.17041      404.41034      60.760075      298.17865      677.76135      0.40101743     18421.214      0.00037208353  37208.353    
    218750   461.91109      411.92894      49.982148      303.72225      1160.6726      0.40101743     18421.214      0.00038469087  38469.087    
    219000   430.07744      371.97624      58.101205      274.26444      779.63338      0.40101743     18421.214      0.00034376864  34376.864    
    219250   469.80803      412.68215      57.125888      304.2776       490.18812      0.40101743     18421.214      0.00035215312  35215.312    
    219500   460.27314      399.85438      60.418757      294.81947      535.4121       0.40101743     18421.214      0.00037843962  37843.962    
    219750   486.23058      423.91527      62.315308      312.55997      933.05912      0.40101743     18421.214      0.00034648418  34648.418    
    220000   454.23279      402.9221       51.310688      297.08135      639.23579      0.40101743     18421.214      0.00038986008  38986.008    
    220250   457.4327       407.00666      50.426048      300.09296      820.56629      0.40101743     18421.214      0.00034261196  34261.196    
    220500   434.35586      385.0617       49.294161      283.91257      623.64344      0.40101743     18421.214      0.00035693835  35693.835    
    220750   454.33638      400.68076      53.655612      295.42878      945.62638      0.40101743     18421.214      0.00038955343  38955.343    
    221000   488.65276      426.65771      61.995051      314.58203      1104.9529      0.40101743     18421.214      0.0003610202   36102.02     
    221250   450.54017      384.27628      66.263888      283.33347      598.93818      0.40101743     18421.214      0.00035071491  35071.491    
    221500   460.55732      405.38366      55.173652      298.8963       680.13267      0.40101743     18421.214      0.0003554653   35546.53     
    221750   462.36169      413.86197      48.499723      305.1475       818.27142      0.40101743     18421.214      0.00036094156  36094.156    
    222000   428.90205      372.86041      56.041647      274.91635      1582.3259      0.40101743     18421.214      0.00036428672  36428.672    
    222250   479.67701      424.59475      55.082265      313.06096      916.48942      0.40101743     18421.214      0.00037269791  37269.791    
    222500   448.3433       396.9657       51.377597      292.6896       1178.35        0.40101743     18421.214      0.00034439806  34439.806    
    222750   442.391        390.91966      51.471346      288.23175      677.21329      0.40101743     18421.214      0.00040869461  40869.461    
    223000   436.72854      377.49302      59.235526      278.33205      591.94477      0.40101743     18421.214      0.00035113396  35113.396    
    223250   447.16752      398.33073      48.836789      293.69605      607.93         0.40101743     18421.214      0.00029786045  29786.045    
    223500   462.63945      400.20843      62.431017      295.08052      1084.2997      0.40101743     18421.214      0.0003530473   35304.73     
    223750   495.49482      442.81692      52.677902      326.49648      1528.7553      0.40101743     18421.214      0.0003681426   36814.26     
    224000   470.05653      403.17944      66.877084      297.27109      998.15209      0.40101743     18421.214      0.00034646898  34646.898    
    224250   462.88255      400.30619      62.576361      295.15259      1110.4446      0.40101743     18421.214      0.00038299127  38299.127    
    224500   474.13588      420.50815      53.627738      310.04784      980.72528      0.40101743     18421.214      0.0003595199   35951.99     
    224750   498.73054      445.30399      53.426548      328.33024      775.50254      0.40101743     18421.214      0.00033166738  33166.738    
    225000   433.51987      382.29947      51.2204        281.87593      1396.6602      0.40101743     18421.214      0.00038553896  38553.896    
    225250   489.23085      427.96458      61.266264      315.5456       484.50837      0.40101743     18421.214      0.00035782229  35782.229    
    225500   465.46191      407.54661      57.915308      300.49108      819.08534      0.40101743     18421.214      0.0003852846   38528.46     
    225750   495.93195      427.2372       68.694752      315.00929      531.38683      0.40101743     18421.214      0.00035024683  35024.683    
    226000   453.31075      394.70812      58.602633      291.02504      1039.6807      0.40101743     18421.214      0.00036063908  36063.908    
    226250   454.8882       405.91129      48.976912      299.28533      795.04664      0.40101743     18421.214      0.00034386246  34386.246    
    226500   467.02076      418.21205      48.808708      308.35489      994.2707       0.40101743     18421.214      0.00037667336  37667.336    
    226750   459.57403      404.26227      55.311766      298.06948      1073.2703      0.40101743     18421.214      0.00036368294  36368.294    
    227000   480.95906      420.04994      60.909121      309.71         900.8584       0.40101743     18421.214      0.00037542603  37542.603    
    227250   469.40162      404.44128      64.960338      298.20147      292.65819      0.40101743     18421.214      0.00034113779  34113.779    
    227500   464.68706      412.04852      52.638541      303.81041      1340.7923      0.40101743     18421.214      0.00036240476  36240.476    
    227750   473.06605      420.95699      52.109058      310.37878      795.55927      0.40101743     18421.214      0.0003652109   36521.09     
    228000   476.69606      423.01475      53.681307      311.89601      1048.3725      0.40101743     18421.214      0.00034794487  34794.487    
    228250   458.13235      394.70068      63.431664      291.01956      468.19431      0.40101743     18421.214      0.00039607484  39607.484    
    228500   466.53552      418.47185      48.063676      308.54645      1158.8248      0.40101743     18421.214      0.00039696657  39696.657    
    228750   483.19525      421.50597      61.689281      310.78355      997.25266      0.40101743     18421.214      0.00038539796  38539.796    
    229000   450.93851      401.87256      49.065953      296.30751      1092.12        0.40101743     18421.214      0.00036010753  36010.753    
    229250   491.13754      426.86678      64.27076       314.73618      921.80579      0.40101743     18421.214      0.00035157368  35157.368    
    229500   474.76833      415.33987      59.428463      306.23719      801.34984      0.40101743     18421.214      0.00036916083  36916.083    
    229750   459.03764      398.3475       60.690141      293.70842      951.03239      0.40101743     18421.214      0.00038606751  38606.751    
    230000   476.21071      414.64246      61.568243      305.72298      1305.2628      0.40101743     18421.214      0.00033602996  33602.996    
    230250   455.85617      399.93951      55.91666       294.88224      805.30836      0.40101743     18421.214      0.00040913579  40913.579    
    230500   462.43871      403.68711      58.75159       297.64541      645.91373      0.40101743     18421.214      0.00037991716  37991.716    
    230750   446.39184      399.86892      46.52292       294.83019      710.47062      0.40101743     18421.214      0.00038922489  38922.489    
    231000   458.22113      398.14998      60.071146      293.56279      718.91857      0.40101743     18421.214      0.00035900774  35900.774    
    231250   456.64249      406.06799      50.574499      299.40087      1267.4085      0.40101743     18421.214      0.00033668313  33668.313    
    231500   475.9277       418.40274      57.52496       308.49549      541.32912      0.40101743     18421.214      0.00038708635  38708.635    
    231750   487.17252      427.4643       59.708221      315.17673      656.12643      0.40101743     18421.214      0.00037124309  37124.309    
    232000   478.09495      416.79153      61.303419      307.30752      1175.3211      0.40101743     18421.214      0.00038522294  38522.294    
    232250   458.45351      407.93654      50.516966      300.77859      555.45191      0.40101743     18421.214      0.00034592133  34592.133    
    232500   473.60604      406.9526       66.653442      300.0531       714.6886       0.40101743     18421.214      0.00034749491  34749.491    
    232750   496.70407      440.68027      56.023797      324.9211       1241.1955      0.40101743     18421.214      0.00035569303  35569.303    
    233000   466.50756      409.45751      57.05005       301.90002      949.87806      0.40101743     18421.214      0.00037364366  37364.366    
    233250   476.27987      419.64095      56.638926      309.40844      417.45054      0.40101743     18421.214      0.00038706975  38706.975    
    233500   472.20049      411.12225      61.078235      303.12747      540.87891      0.40101743     18421.214      0.00035914561  35914.561    
    233750   474.77477      412.50388      62.270885      304.14616      863.93031      0.40101743     18421.214      0.00037728475  37728.475    
    234000   471.78079      407.01592      64.764872      300.09979     -130.0377       0.40101743     18421.214      0.00041960808  41960.808    
    234250   479.432        416.49276      62.939234      307.08723      1197.4236      0.40101743     18421.214      0.00038644471  38644.471    
    234500   510.19299      453.6772       56.515797      334.50395      380.7076       0.40101743     18421.214      0.00037088918  37088.918    
    234750   466.29986      407.00129      59.298573      300.08901      990.27751      0.40101743     18421.214      0.00038359158  38359.158    
    235000   453.0472       405.14631      47.900896      298.7213       1235.8919      0.40101743     18421.214      0.0003703348   37033.48     
    235250   483.02607      433.7303       49.295774      319.79676      1489.037       0.40101743     18421.214      0.00036416282  36416.282    
    235500   441.33721      388.04054      53.296664      286.10892      502.57618      0.40101743     18421.214      0.00036244819  36244.819    
    235750   472.87981      411.52124      61.358578      303.42164      921.3064       0.40101743     18421.214      0.00033168116  33168.116    
    236000   493.75086      430.24633      63.504529      317.22797      1220.7838      0.40101743     18421.214      0.00034899     34899        
    236250   443.43001      386.79878      56.631224      285.19335      1111.3786      0.40101743     18421.214      0.00037435239  37435.239    
    236500   463.0731       399.36526      63.707837      294.45883      763.15023      0.40101743     18421.214      0.0003829084   38290.84     
    236750   466.21825      415.04225      51.176005      306.01774      1001.9541      0.40101743     18421.214      0.00037756375  37756.375    
    237000   486.92004      421.70366      65.216377      310.92932      1029.8334      0.40101743     18421.214      0.00038762827  38762.827    
    237250   475.53387      420.6031       54.930767      310.11785      473.05866      0.40101743     18421.214      0.00036780486  36780.486    
    237500   476.26741      415.22089      61.046519      306.14946      699.79858      0.40101743     18421.214      0.00036958048  36958.048    
    237750   470.66339      410.98138      59.682009      303.0236       1253.2869      0.40101743     18421.214      0.00035560769  35560.769    
    238000   465.69189      401.48402      64.207864      296.02103      228.29921      0.40101743     18421.214      0.00033326631  33326.631    
    238250   462.22226      397.93731      64.28495       293.40598      1273.0665      0.40101743     18421.214      0.00035463046  35463.046    
    238500   485.44675      433.48159      51.965168      319.61338      1098.4128      0.40101743     18421.214      0.00036504601  36504.601    
    238750   449.77687      393.84117      55.935702      290.38582      1009.7595      0.40101743     18421.214      0.00035178213  35178.213    
    239000   463.91819      413.57795      50.340237      304.93809      1329.0968      0.40101743     18421.214      0.00033458068  33458.068    
    239250   461.0281       399.11169      61.916414      294.27187      522.93431      0.40101743     18421.214      0.0003552527   35525.27     
    239500   463.14901      410.48011      52.668906      302.654        366.61747      0.40101743     18421.214      0.00035445672  35445.672    
    239750   460.43841      414.499        45.939404      305.6172       831.68024      0.40101743     18421.214      0.00034228266  34228.266    
    240000   491.04331      432.07436      58.968952      318.57581      619.6046       0.40101743     18421.214      0.0003487675   34876.75     
    240250   449.54898      392.9758       56.57318       289.74778      1352.8971      0.40101743     18421.214      0.00036492517  36492.517    
    240500   438.59308      380.79652      57.796566      280.76778      748.71193      0.40101743     18421.214      0.00036535839  36535.839    
    240750   496.62951      437.16044      59.469066      322.32587      1168.2428      0.40101743     18421.214      0.00037957424  37957.424    
    241000   474.61169      409.35588      65.255809      301.82509      1357.9682      0.40101743     18421.214      0.00040793833  40793.833    
    241250   441.58065      379.79622      61.78443       280.03025      562.13356      0.40101743     18421.214      0.00034481246  34481.246    
    241500   495.46254      431.02346      64.439083      317.80096      1010.6649      0.40101743     18421.214      0.00035512316  35512.316    
    241750   432.2414       387.02662      45.214778      285.36134      755.27369      0.40101743     18421.214      0.00038921132  38921.132    
    242000   423.10127      363.61565      59.485623      268.10003      309.12811      0.40101743     18421.214      0.00036361963  36361.963    
    242250   463.81329      408.32903      55.484257      301.06798      784.36565      0.40101743     18421.214      0.00036037258  36037.258    
    242500   488.00087      430.88832      57.112547      317.70132      925.25604      0.40101743     18421.214      0.00033301701  33301.701    
    242750   472.61121      420.83923      51.771971      310.29196      690.23456      0.40101743     18421.214      0.00034375872  34375.872    
    243000   441.8938       382.93356      58.960241      282.34346      570.03123      0.40101743     18421.214      0.00035902156  35902.156    
    243250   439.96157      378.81012      61.151448      279.30318      68.937864      0.40101743     18421.214      0.00037277398  37277.398    
    243500   455.54905      397.59203      57.957023      293.1514       1104.8449      0.40101743     18421.214      0.00033326199  33326.199    
    243750   474.01825      422.15259      51.865664      311.26032      1304.2497      0.40101743     18421.214      0.00037330927  37330.927    
    244000   442.62973      386.45922      56.170513      284.94299      896.96519      0.40101743     18421.214      0.00039521958  39521.958    
    244250   479.83819      421.29968      58.538511      310.63146      372.92681      0.40101743     18421.214      0.00036971019  36971.019    
    244500   478.7404       426.89796      51.842439      314.75916      1090.4365      0.40101743     18421.214      0.00034554025  34554.025    
    244750   477.07252      423.95702      53.115497      312.59076      1294.0717      0.40101743     18421.214      0.00036264631  36264.631    
    245000   498.1496       433.58446      64.565141      319.68923      1128.8267      0.40101743     18421.214      0.00038554184  38554.184    
    245250   480.34598      420.89253      59.453445      310.33126      578.69002      0.40101743     18421.214      0.00037725292  37725.292    
    245500   434.80054      383.56031      51.240235      282.80557      512.56279      0.40101743     18421.214      0.00039803468  39803.468    
    245750   434.66816      383.91336      50.7548        283.06588      871.02427      0.40101743     18421.214      0.00037447209  37447.209    
    246000   472.0225       416.18256      55.839938      306.85852      885.14155      0.40101743     18421.214      0.00035712109  35712.109    
    246250   483.6769       424.08472      59.592182      312.68491      532.49318      0.40101743     18421.214      0.00034722989  34722.989    
    246500   497.67692      431.54476      66.132165      318.18533      814.4168       0.40101743     18421.214      0.00035590682  35590.682    
    246750   508.5544       450.31693      58.237472      332.02637      957.21145      0.40101743     18421.214      0.00037109147  37109.147    
    247000   480.37745      417.10291      63.274538      307.53711      623.02173      0.40101743     18421.214      0.00037840298  37840.298    
    247250   500.22853      433.29037      66.938167      319.47239      783.03912      0.40101743     18421.214      0.00036977801  36977.801    
    247500   461.54207      405.77041      55.771656      299.18146      562.75179      0.40101743     18421.214      0.00037752477  37752.477    
    247750   477.45436      404.47316      72.981204      298.22497      892.06784      0.40101743     18421.214      0.00035471989  35471.989    
    248000   485.2974       432.14297      53.154431      318.6264       1171.3551      0.40101743     18421.214      0.00033956395  33956.395    
    248250   480.27703      419.22814      61.048892      309.10407      941.71318      0.40101743     18421.214      0.00033822597  33822.597    
    248500   464.43777      403.84695      60.590818      297.76326      755.27032      0.40101743     18421.214      0.00036599847  36599.847    
    248750   461.46558      397.54442      63.921155      293.1163       881.1431       0.40101743     18421.214      0.00037223049  37223.049    
    249000   441.98022      392.91458      49.065645      289.70264      473.7999       0.40101743     18421.214      0.00033545696  33545.696    
    249250   460.66314      411.89818      48.764964      303.69957      559.78382      0.40101743     18421.214      0.00036340074  36340.074    
    249500   468.20532      408.24374      59.961578      301.00509      393.89536      0.40101743     18421.214      0.00035763149  35763.149    
    249750   453.19425      392.79863      60.395622      289.61714      1275.9493      0.40101743     18421.214      0.00037201457  37201.457    
    250000   457.03761      400.94068      56.096934      295.62042      528.50328      0.40101743     18421.214      0.00038928199  38928.199    
    250250   463.52612      411.86075      51.665365      303.67197      548.7558       0.40101743     18421.214      0.00029277537  29277.537    
    250500   473.29585      406.03055      67.265306      299.37326      983.0123       0.40101743     18421.214      0.00033891985  33891.985    
    250750   467.76395      406.72111      61.042845      299.88243      879.11471      0.40101743     18421.214      0.00036483993  36483.993    
    251000   477.95471      422.77621      55.178504      311.72013      876.63142      0.40101743     18421.214      0.0003693301   36933.01     
    251250   479.24273      425.73856      53.504174      313.90432      607.02649      0.40101743     18421.214      0.00033413684  33413.684    
    251500   487.24962      421.60172      65.647901      310.85415      706.54356      0.40101743     18421.214      0.00036926508  36926.508    
    251750   451.52307      394.09015      57.432917      290.5694       617.68915      0.40101743     18421.214      0.00036560041  36560.041    
    252000   481.11966      427.67194      53.447724      315.32983      1137.9045      0.40101743     18421.214      0.00035544733  35544.733    
    252250   469.7353       407.05109      62.68421       300.12573      333.40773      0.40101743     18421.214      0.00038673111  38673.111    
    252500   484.10917      425.09368      59.015485      313.42884      1318.6231      0.40101743     18421.214      0.00034290497  34290.497    
    252750   440.66922      392.75034      47.91888       289.58154      850.43656      0.40101743     18421.214      0.00039843355  39843.355    
    253000   457.1237       408.11351      49.010182      300.90907      863.34685      0.40101743     18421.214      0.00035537159  35537.159    
    253250   475.87221      424.76233      51.109888      313.18452      942.1079       0.40101743     18421.214      0.00031910108  31910.108    
    253500   417.29538      365.8661       51.429279      269.75933      820.90897      0.40101743     18421.214      0.00036781464  36781.464    
    253750   486.46721      423.45597      63.011231      312.22133      634.89079      0.40101743     18421.214      0.00036187087  36187.087    
    254000   484.78866      417.64694      67.141716      307.93823      777.98843      0.40101743     18421.214      0.00034652829  34652.829    
    254250   456.87557      396.75854      60.117029      292.53685      973.81988      0.40101743     18421.214      0.00035982435  35982.435    
    254500   470.55452      406.28477      64.269748      299.56071      1236.4326      0.40101743     18421.214      0.0003846504   38465.04     
    254750   427.87968      372.91901      54.960668      274.95956      1295.7082      0.40101743     18421.214      0.00036359752  36359.752    
    255000   450.22518      393.61362      56.611565      290.21805      852.07695      0.40101743     18421.214      0.0003668419   36684.19     
    255250   488.19863      434.24692      53.951705      320.17768      616.46208      0.40101743     18421.214      0.00032191081  32191.081    
    255500   447.01446      395.59933      51.415125      291.68215      977.60149      0.40101743     18421.214      0.00038500928  38500.928    
    255750   486.31044      425.8458       60.464636      313.98339      453.86248      0.40101743     18421.214      0.00039263342  39263.342    
    256000   473.78627      418.85149      54.934785      308.82636      632.83544      0.40101743     18421.214      0.00034355828  34355.828    
    256250   460.25603      405.38149      54.874539      298.8947       1223.1928      0.40101743     18421.214      0.00033065546  33065.546    
    256500   443.68497      391.55027      52.134696      288.69671      1411.7751      0.40101743     18421.214      0.00031249256  31249.256    
    256750   474.17816      426.13875      48.039409      314.19938      618.49054      0.40101743     18421.214      0.00034015943  34015.943    
    257000   460.91628      403.59149      57.324789      297.5749       1005.1289      0.40101743     18421.214      0.00036540172  36540.172    
    257250   428.69323      380.12006      48.573172      280.26902      734.80001      0.40101743     18421.214      0.00038109619  38109.619    
    257500   460.97925      413.96004      47.019212      305.21981      650.67747      0.40101743     18421.214      0.00032381651  32381.651    
    257750   460.42948      407.01456      53.414922      300.09879      590.78309      0.40101743     18421.214      0.00039252424  39252.424    
    258000   494.70725      424.38387      70.323377      312.90548      783.13375      0.40101743     18421.214      0.00036924052  36924.052    
    258250   453.47346      404.5211       48.952362      298.26032      863.1773       0.40101743     18421.214      0.00038187641  38187.641    
    258500   473.56502      422.12143      51.443594      311.23734      790.63464      0.40101743     18421.214      0.00037341477  37341.477    
    258750   472.29417      423.41091      48.883263      312.1881       826.818        0.40101743     18421.214      0.00037393066  37393.066    
    259000   450.70508      398.6343       52.070781      293.91988      608.73362      0.40101743     18421.214      0.00035971389  35971.389    
    259250   458.48851      392.40687      66.08164       289.32829      858.26077      0.40101743     18421.214      0.00037325441  37325.441    
    259500   456.9369       403.08944      53.847462      297.20473      1275.1072      0.40101743     18421.214      0.00036274994  36274.994    
    259750   470.13738      413.07966      57.057726      304.57069      618.47254      0.40101743     18421.214      0.00037193373  37193.373    
    260000   472.2153       409.35433      62.860969      301.82394      391.32714      0.40101743     18421.214      0.00031821223  31821.223    
    260250   452.6968       393.66615      59.030648      290.25678      823.88763      0.40101743     18421.214      0.00035153647  35153.647    
    260500   446.82786      388.38302      58.444844      286.36144      908.13636      0.40101743     18421.214      0.00037490034  37490.034    
    260750   472.86345      415.25813      57.605316      306.17692      837.15254      0.40101743     18421.214      0.00036980631  36980.631    
    261000   492.5866       436.0282       56.558396      321.49105      1361.6111      0.40101743     18421.214      0.00038683788  38683.788    
    261250   446.23942      394.88026      51.359163      291.15197      1127.872       0.40101743     18421.214      0.00034106734  34106.734    
    261500   468.26222      416.43893      51.823294      307.04754      428.84639      0.40101743     18421.214      0.00035738925  35738.925    
    261750   472.632        413.40971      59.222296      304.81404      666.00347      0.40101743     18421.214      0.00037585703  37585.703    
    262000   447.36481      391.96014      55.404674      288.99891      737.65277      0.40101743     18421.214      0.00036063944  36063.944    
    262250   469.48157      405.23049      64.251083      298.78337      986.49953      0.40101743     18421.214      0.0003511891   35118.91     
    262500   499.86666      432.96227      66.904388      319.23048      408.2827       0.40101743     18421.214      0.00037874819  37874.819    
    262750   460.87003      398.78196      62.088064      294.02876      528.23501      0.40101743     18421.214      0.00039768279  39768.279    
    263000   453.13795      390.67766      62.460286      288.05332      652.94103      0.40101743     18421.214      0.00035395673  35395.673    
    263250   472.96896      411.35155      61.617414      303.29653      1182.573       0.40101743     18421.214      0.00033721576  33721.576    
    263500   444.27541      388.2527       56.022709      286.26535      697.03501      0.40101743     18421.214      0.00035628599  35628.599    
    263750   454.21319      405.52677      48.686425      299.00182      542.17225      0.40101743     18421.214      0.00042112904  42112.904    
    264000   456.44488      396.02126      60.423611      291.99325      766.21357      0.40101743     18421.214      0.00035977146  35977.146    
    264250   481.24737      427.26057      53.986798      315.02652      371.85885      0.40101743     18421.214      0.00035116872  35116.872    
    264500   476.30756      418.17488      58.132679      308.32749      1028.8705      0.40101743     18421.214      0.00035891244  35891.244    
    264750   465.92496      412.61086      53.314098      304.22504      686.31895      0.40101743     18421.214      0.00038304066  38304.066    
    265000   476.32538      417.47185      58.85353       307.80913      937.96459      0.40101743     18421.214      0.00035986914  35986.914    
    265250   470.94235      414.25747      56.684878      305.43911      1128.5241      0.40101743     18421.214      0.00037289365  37289.365    
    265500   465.28652      407.28211      58.004407      300.29606      1095.0453      0.40101743     18421.214      0.00037043876  37043.876    
    265750   482.58204      425.55186      57.030176      313.76666      1129.4324      0.40101743     18421.214      0.00034368016  34368.016    
    266000   441.42528      389.40436      52.020925      287.11449      872.92481      0.40101743     18421.214      0.00037129065  37129.065    
    266250   484.19587      427.44286      56.753007      315.16093      893.74306      0.40101743     18421.214      0.00035411751  35411.751    
    266500   482.72949      421.85981      60.869684      311.04445      1224.8179      0.40101743     18421.214      0.00040228613  40228.613    
    266750   432.86172      383.82874      49.032977      283.00349      495.76241      0.40101743     18421.214      0.0003337358   33373.58     
    267000   478.25181      417.23817      61.013637      307.63683      751.61236      0.40101743     18421.214      0.00035965977  35965.977    
    267250   494.09113      439.83289      54.258239      324.29631      1323.0014      0.40101743     18421.214      0.00037689491  37689.491    
    267500   474.31333      422.98981      51.323516      311.87762      893.47279      0.40101743     18421.214      0.00038734299  38734.299    
    267750   448.53593      402.23892      46.29701       296.57763      1025.3456      0.40101743     18421.214      0.00038957635  38957.635    
    268000   472.18052      419.86708      52.313439      309.57517      931.59833      0.40101743     18421.214      0.000367469    36746.9      
    268250   476.30881      411.56812      64.740688      303.45621      1155.9624      0.40101743     18421.214      0.0003656185   36561.85     
    268500   458.02454      404.99226      53.032271      298.60772      1610.5114      0.40101743     18421.214      0.00038216877  38216.877    
    268750   465.16845      416.93284      48.235606      307.41171      961.7744       0.40101743     18421.214      0.00039538646  39538.646    
    269000   429.92757      384.20196      45.72561       283.27867      993.43888      0.40101743     18421.214      0.00042024985  42024.985    
    269250   457.93249      409.8453       48.087188      302.18595      971.74251      0.40101743     18421.214      0.00039279819  39279.819    
    269500   479.20237      422.63215      56.570215      311.61391      1078.687       0.40101743     18421.214      0.00036416367  36416.367    
    269750   484.12532      417.70489      66.420425      307.98096      683.48772      0.40101743     18421.214      0.00034257251  34257.251    
    270000   489.76724      430.53543      59.231804      317.44113      993.80327      0.40101743     18421.214      0.00037953653  37953.653    
    270250   477.9839       419.151        58.832898      309.0472       1207.5288      0.40101743     18421.214      0.00039232894  39232.894    
    270500   498.23955      442.75334      55.48621       326.4496       339.83797      0.40101743     18421.214      0.0003778994   37789.94     
    270750   466.88053      414.40418      52.476344      305.54729      1151.9639      0.40101743     18421.214      0.00035657349  35657.349    
    271000   472.18149      410.78804      61.393443      302.88105      1358.46        0.40101743     18421.214      0.00035527185  35527.185    
    271250   467.64598      416.48279      51.163182      307.07988      1157.4582      0.40101743     18421.214      0.00041541048  41541.048    
    271500   488.71375      435.75358      52.960172      321.28856      1253.2512      0.40101743     18421.214      0.00037217074  37217.074    
    271750   465.39794      414.05954      51.338394      305.29318      664.01795      0.40101743     18421.214      0.0003361494   33614.94     
    272000   474.21102      420.98583      53.225184      310.40005      605.58543      0.40101743     18421.214      0.00035001984  35001.984    
    272250   472.33264      411.95377      60.37887       303.74055      1250.1849      0.40101743     18421.214      0.00032232378  32232.378    
    272500   487.2103       428.49654      58.713766      315.93782      784.75626      0.40101743     18421.214      0.00034057344  34057.344    
    272750   460.23287      413.33107      46.9018        304.75606      739.06792      0.40101743     18421.214      0.00037242111  37242.111    
    273000   478.37135      425.34737      53.023979      313.61588      1309.5909      0.40101743     18421.214      0.00033774297  33774.297    
    273250   487.47907      433.69113      53.787943      319.76788      587.54858      0.40101743     18421.214      0.00040167764  40167.764    
    273500   456.57604      399.4777       57.098336      294.54174      484.8388       0.40101743     18421.214      0.00033000109  33000.109    
    273750   467.93155      407.69883      60.232713      300.60332      878.92881      0.40101743     18421.214      0.00034511006  34511.006    
    274000   465.66088      415.46523      50.195654      306.32962      793.916        0.40101743     18421.214      0.00035126484  35126.484    
    274250   492.58389      433.29321      59.290682      319.47449      1191.95        0.40101743     18421.214      0.0003451435   34514.35     
    274500   443.95037      384.25231      59.69806       283.31579      398.70125      0.40101743     18421.214      0.00038426601  38426.601    
    274750   462.12857      411.50033      50.628239      303.40623      1026.0898      0.40101743     18421.214      0.00038024078  38024.078    
    275000   480.69053      424.32001      56.370514      312.8584       1450.6068      0.40101743     18421.214      0.00036190917  36190.917    
    275250   449.14404      393.04757      56.096472      289.80069      778.65856      0.40101743     18421.214      0.00035058184  35058.184    
    275500   462.42891      408.4943       53.93461       301.18983      680.07028      0.40101743     18421.214      0.00034968615  34968.615    
    275750   436.51915      384.33127      52.187882      283.37402      744.69825      0.40101743     18421.214      0.00034886188  34886.188    
    276000   460.10385      402.17821      57.925634      296.53287      613.11635      0.40101743     18421.214      0.00036258561  36258.561    
    276250   450.27568      385.8479       64.427784      284.49225      702.20528      0.40101743     18421.214      0.00036233046  36233.046    
    276500   445.70517      388.80995      56.895218      286.67622      901.58302      0.40101743     18421.214      0.00037807991  37807.991    
    276750   475.53639      404.11065      71.425736      297.95769      1266.5614      0.40101743     18421.214      0.000336941    33694.1      
    277000   494.57554      445.11573      49.459808      328.19144      1237.3966      0.40101743     18421.214      0.00037805217  37805.217    
    277250   475.72112      417.47431      58.246812      307.81094      457.77951      0.40101743     18421.214      0.00036015072  36015.072    
    277500   437.30849      381.55813      55.75036       281.32933      491.57919      0.40101743     18421.214      0.00040578319  40578.319    
    277750   442.42531      394.75776      47.667552      291.06164      451.49408      0.40101743     18421.214      0.00040453458  40453.458    
    278000   490.79229      433.70062      57.091673      319.77488      1160.7707      0.40101743     18421.214      0.00036167815  36167.815    
    278250   458.14905      398.84967      59.29938       294.07868      925.37459      0.40101743     18421.214      0.00034454217  34454.217    
    278500   492.56722      434.91764      57.649576      320.67221      846.54722      0.40101743     18421.214      0.00038880306  38880.306    
    278750   461.39867      414.03017      47.368507      305.27152      849.08206      0.40101743     18421.214      0.00033361508  33361.508    
    279000   465.72608      410.57867      55.14741       302.72667      1095.0133      0.40101743     18421.214      0.0003689655   36896.55     
    279250   467.94152      414.10151      53.840012      305.32412      1115.6945      0.40101743     18421.214      0.00037423769  37423.769    
    279500   449.46739      392.35044      57.116957      289.28668      578.04418      0.40101743     18421.214      0.00036553206  36553.206    
    279750   477.02652      426.91362      50.1129        314.77071      1224.5155      0.40101743     18421.214      0.00033211972  33211.972    
    280000   480.23267      422.03158      58.201095      311.1711       1416.9385      0.40101743     18421.214      0.00034715541  34715.541    
    280250   470.95471      413.29053      57.664183      304.72617      1141.3746      0.40101743     18421.214      0.00038544459  38544.459    
    280500   496.38051      424.10551      72.274997      312.70024      1175.5352      0.40101743     18421.214      0.00036134269  36134.269    
    280750   460.88501      404.15582      56.729189      297.99099      209.99161      0.40101743     18421.214      0.00034934328  34934.328    
    281000   510.18901      443.5191       66.669905      327.01421      935.34552      0.40101743     18421.214      0.00036166775  36166.775    
    281250   470.80744      405.43637      65.37107       298.93517      1642.0276      0.40101743     18421.214      0.00034608214  34608.214    
    281500   431.83474      380.9465       50.888238      280.87836      1059.3881      0.40101743     18421.214      0.0003468507   34685.07     
    281750   517.44876      459.54239      57.906367      338.82846      1071.5975      0.40101743     18421.214      0.00037485556  37485.556    
    282000   488.11885      424.8139       63.304949      313.22255      557.93858      0.40101743     18421.214      0.00038581287  38581.287    
    282250   468.92597      408.68829      60.237682      301.33286      764.71295      0.40101743     18421.214      0.00038557596  38557.596    
    282500   467.98491      413.97624      54.008664      305.23176      883.32482      0.40101743     18421.214      0.00034399429  34399.429    
    282750   474.53901      408.45607      66.082948      301.16164      678.74918      0.40101743     18421.214      0.00036296086  36296.086    
    283000   513.61003      455.82962      57.780404      336.09097      1447.3527      0.40101743     18421.214      0.00035661216  35661.216    
    283250   483.47806      421.99528      61.482778      311.14433      1262.6793      0.40101743     18421.214      0.00034918243  34918.243    
    283500   457.96532      406.68487      51.280444      299.85571      537.16355      0.40101743     18421.214      0.00034877171  34877.171    
    283750   462.4633       402.8593       59.604008      297.03504      990.35055      0.40101743     18421.214      0.00037669706  37669.706    
    284000   476.39676      409.39995      66.996813      301.85758      646.25621      0.40101743     18421.214      0.00036195836  36195.836    
    284250   462.61413      408.92549      53.688642      301.50775      885.39024      0.40101743     18421.214      0.00035265645  35265.645    
    284500   474.85697      417.7318       57.125175      308.00079      770.53698      0.40101743     18421.214      0.00036892113  36892.113    
    284750   466.59112      411.33861      55.25251       303.28699      947.56252      0.40101743     18421.214      0.00035736752  35736.752    
    285000   448.78291      397.26967      51.513235      292.91372      676.22159      0.40101743     18421.214      0.00036330298  36330.298    
    285250   425.09162      376.98508      48.106542      277.95754      826.12168      0.40101743     18421.214      0.00036277513  36277.513    
    285500   481.35464      414.11097      67.243676      305.33109      691.07022      0.40101743     18421.214      0.00035093524  35093.524    
    285750   470.88485      416.64689      54.237965      307.20087      1300.3449      0.40101743     18421.214      0.00035098824  35098.824    
    286000   461.60171      396.06427      65.53744       292.02496      504.28886      0.40101743     18421.214      0.00036420728  36420.728    
    286250   461.76286      395.66164      66.101212      291.72809      905.7084       0.40101743     18421.214      0.00035217484  35217.484    
    286500   496.51996      434.38095      62.139012      320.2765       424.79028      0.40101743     18421.214      0.00036860025  36860.025    
    286750   471.28269      411.78813      59.494555      303.61843      509.91626      0.40101743     18421.214      0.0003947773   39477.73     
    287000   487.69824      425.49243      62.20581       313.72284      876.03612      0.40101743     18421.214      0.00037161866  37161.866    
    287250   481.47087      416.18537      65.285506      306.86058      895.253        0.40101743     18421.214      0.00036890748  36890.748    
    287500   482.42718      425.12395      57.303233      313.45115      998.38418      0.40101743     18421.214      0.00032471448  32471.448    
    287750   474.32707      417.70531      56.621759      307.98126      670.27188      0.40101743     18421.214      0.00038600359  38600.359    
    288000   483.52447      425.77777      57.746704      313.93322      1197.3899      0.40101743     18421.214      0.00032548095  32548.095    
    288250   477.82111      424.34507      53.476038      312.87687      1372.0518      0.40101743     18421.214      0.00038873943  38873.943    
    288500   484.75647      428.98807      55.7684        316.30024      984.48174      0.40101743     18421.214      0.00036184934  36184.934    
    288750   475.78715      412.05506      63.73209       303.81524      956.23369      0.40101743     18421.214      0.00039010066  39010.066    
    289000   462.67858      413.32828      49.350297      304.75401      1122.0682      0.40101743     18421.214      0.00034678949  34678.949    
    289250   454.29574      396.9867       57.309042      292.70508      472.84696      0.40101743     18421.214      0.00032476686  32476.686    
    289500   462.48703      405.49105      56.995982      298.97548      1238.4283      0.40101743     18421.214      0.00036814701  36814.701    
    289750   455.59209      403.86435      51.727741      297.77608      674.69016      0.40101743     18421.214      0.00036242132  36242.132    
    290000   480.03999      422.74317      57.296818      311.69577      733.42998      0.40101743     18421.214      0.00034006567  34006.567    
    290250   459.37417      405.47381      53.900359      298.96277      715.12572      0.40101743     18421.214      0.00034141367  34141.367    
    290500   479.82224      418.72751      61.094724      308.73495      1004.6247      0.40101743     18421.214      0.00036465663  36465.663    
    290750   464.65062      406.09107      58.559546      299.41789      788.4368       0.40101743     18421.214      0.00035167909  35167.909    
    291000   463.28298      404.28324      58.999741      298.08494      1101.0033      0.40101743     18421.214      0.0003845004   38450.04     
    291250   478.08027      425.44103      52.639238      313.68494      995.01793      0.40101743     18421.214      0.00038746732  38746.732    
    291500   440.54188      383.48402      57.057864      282.74932      989.574        0.40101743     18421.214      0.00035758348  35758.348    
    291750   464.70767      401.85762      62.850043      296.29649      1028.7557      0.40101743     18421.214      0.0003732696   37326.96     
    292000   465.72425      409.2729       56.451343      301.76391      1160.3605      0.40101743     18421.214      0.00034084076  34084.076    
    292250   451.10815      391.92333      59.184824      288.97177      771.64125      0.40101743     18421.214      0.00032564056  32564.056    
    292500   443.28575      387.43318      55.852568      285.66111      858.82178      0.40101743     18421.214      0.00035006701  35006.701    
    292750   445.84208      394.8165       51.025585      291.10495      1153.216       0.40101743     18421.214      0.00037632677  37632.677    
    293000   466.70363      412.19565      54.507984      303.9189       1108.6017      0.40101743     18421.214      0.00034985527  34985.527    
    293250   453.37054      402.49655      50.873984      296.76759      668.79261      0.40101743     18421.214      0.00038695236  38695.236    
    293500   466.23767      418.88172      47.355949      308.84865      394.30616      0.40101743     18421.214      0.00037626376  37626.376    
    293750   452.0337       393.29035      58.743357      289.97969      1147.7475      0.40101743     18421.214      0.00037829714  37829.714    
    294000   460.64932      401.57171      59.077605      296.08569      701.02536      0.40101743     18421.214      0.00035461422  35461.422    
    294250   456.87991      401.77617      55.103734      296.23644      663.4006       0.40101743     18421.214      0.00034387746  34387.746    
    294500   484.60132      431.42289      53.178436      318.09547      904.69381      0.40101743     18421.214      0.00034521147  34521.147    
    294750   467.96597      407.13677      60.829206      300.1889       853.59123      0.40101743     18421.214      0.00034800671  34800.671    
    295000   463.17918      401.56643      61.612751      296.08179      902.73755      0.40101743     18421.214      0.00036296962  36296.962    
    295250   481.69328      429.12758      52.565696      316.4031       947.75439      0.40101743     18421.214      0.00036642564  36642.564    
    295500   461.27621      387.97494      73.301274      286.06055      809.11375      0.40101743     18421.214      0.00033477127  33477.127    
    295750   474.71045      420.55347      54.15698       310.08126      1138.3349      0.40101743     18421.214      0.00035845973  35845.973    
    296000   443.17315      386.78319      56.389961      285.18185      892.10566      0.40101743     18421.214      0.00033064388  33064.388    
    296250   469.70332      409.66126      60.042057      302.05025      716.86713      0.40101743     18421.214      0.00035885005  35885.005    
    296500   462.99654      399.30689      63.689645      294.4158       705.45284      0.40101743     18421.214      0.00037917834  37917.834    
    296750   472.48521      413.22577      59.259443      304.67842      1254.9806      0.40101743     18421.214      0.00036327373  36327.373    
    297000   482.04722      424.16978      57.87744       312.74763      565.35728      0.40101743     18421.214      0.00035549531  35549.531    
    297250   467.92102      406.18586      61.735164      299.48778      376.63659      0.40101743     18421.214      0.00035735808  35735.808    
    297500   456.24485      399.20039      57.044461      294.33727      482.06375      0.40101743     18421.214      0.00030595284  30595.284    
    297750   454.45837      391.22828      63.230088      288.4593       465.42408      0.40101743     18421.214      0.00034976228  34976.228    
    298000   445.60104      393.01194      52.589099      289.77442      711.12062      0.40101743     18421.214      0.00034505292  34505.292    
    298250   459.02407      410.53412      48.489956      302.69382      964.40214      0.40101743     18421.214      0.00038141377  38141.377    
    298500   474.12492      417.74947      56.375449      308.01383      1182.2209      0.40101743     18421.214      0.00036821494  36821.494    
    298750   471.76393      414.07886      57.685072      305.30742      986.59842      0.40101743     18421.214      0.00040432225  40432.225    
    299000   466.97493      413.27582      53.699104      304.71533      765.21293      0.40101743     18421.214      0.00036283398  36283.398    
    299250   477.90549      421.36122      56.544269      310.67683      871.60103      0.40101743     18421.214      0.00033103504  33103.504    
    299500   473.24692      413.0996       60.147321      304.58539      953.2805       0.40101743     18421.214      0.00034628963  34628.963    
    299750   478.12594      419.2293       58.896635      309.10493      1030.9787      0.40101743     18421.214      0.00035360195  35360.195    
    300000   471.69233      424.35016      47.342171      312.88063      1214.7847      0.40101743     18421.214      0.00037579586  37579.586    
    300250   447.60188      398.24922      49.352659      293.63596      871.97367      0.40101743     18421.214      0.00034777517  34777.517    
    300500   477.13171      415.58054      61.551165      306.41464      600.91673      0.40101743     18421.214      0.00035705426  35705.426    
    300750   460.63591      413.18727      47.448641      304.65003      1151.6281      0.40101743     18421.214      0.00034578601  34578.601    
    301000   461.24376      408.97814      52.265613      301.54658      1159.2577      0.40101743     18421.214      0.0003847315   38473.15     
    301250   485.04507      427.89187      57.153204      315.49199      836.77846      0.40101743     18421.214      0.00033231854  33231.854    
    301500   458.5304       411.24602      47.284379      303.21872      714.82235      0.40101743     18421.214      0.00036902095  36902.095    
    301750   459.72147      407.2845       52.436972      300.29782      866.22369      0.40101743     18421.214      0.00036823373  36823.373    
    302000   472.23775      419.75968      52.478074      309.49598      693.99697      0.40101743     18421.214      0.00034288983  34288.983    
    302250   449.92548      402.25569      47.669792      296.58999      433.73384      0.40101743     18421.214      0.00033925677  33925.677    
    302500   457.34481      399.55253      57.79228       294.59691      763.26277      0.40101743     18421.214      0.00032991206  32991.206    
    302750   457.30651      403.38902      53.917482      297.42562      977.29545      0.40101743     18421.214      0.00031993073  31993.073    
    303000   481.98281      429.30413      52.678681      316.53328      996.99855      0.40101743     18421.214      0.00036554561  36554.561    
    303250   470.81713      411.70099      59.116142      303.55418      795.47845      0.40101743     18421.214      0.00035394699  35394.699    
    303500   458.50183      395.51981      62.98202       291.62352      527.6651       0.40101743     18421.214      0.00035785024  35785.024    
    303750   483.07219      426.83485      56.237335      314.71263      922.50715      0.40101743     18421.214      0.00039858225  39858.225    
    304000   469.24837      410.2797       58.968665      302.50624      669.65351      0.40101743     18421.214      0.00036370681  36370.681    
    304250   458.08628      400.55307      57.533208      295.33462      881.01215      0.40101743     18421.214      0.00034150714  34150.714    
    304500   472.23867      420.19235      52.046329      309.815        915.44423      0.40101743     18421.214      0.00035824413  35824.413    
    304750   473.10268      419.65233      53.45035       309.41684      886.84741      0.40101743     18421.214      0.0003951355   39513.55     
    305000   454.28598      403.39274      50.893233      297.42836      1100.5547      0.40101743     18421.214      0.00037617075  37617.075    
    305250   437.96703      389.06829      48.898733      286.8667       468.70167      0.40101743     18421.214      0.00036392639  36392.639    
    305500   506.55628      447.86189      58.694393      330.21623      1076.0255      0.40101743     18421.214      0.00034073952  34073.952    
    305750   472.08817      410.50055      61.587613      302.66907      792.26098      0.40101743     18421.214      0.00035509404  35509.404    
    306000   446.16859      397.90838      48.260213      293.38465      1252.7763      0.40101743     18421.214      0.00035816375  35816.375    
    306250   465.08749      408.05428      57.033208      300.8654       1229.8022      0.40101743     18421.214      0.00036171006  36171.006    
    306500   501.10697      447.48244      53.624531      329.93645      1017.3619      0.40101743     18421.214      0.00034169996  34169.996    
    306750   465.36547      410.00887      55.356603      302.30654      737.19854      0.40101743     18421.214      0.00039690173  39690.173    
    307000   468.78044      416.11606      52.664383      306.80948      828.84471      0.40101743     18421.214      0.00036751304  36751.304    
    307250   517.26564      447.42391      69.841731      329.8933       877.9886       0.40101743     18421.214      0.00036236418  36236.418    
    307500   489.49768      432.20116      57.29652       318.66931      820.11386      0.40101743     18421.214      0.00034434428  34434.428    
    307750   457.09065      398.699        58.391651      293.96758      1055.5344      0.40101743     18421.214      0.00036370307  36370.307    
    308000   458.79397      406.24646      52.547516      299.53246      1033.9743      0.40101743     18421.214      0.00034227257  34227.257    
    308250   467.13171      410.47649      56.655212      302.65133      573.59107      0.40101743     18421.214      0.00037858285  37858.285    
    308500   461.50661      406.23426      55.27235       299.52346      818.78742      0.40101743     18421.214      0.0003625524   36255.24     
    308750   458.35093      399.99641      58.354518      294.92419      1015.7353      0.40101743     18421.214      0.00036481862  36481.862    
    309000   472.50176      417.08975      55.41201       307.5274       791.52627      0.40101743     18421.214      0.00035671059  35671.059    
    309250   481.90926      421.57092      60.338342      310.83144      1347.2486      0.40101743     18421.214      0.00032114138  32114.138    
    309500   484.00051      426.30246      57.698046      314.32009      505.21249      0.40101743     18421.214      0.00035194305  35194.305    
    309750   444.87424      394.77058      50.103659      291.07109      1275.8365      0.40101743     18421.214      0.00035728696  35728.696    
    310000   465.54088      409.16377      56.377107      301.68344      701.46552      0.40101743     18421.214      0.00037595306  37595.306    
    310250   482.69506      438.10256      44.592496      323.02051      1211.9797      0.40101743     18421.214      0.00037171754  37171.754    
    310500   463.68772      407.80729      55.880426      300.68329      967.0012       0.40101743     18421.214      0.00040273414  40273.414    
    310750   486.68935      432.1504       54.538955      318.63188      911.51338      0.40101743     18421.214      0.00035351215  35351.215    
    311000   474.58561      417.76929      56.816327      308.02843      630.9852       0.40101743     18421.214      0.00034669457  34669.457    
    311250   473.71307      411.73159      61.981479      303.57674      1329.6383      0.40101743     18421.214      0.00035241531  35241.531    
    311500   490.88957      429.61195      61.277623      316.76023      828.42136      0.40101743     18421.214      0.00038448607  38448.607    
    311750   445.71139      396.48209      49.229301      292.33302      689.1171       0.40101743     18421.214      0.00037376228  37376.228    
    312000   450.14551      396.50114      53.644376      292.34707      436.96295      0.40101743     18421.214      0.00039293053  39293.053    
    312250   448.93803      393.46245      55.475583      290.10659      903.04954      0.40101743     18421.214      0.00036244791  36244.791    
    312500   494.43946      434.10407      60.335396      320.07235      808.25732      0.40101743     18421.214      0.0003559472   35594.72     
    312750   466.09854      412.27096      53.827572      303.97443      1093.171       0.40101743     18421.214      0.00038609804  38609.804    
    313000   495.579        444.84864      50.730363      327.9945       969.70199      0.40101743     18421.214      0.00032581833  32581.833    
    313250   482.92037      427.03386      55.886511      314.85937      984.79426      0.40101743     18421.214      0.00035818049  35818.049    
    313500   466.79715      418.91709      47.880055      308.87473      718.19276      0.40101743     18421.214      0.00034255724  34255.724    
    313750   485.39604      425.03551      60.360531      313.38594      910.02512      0.40101743     18421.214      0.00036495893  36495.893    
    314000   465.31478      406.24733      59.067451      299.5331       896.72425      0.40101743     18421.214      0.00039196811  39196.811    
    314250   472.28911      423.89555      48.393559      312.54544      1039.5563      0.40101743     18421.214      0.00040254088  40254.088    
    314500   476.44865      429.31303      47.135622      316.53983      1524.2772      0.40101743     18421.214      0.00034045049  34045.049    
    314750   459.71162      407.8915       51.820118      300.74538      606.61766      0.40101743     18421.214      0.00036245209  36245.209    
    315000   494.44004      431.46596      62.974077      318.12723      1484.5252      0.40101743     18421.214      0.00039829771  39829.771    
    315250   463.36043      405.74263      57.617804      299.16097      436.62369      0.40101743     18421.214      0.00035527798  35527.798    
    315500   440.98179      380.74571      60.236086      280.73032      929.62998      0.40101743     18421.214      0.00035004699  35004.699    
    315750   463.30315      402.9484       60.354754      297.10074      882.81032      0.40101743     18421.214      0.00039164188  39164.188    
    316000   467.79654      407.65938      60.137167      300.57423      574.12488      0.40101743     18421.214      0.0003578284   35782.84     
    316250   456.64257      403.83954      52.803026      297.7578       1047.7389      0.40101743     18421.214      0.00032944738  32944.738    
    316500   448.54482      394.2279       54.31692       290.67097      499.70428      0.40101743     18421.214      0.00038782047  38782.047    
    316750   467.52686      416.58684      50.940015      307.1566       1187.4084      0.40101743     18421.214      0.00033369795  33369.795    
    317000   440.35563      381.47501      58.880618      281.26804      1024.995       0.40101743     18421.214      0.00038120759  38120.759    
    317250   462.06072      404.37262      57.688096      298.15084      693.23233      0.40101743     18421.214      0.00038538345  38538.345    
    317500   445.09321      396.72125      48.371958      292.50936      666.83213      0.40101743     18421.214      0.00030383695  30383.695    
    317750   464.56273      404.08404      60.478689      297.93807      579.74428      0.40101743     18421.214      0.00037760298  37760.298    
    318000   480.62316      416.13229      64.490865      306.82145      1026.0154      0.40101743     18421.214      0.00037343678  37343.678    
    318250   479.57186      414.24955      65.322307      305.43328      1332.4011      0.40101743     18421.214      0.00033412788  33412.788    
    318500   460.67632      405.36942      55.306892      298.88581      692.692        0.40101743     18421.214      0.00036316941  36316.941    
    318750   473.63598      418.11616      55.519823      308.28419      960.02233      0.40101743     18421.214      0.00035021061  35021.061    
    319000   458.62353      398.32729      60.296238      293.69352      918.5682       0.40101743     18421.214      0.00036520375  36520.375    
    319250   485.31799      429.80232      55.515672      316.90059      567.15649      0.40101743     18421.214      0.00035138553  35138.553    
    319500   462.34686      405.5866       56.760255      299.04593      1181.0379      0.40101743     18421.214      0.00037164153  37164.153    
    319750   458.30335      413.50575      44.797601      304.88486      1051.8956      0.40101743     18421.214      0.00035866317  35866.317    
    320000   460.75056      406.74315      54.00741       299.89868      1023.203       0.40101743     18421.214      0.00034114511  34114.511    
    320250   479.18376      425.84608      53.337679      313.98359      1098.6015      0.40101743     18421.214      0.00034052755  34052.755    
    320500   447.80882      391.33694      56.47188       288.53941      369.47792      0.40101743     18421.214      0.00035467525  35467.525    
    320750   453.85218      394.8385       59.013686      291.12117      468.98238      0.40101743     18421.214      0.00039030293  39030.293    
    321000   467.1043       411.27602      55.828278      303.24084      1169.0973      0.40101743     18421.214      0.00035873738  35873.738    
    321250   451.3086       394.36199      56.946612      290.76984      640.10414      0.40101743     18421.214      0.00038695571  38695.571    
    321500   491.09557      427.66305      63.432517      315.32328      809.44132      0.40101743     18421.214      0.00038243568  38243.568    
    321750   469.86008      411.39204      58.46804       303.32638      1065.0087      0.40101743     18421.214      0.00038173764  38173.764    
    322000   482.57555      425.91179      56.663765      314.03204      1004.7351      0.40101743     18421.214      0.0003358569   33585.69     
    322250   476.81861      418.28717      58.531449      308.41028      862.05983      0.40101743     18421.214      0.00038919585  38919.585    
    322500   490.84199      440.84287      49.99912       325.04098      1017.8836      0.40101743     18421.214      0.00032320182  32320.182    
    322750   446.22976      391.3122       54.917562      288.52117      512.41538      0.40101743     18421.214      0.00034675298  34675.298    
    323000   466.96341      417.94021      49.023205      308.15446      813.98951      0.40101743     18421.214      0.0003518079   35180.79     
    323250   473.24485      422.10311      51.141749      311.22383      769.39204      0.40101743     18421.214      0.00033992071  33992.071    
    323500   447.59399      398.00524      49.588747      293.45607      1069.8238      0.40101743     18421.214      0.00037789754  37789.754    
    323750   470.91577      407.49223      63.42354       300.45099      337.07634      0.40101743     18421.214      0.00033830329  33830.329    
    324000   437.86942      386.9076       50.961818      285.27359      936.68949      0.40101743     18421.214      0.00035612219  35612.219    
    324250   479.2346       419.24952      59.98508       309.11983      662.45264      0.40101743     18421.214      0.00037080368  37080.368    
    324500   470.43164      411.01371      59.417927      303.04744      1056.2323      0.40101743     18421.214      0.00034862609  34862.609    
    324750   446.82268      399.76069      47.061989      294.75039      788.07992      0.40101743     18421.214      0.00037294421  37294.421    
    325000   437.17227      385.88133      51.290939      284.5169       1016.4671      0.40101743     18421.214      0.00036184509  36184.509    
    325250   473.95775      415.78677      58.170978      306.56669      407.91732      0.40101743     18421.214      0.00037721959  37721.959    
    325500   467.49453      409.54366      57.950863      301.96354      1236.4319      0.40101743     18421.214      0.00040239999  40239.999    
    325750   481.76488      422.40008      59.364804      311.4428       792.66576      0.40101743     18421.214      0.00035387055  35387.055    
    326000   488.46071      434.32942      54.131289      320.2385       793.34233      0.40101743     18421.214      0.00035224398  35224.398    
    326250   471.93203      417.71764      54.214386      307.99036      916.79622      0.40101743     18421.214      0.00036005199  36005.199    
    326500   488.11807      433.34848      54.769586      319.51524      708.38006      0.40101743     18421.214      0.00039088899  39088.899    
    326750   448.04795      381.94555      66.1024        281.61498      650.36713      0.40101743     18421.214      0.00038515873  38515.873    
    327000   444.18911      383.80512      60.383993      282.98607      588.66567      0.40101743     18421.214      0.00034903246  34903.246    
    327250   488.78884      432.01917      56.769672      318.53512      805.48732      0.40101743     18421.214      0.00036862625  36862.625    
    327500   471.43859      418.07152      53.367064      308.25128      819.33314      0.40101743     18421.214      0.00034798162  34798.162    
    327750   437.07924      376.92182      60.157411      277.9109       1003.1064      0.40101743     18421.214      0.00037082237  37082.237    
    328000   493.71742      433.30895      60.408467      319.4861       1118.6494      0.40101743     18421.214      0.00038628432  38628.432    
    328250   487.38038      424.69658      62.683797      313.13605      1247.0448      0.40101743     18421.214      0.00038441505  38441.505    
    328500   462.50053      405.02825      57.472279      298.63425      1110.9506      0.40101743     18421.214      0.00038606765  38606.765    
    328750   484.45959      422.97953      61.480065      311.87003      733.7409       0.40101743     18421.214      0.00039686516  39686.516    
    329000   470.24327      405.76714      64.476134      299.17905      598.47909      0.40101743     18421.214      0.00036487031  36487.031    
    329250   478.18039      424.39725      53.78314       312.91535      579.19683      0.40101743     18421.214      0.00034902486  34902.486    
    329500   467.14769      406.1945       60.953197      299.49414      793.37424      0.40101743     18421.214      0.00034421224  34421.224    
    329750   480.45219      427.23197      53.220226      315.00543      1572.3724      0.40101743     18421.214      0.00037371991  37371.991    
    330000   455.76153      406.76765      48.993879      299.91674      708.10372      0.40101743     18421.214      0.00038002469  38002.469    
    330250   498.87465      442.87679      55.997863      326.54062      1511.7944      0.40101743     18421.214      0.00036676309  36676.309    
    330500   479.51738      417.25258      62.264806      307.64746      1149.1048      0.40101743     18421.214      0.00035098947  35098.947    
    330750   494.65932      429.92795      64.731369      316.99322      1388.679       0.40101743     18421.214      0.00036394805  36394.805    
    331000   482.73262      427.35908      55.373543      315.09915      1380.962       0.40101743     18421.214      0.000356672    35667.2      
    331250   461.11462      402.93644      58.178182      297.09192      619.82122      0.40101743     18421.214      0.00037051774  37051.774    
    331500   461.42574      402.75103      58.674704      296.95522      1423.5576      0.40101743     18421.214      0.00036554619  36554.619    
    331750   477.9243       414.46255      63.46175       305.59032      580.59327      0.40101743     18421.214      0.00032807925  32807.925    
    332000   476.65656      412.80172      63.854842      304.36576      831.23401      0.40101743     18421.214      0.00037442466  37442.466    
    332250   477.57892      426.44239      51.136524      314.42327      888.19396      0.40101743     18421.214      0.000350439    35043.9      
    332500   487.92865      434.88694      53.041711      320.64957      1444.6636      0.40101743     18421.214      0.00034472297  34472.297    
    332750   461.24407      413.8866       47.357474      305.16566      856.33668      0.40101743     18421.214      0.00037797761  37797.761    
    333000   456.6762       393.96643      62.709766      290.47819      714.32082      0.40101743     18421.214      0.00036434023  36434.023    
    333250   481.83957      419.64758      62.191992      309.41333      803.88269      0.40101743     18421.214      0.00037468767  37468.767    
    333500   484.41496      427.20261      57.212343      314.98379      914.79443      0.40101743     18421.214      0.00037246128  37246.128    
    333750   469.02533      416.99138      52.033946      307.45487      873.49841      0.40101743     18421.214      0.00039572997  39572.997    
    334000   455.31658      398.21843      57.098149      293.61325      907.80149      0.40101743     18421.214      0.00034744696  34744.696    
    334250   467.46008      411.04146      56.418626      303.06789      1012.0379      0.40101743     18421.214      0.00033589355  33589.355    
    334500   451.75428      401.28852      50.465766      295.87688      1186.8751      0.40101743     18421.214      0.00036240585  36240.585    
    334750   464.07894      407.69709      56.38185       300.60203      511.76562      0.40101743     18421.214      0.00034902854  34902.854    
    335000   474.15749      407.83276      66.324732      300.70207      899.80785      0.40101743     18421.214      0.00033491369  33491.369    
    335250   446.31129      388.59273      57.718566      286.51606      735.33298      0.40101743     18421.214      0.00036065879  36065.879    
    335500   442.50391      390.17079      52.333117      287.67959      1028.9522      0.40101743     18421.214      0.00034442299  34442.299    
    335750   460.34945      403.28632      57.063123      297.3499       722.43188      0.40101743     18421.214      0.00035844581  35844.581    
    336000   455.89299      407.78029      48.112701      300.66337      1046.4616      0.40101743     18421.214      0.00037338804  37338.804    
    336250   462.3521       399.71948      62.632622      294.72         1095.7953      0.40101743     18421.214      0.0003709085   37090.85     
    336500   452.6369       395.26022      57.376681      291.43212      792.14611      0.40101743     18421.214      0.00037646088  37646.088    
    336750   447.33761      391.60827      55.729341      288.73947      1014.7913      0.40101743     18421.214      0.00037391601  37391.601    
    337000   459.00931      401.92956      57.079748      296.34954      671.46706      0.40101743     18421.214      0.00035708239  35708.239    
    337250   493.70544      434.32584      59.379593      320.23587      858.02294      0.40101743     18421.214      0.00033430585  33430.585    
    337500   470.2717       403.18973      67.081976      297.27868      752.03909      0.40101743     18421.214      0.00035949281  35949.281    
    337750   462.83608      412.55881      50.277276      304.18666      724.52867      0.40101743     18421.214      0.00035204752  35204.752    
    338000   491.67466      428.83582      62.838834      316.18798      878.83145      0.40101743     18421.214      0.00036280934  36280.934    
    338250   469.81565      410.50616      59.30949       302.67321      1038.8166      0.40101743     18421.214      0.00035291284  35291.284    
    338500   446.44546      393.84992      52.595548      290.39227      848.82516      0.40101743     18421.214      0.00035436937  35436.937    
    338750   453.0815       395.33249      57.749014      291.4854       707.7513       0.40101743     18421.214      0.00035780327  35780.327    
    339000   463.97694      414.69505      49.281894      305.76174      664.08422      0.40101743     18421.214      0.00034656012  34656.012    
    339250   457.54267      404.03964      53.503029      297.90533      572.05393      0.40101743     18421.214      0.00032538844  32538.844    
    339500   477.00367      414.40853      62.595137      305.5505       712.75695      0.40101743     18421.214      0.00034840053  34840.053    
    339750   493.3667       428.31765      65.049046      315.80593      1283.0739      0.40101743     18421.214      0.00040155785  40155.785    
    340000   439.41688      376.6922       62.724679      277.7416       876.21857      0.40101743     18421.214      0.00035922448  35922.448    
    340250   459.2121       402.4814       56.730702      296.75642      936.25479      0.40101743     18421.214      0.00035072688  35072.688    
    340500   460.64012      400.13612      60.504001      295.0272       1072.1114      0.40101743     18421.214      0.00040138259  40138.259    
    340750   450.64829      392.07202      58.576263      289.08141      411.78659      0.40101743     18421.214      0.00035233663  35233.663    
    341000   472.33961      416.23077      56.10884       306.89406      335.93317      0.40101743     18421.214      0.00036356321  36356.321    
    341250   504.90632      446.28803      58.618298      329.05579      1098.1443      0.40101743     18421.214      0.00030902977  30902.977    
    341500   482.16422      427.69982      54.464395      315.35039      1318.4139      0.40101743     18421.214      0.00034965276  34965.276    
    341750   487.05812      420.17117      66.886949      309.79939      584.28792      0.40101743     18421.214      0.00036967406  36967.406    
    342000   479.55861      412.78922      66.76939       304.35655      652.63205      0.40101743     18421.214      0.00040223835  40223.835    
    342250   461.69991      399.36023      62.339682      294.45512      433.79261      0.40101743     18421.214      0.0003539094   35390.94     
    342500   462.33988      407.91516      54.424726      300.76282      1384.9589      0.40101743     18421.214      0.0003216109   32161.09     
    342750   460.45691      408.25334      52.203573      301.01217      449.15678      0.40101743     18421.214      0.00035430248  35430.248    
    343000   460.60319      400.80688      59.796311      295.52176      1310.0274      0.40101743     18421.214      0.00034236341  34236.341    
    343250   465.69589      403.15848      62.537402      297.25564      611.15027      0.40101743     18421.214      0.00035172617  35172.617    
    343500   473.12084      419.83936      53.281481      309.55473      935.29854      0.40101743     18421.214      0.0003793016   37930.16     
    343750   474.64567      414.77756      59.868108      305.82258      814.24195      0.40101743     18421.214      0.00034159959  34159.959    
    344000   441.61489      390.10973      51.505155      287.63457      1335.8825      0.40101743     18421.214      0.00039673686  39673.686    
    344250   499.68325      431.38566      68.297593      318.06802      872.30006      0.40101743     18421.214      0.00037359146  37359.146    
    344500   481.14236      418.7263       62.416062      308.73406      663.80945      0.40101743     18421.214      0.0003394358   33943.58     
    344750   452.31435      388.89784      63.416517      286.74102      970.98684      0.40101743     18421.214      0.00035501039  35501.039    
    345000   463.56629      405.50999      58.056301      298.98945      889.92378      0.40101743     18421.214      0.0003911482   39114.82     
    345250   461.88583      400.82668      61.059149      295.53636      873.75606      0.40101743     18421.214      0.00036162859  36162.859    
    345500   476.44911      417.98972      58.459385      308.19097      1121.356       0.40101743     18421.214      0.00034850911  34850.911    
    345750   505.49634      440.85079      64.645557      325.04682      952.62829      0.40101743     18421.214      0.00037700126  37700.126    
    346000   482.21304      423.13963      59.073411      311.98808      1381.6366      0.40101743     18421.214      0.00035380449  35380.449    
    346250   465.29944      407.72805      57.571394      300.62486      847.93648      0.40101743     18421.214      0.00036288662  36288.662    
    346500   470.92045      415.075        55.845444      306.0419       1408.2705      0.40101743     18421.214      0.00033777983  33777.983    
    346750   451.92839      408.04958      43.878804      300.86193      613.16109      0.40101743     18421.214      0.00032899549  32899.549    
    347000   466.36185      408.88432      57.477526      301.4774       407.30798      0.40101743     18421.214      0.00036331696  36331.696    
    347250   473.32153      409.74768      63.573854      302.11397      1165.7124      0.40101743     18421.214      0.00039024404  39024.404    
    347500   435.29182      386.51688      48.774932      284.9855       641.72849      0.40101743     18421.214      0.00041285665  41285.665    
    347750   470.02919      408.05883      61.970359      300.86875      967.72033      0.40101743     18421.214      0.0003733725   37337.25     
    348000   482.60278      428.96329      53.639481      316.28197      831.04289      0.40101743     18421.214      0.00036982334  36982.334    
    348250   457.2901       398.31121      58.978886      293.68166      475.80875      0.40101743     18421.214      0.00038768221  38768.221    
    348500   466.14758      405.32686      60.820723      298.85442      1294.1075      0.40101743     18421.214      0.00032194252  32194.252    
    348750   489.34472      426.45398      62.890742      314.43181      1004.6989      0.40101743     18421.214      0.00038042187  38042.187    
    349000   478.44361      419.48728      58.956334      309.29514      1307.1009      0.40101743     18421.214      0.00035874402  35874.402    
    349250   454.1997       403.27078      50.928921      297.33844      876.14377      0.40101743     18421.214      0.00038734763  38734.763    
    349500   440.64288      389.97781      50.665072      287.53731      572.72527      0.40101743     18421.214      0.00036022654  36022.654    
    349750   455.30854      406.80837      48.50017       299.94677      1316.9711      0.40101743     18421.214      0.00036474765  36474.765    
    350000   458.35492      408.30146      50.053458      301.04765      781.05667      0.40101743     18421.214      0.00036674385  36674.385    
    350250   461.35124      401.82171      59.529529      296.27001      556.94379      0.40101743     18421.214      0.00038996437  38996.437    
    350500   455.02358      399.49027      55.533318      294.551        417.32374      0.40101743     18421.214      0.00034988873  34988.873    
    350750   463.50694      413.36795      50.138992      304.78325      873.25341      0.40101743     18421.214      0.00033583271  33583.271    
    351000   490.10866      439.01602      51.092636      323.69402      645.14664      0.40101743     18421.214      0.00037231596  37231.596    
    351250   459.44408      405.78126      53.662827      299.18946      1076.9472      0.40101743     18421.214      0.00036726126  36726.126    
    351500   460.62708      409.55343      51.073657      301.97074      724.21495      0.40101743     18421.214      0.00034818816  34818.816    
    351750   443.64524      389.08834      54.556891      286.88149      1230.1695      0.40101743     18421.214      0.00036771669  36771.669    
    352000   524.0016       451.1018       72.899804      332.60507      978.05845      0.40101743     18421.214      0.00034265987  34265.987    
    352250   449.12682      391.10816      58.018654      288.37073      1026.387       0.40101743     18421.214      0.00035453085  35453.085    
    352500   465.35336      405.43112      59.922237      298.93129      794.31588      0.40101743     18421.214      0.00033873222  33873.222    
    352750   460.69677      393.02827      67.668499      289.78646      1031.9869      0.40101743     18421.214      0.00033376916  33376.916    
    353000   440.92413      387.09577      53.828353      285.41233      405.17576      0.40101743     18421.214      0.00039895853  39895.853    
    353250   471.10661      407.32634      63.780271      300.32867      956.65429      0.40101743     18421.214      0.00036595633  36595.633    
    353500   462.49794      409.43403      53.063907      301.88271      980.22498      0.40101743     18421.214      0.00037815345  37815.345    
    353750   488.50857      425.01071      63.497863      313.36766      626.2393       0.40101743     18421.214      0.00037963881  37963.881    
    354000   452.61002      398.08036      54.529662      293.51145      869.02905      0.40101743     18421.214      0.0003465255   34652.55     
    354250   452.40287      400.34245      52.060422      295.17933      888.76138      0.40101743     18421.214      0.00035682302  35682.302    
    354500   469.06085      411.98171      57.07914       303.76116      989.08273      0.40101743     18421.214      0.00035016482  35016.482    
    354750   464.92309      420.61226      44.31083       310.12461      1117.9687      0.40101743     18421.214      0.00035878666  35878.666    
    355000   439.14104      385.04286      54.098187      283.89868      1224.9301      0.40101743     18421.214      0.00036105635  36105.635    
    355250   430.51303      376.5719       53.941131      277.6529       682.33089      0.40101743     18421.214      0.00035301226  35301.226    
    355500   471.2446       408.96323      62.281367      301.53558      1274.896       0.40101743     18421.214      0.00032437347  32437.347    
    355750   486.29044      433.49641      52.794028      319.62431      1400.5044      0.40101743     18421.214      0.00035624405  35624.405    
    356000   437.10674      388.27115      48.835589      286.27895      1010.22        0.40101743     18421.214      0.00037332122  37332.122    
    356250   504.6659       438.01434      66.651559      322.95546      915.38812      0.40101743     18421.214      0.00030461139  30461.139    
    356500   463.56686      407.3288       56.238055      300.33049      483.68091      0.40101743     18421.214      0.00035589953  35589.953    
    356750   458.53771      396.37724      62.160464      292.25571      754.54205      0.40101743     18421.214      0.00037424455  37424.455    
    357000   482.78709      422.40748      60.379607      311.44826      1113.1008      0.40101743     18421.214      0.00038061375  38061.375    
    357250   451.32166      391.68948      59.632171      288.79935      646.86202      0.40101743     18421.214      0.00034700197  34700.197    
    357500   480.37706      419.75375      60.623311      309.49162      457.75521      0.40101743     18421.214      0.00033752166  33752.166    
    357750   472.72613      408.81278      63.913355      301.42465      953.53242      0.40101743     18421.214      0.00034847928  34847.928    
    358000   457.20077      395.84085      61.359912      291.86023      1398.3187      0.40101743     18421.214      0.00039076984  39076.984    
    358250   483.95363      414.476        69.477634      305.60024      663.45611      0.40101743     18421.214      0.00035216473  35216.473    
    358500   456.77956      398.39982      58.379738      293.747        761.00625      0.40101743     18421.214      0.00036395367  36395.367    
    358750   460.26657      404.98655      55.280022      298.6035       887.28933      0.40101743     18421.214      0.00037991077  37991.077    
    359000   467.50683      422.5737       44.933125      311.57081      801.07501      0.40101743     18421.214      0.00039144694  39144.694    
    359250   457.95631      405.75057      52.20574       299.16683      1217.4715      0.40101743     18421.214      0.00036440727  36440.727    
    359500   474.71672      419.71427      55.002448      309.4625       819.44162      0.40101743     18421.214      0.00033027727  33027.727    
    359750   445.28721      396.92531      48.361901      292.65982      1004.6184      0.40101743     18421.214      0.00034577483  34577.483    
    360000   485.11278      417.40472      67.708058      307.75964      1233.0779      0.40101743     18421.214      0.0003632756   36327.56     
    360250   478.83032      420.11753      58.712786      309.75984      686.57585      0.40101743     18421.214      0.00034743052  34743.052    
    360500   476.42146      415.81855      60.602908      306.59013      1061.0099      0.40101743     18421.214      0.00034980118  34980.118    
    360750   455.2596       403.36185      51.897749      297.40559      975.02207      0.40101743     18421.214      0.00037467829  37467.829    
    361000   480.71394      427.48741      53.226524      315.19378      1236.7889      0.40101743     18421.214      0.00035871341  35871.341    
    361250   458.88834      399.08852      59.799821      294.25479      974.1771       0.40101743     18421.214      0.0003542202   35422.02     
    361500   458.58941      409.51231      49.077095      301.94043      960.9951       0.40101743     18421.214      0.00037138559  37138.559    
    361750   466.70977      408.37985      58.329918      301.10544      479.89574      0.40101743     18421.214      0.00034961263  34961.263    
    362000   446.63871      379.15272      67.485995      279.55578      1150.8518      0.40101743     18421.214      0.00035365543  35365.543    
    362250   476.81728      407.13597      69.681317      300.18831      887.48981      0.40101743     18421.214      0.00038986001  38986.001    
    362500   478.9118       425.35535      53.556449      313.62177      1044.6265      0.40101743     18421.214      0.00036284652  36284.652    
    362750   436.99991      386.28366      50.716252      284.81355      423.65856      0.40101743     18421.214      0.00034098341  34098.341    
    363000   443.596        392.99386      50.60214       289.76109      1209.1648      0.40101743     18421.214      0.00031822476  31822.476    
    363250   472.16327      399.83919      72.324079      294.80827      699.57229      0.40101743     18421.214      0.00036830216  36830.216    
    363500   458.35202      397.83127      60.520749      293.3278       1280.7727      0.40101743     18421.214      0.00036971806  36971.806    
    363750   454.84876      397.32021      57.528553      292.95098      613.15218      0.40101743     18421.214      0.00034692086  34692.086    
    364000   471.94906      413.94514      58.003923      305.20883      771.97423      0.40101743     18421.214      0.00037463319  37463.319    
    364250   462.01736      408.99685      53.020506      301.56037      1201.9057      0.40101743     18421.214      0.00035153935  35153.935    
    364500   461.16709      401.90046      59.266627      296.32808      790.19437      0.40101743     18421.214      0.00035711612  35711.612    
    364750   464.76366      407.02741      57.73625       300.10827      844.61832      0.40101743     18421.214      0.00034243762  34243.762    
    365000   465.19304      412.70435      52.488682      304.29397      893.13188      0.40101743     18421.214      0.0003628925   36289.25     
    365250   486.77267      440.31891      46.453767      324.65466      806.89235      0.40101743     18421.214      0.00034884135  34884.135    
    365500   476.04646      412.2139       63.832559      303.93235      845.74984      0.40101743     18421.214      0.00035100049  35100.049    
    365750   499.06387      438.4429       60.62097       323.27144      1066.1686      0.40101743     18421.214      0.00038461825  38461.825    
    366000   460.93464      403.95763      56.977005      297.84487      754.51248      0.40101743     18421.214      0.00035776467  35776.467    
    366250   494.82924      442.28238      52.54686       326.10236      979.71642      0.40101743     18421.214      0.00037123395  37123.395    
    366500   475.97518      420.28936      55.685821      309.88653      1047.1619      0.40101743     18421.214      0.0003673959   36739.59     
    366750   458.43677      403.57478      54.861986      297.56259      1047.9823      0.40101743     18421.214      0.0003384682   33846.82     
    367000   464.45257      419.28099      45.171583      309.14304      572.44065      0.40101743     18421.214      0.00036431059  36431.059    
    367250   466.88496      417.34846      49.536502      307.71815      951.17406      0.40101743     18421.214      0.00036177009  36177.009    
    367500   468.36172      419.98645      48.375264      309.66319      1007.9539      0.40101743     18421.214      0.00038874984  38874.984    
    367750   457.73483      399.74077      57.994057      294.7357       511.00686      0.40101743     18421.214      0.000374527    37452.7      
    368000   438.40073      392.472        45.928727      289.37631      609.674        0.40101743     18421.214      0.00035545126  35545.126    
    368250   480.49726      426.12166      54.375602      314.18678      902.37604      0.40101743     18421.214      0.00035772562  35772.562    
    368500   459.10293      401.56494      57.537993      296.08069      955.20009      0.40101743     18421.214      0.00040016286  40016.286    
    368750   464.65516      410.47269      54.182462      302.64853      853.364        0.40101743     18421.214      0.00037406376  37406.376    
    369000   480.36929      431.7908       48.578493      318.36674      749.8871       0.40101743     18421.214      0.00037242099  37242.099    
    369250   453.27434      386.00619      67.268152      284.60896      224.23859      0.40101743     18421.214      0.0003755936   37559.36     
    369500   463.11001      406.30264      56.807371      299.57388      1032.565       0.40101743     18421.214      0.00032797908  32797.908    
    369750   456.11303      401.26109      54.851945      295.85666      558.38845      0.40101743     18421.214      0.00038950458  38950.458    
    370000   489.08279      430.25368      58.829106      317.2334       999.72374      0.40101743     18421.214      0.00035973614  35973.614    
    370250   486.96702      429.17148      57.795539      316.43547      891.25165      0.40101743     18421.214      0.00034339404  34339.404    
    370500   464.73851      408.70871      56.029808      301.34792      662.80152      0.40101743     18421.214      0.00032933818  32933.818    
    370750   471.52239      412.01468      59.507708      303.78547      854.67284      0.40101743     18421.214      0.0003787186   37871.86     
    371000   469.55235      419.50153      50.050824      309.30565      576.67905      0.40101743     18421.214      0.00031316915  31316.915    
    371250   464.03958      408.87249      55.16709       301.46867      865.72925      0.40101743     18421.214      0.00034542096  34542.096    
    371500   473.98886      423.65143      50.337433      312.36544      873.5694       0.40101743     18421.214      0.00035977816  35977.816    
    371750   488.98499      422.98861      65.996387      311.87673      1202.0285      0.40101743     18421.214      0.00035567528  35567.528    
    372000   440.43557      388.95477      51.480792      286.783        412.54334      0.40101743     18421.214      0.00037008456  37008.456    
    372250   473.69745      425.19475      48.502698      313.50336      525.14118      0.40101743     18421.214      0.00037888716  37888.716    
    372500   507.69302      448.14368      59.549342      330.42399      1039.8395      0.40101743     18421.214      0.00037758887  37758.887    
    372750   446.82397      403.00514      43.818824      297.14258      979.44923      0.40101743     18421.214      0.00035904095  35904.095    
    373000   484.29615      425.44149      58.854662      313.68528      835.80757      0.40101743     18421.214      0.00038718709  38718.709    
    373250   500.80349      435.63424      65.169246      321.20057      411.27282      0.40101743     18421.214      0.00036191892  36191.892    
    373500   466.00278      417.62451      48.378274      307.92169      831.69368      0.40101743     18421.214      0.00034871629  34871.629    
    373750   463.40364      406.34848      57.055161      299.60768      1302.6032      0.40101743     18421.214      0.00036780697  36780.697    
    374000   487.79849      423.05677      64.741721      311.92698      905.24577      0.40101743     18421.214      0.00037074652  37074.652    
    374250   455.8551       397.8967       57.958403      293.37603      1078.895       0.40101743     18421.214      0.00038399887  38399.887    
    374500   482.98376      419.31169      63.672063      309.16568      1089.858       0.40101743     18421.214      0.00037160857  37160.857    
    374750   482.6033       421.32025      61.283051      310.64662      744.89049      0.40101743     18421.214      0.00039116386  39116.386    
    375000   479.4777       413.70485      65.772846      305.03166      805.27167      0.40101743     18421.214      0.0003324452   33244.52     
    375250   455.06657      399.22238      55.844186      294.35348      988.80526      0.40101743     18421.214      0.00033921737  33921.737    
    375500   447.7709       390.75884      57.012055      288.11318      443.07356      0.40101743     18421.214      0.00035402934  35402.934    
    375750   456.19005      398.33635      57.853705      293.7002       739.32645      0.40101743     18421.214      0.00040025425  40025.425    
    376000   470.55774      415.43821      55.119526      306.30969      1119.6341      0.40101743     18421.214      0.00034744863  34744.863    
    376250   452.75369      401.9829       50.770795      296.38886      978.54195      0.40101743     18421.214      0.00036028705  36028.705    
    376500   478.97395      411.37319      67.600764      303.31248      898.28252      0.40101743     18421.214      0.00036257488  36257.488    
    376750   454.26371      394.69826      59.565458      291.01777      737.36244      0.40101743     18421.214      0.00033139052  33139.052    
    377000   469.91766      414.179        55.738654      305.38126      672.86874      0.40101743     18421.214      0.00034217786  34217.786    
    377250   470.49977      412.80208      57.697692      304.36603      673.20398      0.40101743     18421.214      0.00036061664  36061.664    
    377500   447.81276      398.30589      49.50687       293.67774      611.94161      0.40101743     18421.214      0.00037607164  37607.164    
    377750   470.77803      413.68661      57.091421      305.01821      915.30539      0.40101743     18421.214      0.00036261433  36261.433    
    378000   489.0487       441.83887      47.209824      325.77535      982.60038      0.40101743     18421.214      0.00036660471  36660.471    
    378250   483.80491      426.97933      56.825581      314.81916      1174.1697      0.40101743     18421.214      0.0003583607   35836.07     
    378500   459.82844      407.448        52.380439      300.41838      781.41279      0.40101743     18421.214      0.00039431188  39431.188    
    378750   472.95731      405.37356      67.583754      298.88885      783.89733      0.40101743     18421.214      0.00036310019  36310.019    
    379000   478.48489      408.38391      70.100975      301.10844      842.68068      0.40101743     18421.214      0.00034555016  34555.016    
    379250   453.88902      397.73518      56.153836      293.25695      796.74378      0.40101743     18421.214      0.00039356787  39356.787    
    379500   460.44723      402.5398       57.907425      296.79948      806.64791      0.40101743     18421.214      0.00035648778  35648.778    
    379750   460.35443      396.00204      64.352388      291.97907      1001.935       0.40101743     18421.214      0.00037430775  37430.775    
    380000   459.73715      400.15891      59.57824       295.044        958.66771      0.40101743     18421.214      0.00037355314  37355.314    
    380250   442.06301      385.56865      56.494356      284.28636      609.26988      0.40101743     18421.214      0.00036069675  36069.675    
    380500   481.0528       425.44505      55.607748      313.68791      686.21123      0.40101743     18421.214      0.00036677315  36677.315    
    380750   474.40851      414.74889      59.659616      305.80145      1044.2511      0.40101743     18421.214      0.00036706453  36706.453    
    381000   488.49509      421.02278      67.472311      310.42729      941.08797      0.40101743     18421.214      0.00036307971  36307.971    
    381250   441.83026      395.63266      46.197598      291.70672      424.58973      0.40101743     18421.214      0.00036362843  36362.843    
    381500   459.77672      409.03726      50.739461      301.59016      764.02844      0.40101743     18421.214      0.00037933208  37933.208    
    381750   474.19804      414.28634      59.911697      305.4604       213.28006      0.40101743     18421.214      0.00040112519  40112.519    
    382000   471.01476      417.85235      53.16241       308.08968      1163.6456      0.40101743     18421.214      0.00034497772  34497.772    
    382250   475.49151      423.09483      52.396686      311.95505      808.68627      0.40101743     18421.214      0.00036436694  36436.694    
    382500   487.21489      428.40035      58.814548      315.8669       483.21007      0.40101743     18421.214      0.00038193113  38193.113    
    382750   463.31251      399.16616      64.146348      294.31203      598.43443      0.40101743     18421.214      0.00035252118  35252.118    
    383000   490.71494      428.67822      62.036716      316.07178      869.73794      0.40101743     18421.214      0.0003968391   39683.91     
    383250   492.41013      427.77332      64.636814      315.40458      776.65006      0.40101743     18421.214      0.00036337858  36337.858    
    383500   457.29619      400.33729      56.958902      295.17553      855.72182      0.40101743     18421.214      0.00036878229  36878.229    
    383750   473.33953      417.88656      55.452966      308.11491      404.70441      0.40101743     18421.214      0.0004116693   41166.93     
    384000   457.18134      401.01767      56.163669      295.67718      1260.052       0.40101743     18421.214      0.00035629862  35629.862    
    384250   485.37407      426.04811      59.32596       314.13255      831.45956      0.40101743     18421.214      0.00038662038  38662.038    
    384500   457.74381      409.55836      48.185442      301.97438      693.68906      0.40101743     18421.214      0.00036510759  36510.759    
    384750   475.47397      412.10188      63.372097      303.84976      916.72972      0.40101743     18421.214      0.00039236995  39236.995    
    385000   468.91842      412.21949      56.698931      303.93647      881.3178       0.40101743     18421.214      0.00034458142  34458.142    
    385250   478.90372      409.90786      68.995856      302.23207      1038.6779      0.40101743     18421.214      0.000352295    35229.5      
    385500   451.32349      398.41162      52.911863      293.7557       889.38991      0.40101743     18421.214      0.0003409331   34093.31     
    385750   475.71279      415.43067      60.282125      306.30413      989.64957      0.40101743     18421.214      0.00037870932  37870.932    
    386000   490.72705      423.97521      66.751839      312.60417      708.77624      0.40101743     18421.214      0.00035923878  35923.878    
    386250   446.07838      395.4002       50.678176      291.53533      978.97924      0.40101743     18421.214      0.00038657437  38657.437    
    386500   456.35175      403.31936      53.03239       297.37425      548.43289      0.40101743     18421.214      0.00039323027  39323.027    
    386750   462.17991      397.55711      64.622806      293.12565      1076.5136      0.40101743     18421.214      0.00035257418  35257.418    
    387000   477.73159      411.06701      66.664576      303.08673      420.34045      0.40101743     18421.214      0.0003733851   37338.51     
    387250   474.51457      416.75585      57.758719      307.28121      668.2805       0.40101743     18421.214      0.0003825915   38259.15     
    387500   463.07175      398.1563       64.915446      293.56745      820.53436      0.40101743     18421.214      0.00035580916  35580.916    
    387750   475.22887      420.71628      54.512598      310.2013       560.5235       0.40101743     18421.214      0.00039411365  39411.365    
    388000   447.21925      395.03568      52.183573      291.26656      957.7348       0.40101743     18421.214      0.00034946322  34946.322    
    388250   463.20709      412.95459      50.252506      304.47848      1372.0201      0.40101743     18421.214      0.00033974997  33974.997    
    388500   482.29493      422.56231      59.732614      311.56242      680.57992      0.40101743     18421.214      0.00034172152  34172.152    
    388750   463.06694      414.67785      48.389095      305.74907      616.53909      0.40101743     18421.214      0.00034572367  34572.367    
    389000   431.36262      378.92064      52.441982      279.38466      773.19985      0.40101743     18421.214      0.00034812157  34812.157    
    389250   447.98735      386.78022      61.207134      285.17966      731.9159       0.40101743     18421.214      0.00037535827  37535.827    
    389500   445.36923      386.26788      59.101352      284.80191      762.79598      0.40101743     18421.214      0.00036701993  36701.993    
    389750   465.421        408.00315      57.41785       300.82769      1242.1545      0.40101743     18421.214      0.00033781044  33781.044    
    390000   446.56075      396.62956      49.931189      292.44176      847.95379      0.40101743     18421.214      0.0003561124   35611.24     
    390250   466.77869      411.9669       54.811788      303.75023      797.43657      0.40101743     18421.214      0.00037423229  37423.229    
    390500   455.49881      402.40094      53.097869      296.69709      56.47646       0.40101743     18421.214      0.0004135775   41357.75     
    390750   481.75187      424.54206      57.209817      313.02212      861.49308      0.40101743     18421.214      0.00033406766  33406.766    
    391000   449.93812      391.42816      58.509952      288.60667      363.08132      0.40101743     18421.214      0.00037545331  37545.331    
    391250   462.77695      403.34844      59.428501      297.3957       1170.3536      0.40101743     18421.214      0.00036383576  36383.576    
    391500   482.82221      428.9593       53.862916      316.27902      793.14772      0.40101743     18421.214      0.00037911644  37911.644    
    391750   482.62864      422.92721      59.701428      311.83146      895.78915      0.40101743     18421.214      0.00035135172  35135.172    
    392000   440.19766      379.07522      61.122439      279.49864      968.73191      0.40101743     18421.214      0.0003690773   36907.73     
    392250   476.09032      414.70849      61.381829      305.77166      1214.2539      0.40101743     18421.214      0.00039099423  39099.423    
    392500   486.15871      438.62697      47.531736      323.40716      1261.2391      0.40101743     18421.214      0.00035810874  35810.874    
    392750   470.78546      413.39149      57.39397       304.80061      1156.9507      0.40101743     18421.214      0.00035418192  35418.192    
    393000   488.94968      425.16236      63.787318      313.47947      612.82631      0.40101743     18421.214      0.00037288734  37288.734    
    393250   486.09125      431.61676      54.474497      318.23841      871.17076      0.40101743     18421.214      0.00038004093  38004.093    
    393500   474.92005      412.45114      62.46891       304.10728      937.55021      0.40101743     18421.214      0.00040206973  40206.973    
    393750   464.30891      402.87002      61.438895      297.04295      883.67399      0.40101743     18421.214      0.00036396413  36396.413    
    394000   498.02175      450.6912       47.330554      332.30233      967.75612      0.40101743     18421.214      0.00034764663  34764.663    
    394250   459.46113      403.55741      55.903721      297.54977      551.39904      0.40101743     18421.214      0.00035953541  35953.541    
    394500   488.6668       431.24766      57.419147      317.96627      1157.9414      0.40101743     18421.214      0.00030798527  30798.527    
    394750   472.13317      418.2362       53.896967      308.3727       1050.3925      0.40101743     18421.214      0.00034536936  34536.936    
    395000   481.72362      426.24984      55.473779      314.2813       1333.1565      0.40101743     18421.214      0.00033150539  33150.539    
    395250   463.79118      413.03011      50.761067      304.53416      1009.7671      0.40101743     18421.214      0.00033908179  33908.179    
    395500   452.91734      399.61336      53.303982      294.64176      729.9307       0.40101743     18421.214      0.000351177    35117.7      
    395750   461.29161      400.67664      60.614969      295.42573      565.59455      0.40101743     18421.214      0.00039464192  39464.192    
    396000   428.15165      374.59073      53.560922      276.19215      532.26674      0.40101743     18421.214      0.00036187291  36187.291    
    396250   456.56716      398.12252      58.444631      293.54254      841.29557      0.40101743     18421.214      0.0003282826   32828.26     
    396500   488.2577       431.9358       56.321892      318.47365      1021.5481      0.40101743     18421.214      0.00037624666  37624.666    
    396750   486.51556      427.97635      58.539214      315.55428      206.7525       0.40101743     18421.214      0.00038680999  38680.999    
    397000   481.4381       421.62695      59.811145      310.87276      693.841        0.40101743     18421.214      0.00038398021  38398.021    
    397250   441.94153      383.65557      58.285964      282.87581      604.04587      0.40101743     18421.214      0.0003463496   34634.96     
    397500   480.07353      416.99948      63.074049      307.46084      1108.3969      0.40101743     18421.214      0.00037386673  37386.673    
    397750   460.20858      405.70863      54.499958      299.1359       792.65812      0.40101743     18421.214      0.00035295311  35295.311    
    398000   450.52437      393.06946      57.454904      289.81683      985.44992      0.40101743     18421.214      0.00036685718  36685.718    
    398250   435.84805      370.33219      65.515856      273.05225      348.98128      0.40101743     18421.214      0.00035422541  35422.541    
    398500   478.82851      416.75725      62.071262      307.28224      1121.4075      0.40101743     18421.214      0.00036884915  36884.915    
    398750   471.63512      416.95029      54.684829      307.42458      1049.4379      0.40101743     18421.214      0.00034307244  34307.244    
    399000   457.5514       403.1359       54.415497      297.23899      862.07807      0.40101743     18421.214      0.00035754294  35754.294    
    399250   475.59835      415.15912      60.439221      306.10392      1008.7435      0.40101743     18421.214      0.00035456932  35456.932    
    399500   484.87943      422.34345      62.535974      311.40105      1122.4711      0.40101743     18421.214      0.00038324388  38324.388    
    399750   480.20146      425.54249      54.658969      313.75975      1115.053       0.40101743     18421.214      0.00040518121  40518.121    
    400000   481.71286      424.53515      57.177708      313.01702      1187.1604      0.40101743     18421.214      0.00038662318  38662.318    
    400250   467.03493      415.54754      51.487397      306.3903       470.22792      0.40101743     18421.214      0.00036999229  36999.229    
    400500   448.38437      395.22515      53.159218      291.40626      1340.8692      0.40101743     18421.214      0.00041107327  41107.327    
    400750   471.56841      412.71315      58.855257      304.30046      1085.2175      0.40101743     18421.214      0.00036571471  36571.471    
    401000   457.14741      411.91041      45.236999      303.70858      849.62946      0.40101743     18421.214      0.00032699599  32699.599    
    401250   488.74082      434.40732      54.333503      320.29594      879.39325      0.40101743     18421.214      0.0003784573   37845.73     
    401500   436.36834      384.33556      52.032782      283.37718      388.9999       0.40101743     18421.214      0.00034269965  34269.965    
    401750   438.92951      385.59366      53.335853      284.30479      785.19684      0.40101743     18421.214      0.00035950279  35950.279    
    402000   480.28844      419.66707      60.621369      309.4277       924.6787       0.40101743     18421.214      0.0003597227   35972.27     
    402250   469.99694      407.6831       62.313836      300.59172      822.87181      0.40101743     18421.214      0.00037577556  37577.556    
    402500   435.08925      388.34292      46.746336      286.33187      535.73674      0.40101743     18421.214      0.00033224281  33224.281    
    402750   450.14581      391.77784      58.36797       288.8645       969.68265      0.40101743     18421.214      0.00035442936  35442.936    
    403000   466.61193      412.36163      54.250298      304.04128      675.7789       0.40101743     18421.214      0.00034953222  34953.222    
    403250   476.67417      414.68148      61.992688      305.75174      892.38177      0.40101743     18421.214      0.00034543147  34543.147    
    403500   456.31977      399.81638      56.503392      294.79145      298.58301      0.40101743     18421.214      0.0003893347   38933.47     
    403750   445.32858      401.05976      44.268824      295.70821      675.54084      0.40101743     18421.214      0.00034723243  34723.243    
    404000   478.82297      427.80657      51.016393      315.4291       641.34451      0.40101743     18421.214      0.00035038478  35038.478    
    404250   438.96035      383.23277      55.727575      282.56407      811.6875       0.40101743     18421.214      0.00037072656  37072.656    
    404500   461.09175      399.34273      61.749024      294.44222      888.21377      0.40101743     18421.214      0.00034483764  34483.764    
    404750   473.27769      420.2649       53.012789      309.86849      709.43759      0.40101743     18421.214      0.00035321364  35321.364    
    405000   455.8832       398.83284      57.050359      294.06627      1116.7014      0.40101743     18421.214      0.00038004372  38004.372    
    405250   450.29864      402.62432      47.67432       296.8618       815.41765      0.40101743     18421.214      0.00038951667  38951.667    
    405500   473.72102      416.35429      57.366728      306.98514      936.23535      0.40101743     18421.214      0.00036079343  36079.343    
    405750   444.16749      390.26443      53.903053      287.74864      722.56107      0.40101743     18421.214      0.00033756567  33756.567    
    406000   469.50754      408.90187      60.605671      301.49034      622.14437      0.40101743     18421.214      0.00036030874  36030.874    
    406250   460.49204      410.10844      50.383603      302.37996      888.07651      0.40101743     18421.214      0.00032328891  32328.891    
    406500   478.01056      419.94044      58.070113      309.62927      830.64573      0.40101743     18421.214      0.00034617875  34617.875    
    406750   453.34329      405.62906      47.714232      299.07724      705.40388      0.40101743     18421.214      0.00035437761  35437.761    
    407000   491.07597      433.09361      57.98236       319.32732      1254.9151      0.40101743     18421.214      0.00039792838  39792.838    
    407250   481.7003       417.5967       64.103595      307.90119      1339.4595      0.40101743     18421.214      0.00038747913  38747.913    
    407500   457.65378      409.04358      48.610196      301.59482      1038.8444      0.40101743     18421.214      0.00037673839  37673.839    
    407750   455.78255      396.52244      59.260112      292.36277      668.34066      0.40101743     18421.214      0.00038013998  38013.998    
    408000   466.17027      409.36264      56.807636      301.83007      898.28499      0.40101743     18421.214      0.00034940229  34940.229    
    408250   471.24046      418.36891      52.871551      308.47054      1300.4205      0.40101743     18421.214      0.00034766101  34766.101    
    408500   455.61791      403.94443      51.673485      297.83513      644.77061      0.40101743     18421.214      0.00035180455  35180.455    
    408750   490.7784       427.9721       62.806305      315.55114      989.01404      0.40101743     18421.214      0.00036521777  36521.777    
    409000   488.87793      434.22109      54.656836      320.15863      712.37821      0.40101743     18421.214      0.00036644176  36644.176    
    409250   471.94378      413.07764      58.866142      304.5692       1242.0038      0.40101743     18421.214      0.00034975694  34975.694    
    409500   486.46593      423.06554      63.40039       311.93346      1131.7469      0.40101743     18421.214      0.00036373592  36373.592    
    409750   449.79406      385.46705      64.327012      284.21145      926.92691      0.40101743     18421.214      0.0003662201   36622.01     
    410000   482.44821      424.06024      58.387972      312.66686      921.94835      0.40101743     18421.214      0.00033095375  33095.375    
    410250   463.93612      406.21892      57.717193      299.51215      538.80917      0.40101743     18421.214      0.00037921398  37921.398    
    410500   478.40607      428.20889      50.197177      315.72574      1494.4654      0.40101743     18421.214      0.0003536062   35360.62     
    410750   473.6487       413.28307      60.365626      304.72067      985.52531      0.40101743     18421.214      0.00042224203  42224.203    
    411000   480.18561      433.98707      46.19855       319.98608      1178.9574      0.40101743     18421.214      0.00039472239  39472.239    
    411250   466.381        410.00519      56.375809      302.30383      582.68944      0.40101743     18421.214      0.00031915783  31915.783    
    411500   486.54951      437.81238      48.73713       322.80655      1066.7523      0.40101743     18421.214      0.0003874724   38747.24     
    411750   469.6777       412.19708      57.480625      303.91995      1198.5238      0.40101743     18421.214      0.00034598642  34598.642    
    412000   487.64422      441.67439      45.96983       325.65408      921.27348      0.40101743     18421.214      0.00037011139  37011.139    
    412250   468.32138      401.35139      66.969995      295.92324      849.9512       0.40101743     18421.214      0.00035592741  35592.741    
    412500   489.70253      435.05908      54.64345       320.7765       1093.7438      0.40101743     18421.214      0.00038845024  38845.024    
    412750   479.46696      428.32467      51.142288      315.8111       782.91261      0.40101743     18421.214      0.00035749776  35749.776    
    413000   456.44547      403.90503      52.540445      297.80608      1128.1048      0.40101743     18421.214      0.00037337652  37337.652    
    413250   463.51013      412.94301      50.567113      304.46994      813.34792      0.40101743     18421.214      0.00036271228  36271.228    
    413500   476.03695      418.84064      57.196315      308.81836      1008.9571      0.40101743     18421.214      0.00038160173  38160.173    
    413750   476.50154      418.7492       57.752344      308.75094      1155.7804      0.40101743     18421.214      0.00036132689  36132.689    
    414000   437.27134      380.60958      56.661766      280.62995      914.02801      0.40101743     18421.214      0.00039073525  39073.525    
    414250   463.53663      406.08318      57.453452      299.41207      926.86492      0.40101743     18421.214      0.00034064239  34064.239    
    414500   452.8384       390.53142      62.306983      287.94549      857.24597      0.40101743     18421.214      0.00036261199  36261.199    
    414750   480.55303      417.09205      63.460981      307.5291       362.83185      0.40101743     18421.214      0.00038686232  38686.232    
    415000   473.78537      420.08697      53.698397      309.73731      793.61479      0.40101743     18421.214      0.00038212736  38212.736    
    415250   439.35727      383.78618      55.571093      282.97211      1246.4276      0.40101743     18421.214      0.00037740919  37740.919    
    415500   433.72335      385.65918      48.064169      284.35311      420.60328      0.40101743     18421.214      0.00034310274  34310.274    
    415750   479.48638      425.76549      53.720891      313.92417      997.384        0.40101743     18421.214      0.00034791678  34791.678    
    416000   472.2387       412.51162      59.727087      304.15186      914.64343      0.40101743     18421.214      0.00038137564  38137.564    
    416250   448.20322      403.91761      44.285617      297.81535      1012.2024      0.40101743     18421.214      0.00034433574  34433.574    
    416500   459.19643      407.0296       52.166832      300.10988      961.62858      0.40101743     18421.214      0.00037550752  37550.752    
    416750   435.97747      383.19844      52.779034      282.53876      784.41099      0.40101743     18421.214      0.00033117778  33117.778    
    417000   457.72973      398.0008       59.728931      293.45279      847.90863      0.40101743     18421.214      0.00035112777  35112.777    
    417250   476.16512      417.4799       58.685221      307.81507      1113.3714      0.40101743     18421.214      0.00038386493  38386.493    
    417500   496.416        437.15521      59.260791      322.322        1068.186       0.40101743     18421.214      0.00038881629  38881.629    
    417750   481.2577       425.54556      55.712136      313.76201      1166.2889      0.40101743     18421.214      0.00037935746  37935.746    
    418000   462.40443      406.29586      56.108568      299.56888      727.68176      0.40101743     18421.214      0.00033815803  33815.803    
    418250   457.37554      402.93179      54.443743      297.0885       1177.3302      0.40101743     18421.214      0.0003464949   34649.49     
    418500   452.48295      395.3856       57.097352      291.52456      398.27999      0.40101743     18421.214      0.00033514768  33514.768    
    418750   465.64033      406.11768      59.522649      299.4375       658.58326      0.40101743     18421.214      0.00035393285  35393.285    
    419000   464.03186      403.50507      60.526793      297.51119      922.65447      0.40101743     18421.214      0.00034115378  34115.378    
    419250   480.20776      411.15665      69.051113      303.15282      774.00553      0.40101743     18421.214      0.00037462153  37462.153    
    419500   479.53774      423.28228      56.25546       312.09326      800.6923       0.40101743     18421.214      0.00036923788  36923.788    
    419750   452.43443      401.96665      50.467776      296.37688      691.2393       0.40101743     18421.214      0.00038924832  38924.832    
    420000   455.49385      399.23302      56.260832      294.36133      729.07962      0.40101743     18421.214      0.00038431896  38431.896    
    420250   480.23124      426.37058      53.86066       314.37032      908.05894      0.40101743     18421.214      0.00037458987  37458.987    
    420500   457.46475      398.33543      59.129321      293.69952      591.18462      0.40101743     18421.214      0.00035497338  35497.338    
    420750   486.68044      424.41292      62.267519      312.9269       361.13386      0.40101743     18421.214      0.00036079774  36079.774    
    421000   456.28316      396.99264      59.290515      292.70946      450.66659      0.40101743     18421.214      0.00037615538  37615.538    
    421250   464.91387      406.18851      58.725358      299.48973      853.45051      0.40101743     18421.214      0.00035392058  35392.058    
    421500   480.37026      434.10035      46.269909      320.06961      751.60035      0.40101743     18421.214      0.0003810997   38109.97     
    421750   459.51236      398.53816      60.974196      293.849        182.66026      0.40101743     18421.214      0.00033219005  33219.005    
    422000   475.20029      420.67025      54.530047      310.16736      514.10793      0.40101743     18421.214      0.00035668018  35668.018    
    422250   495.48708      426.92865      68.558428      314.78179      701.69627      0.40101743     18421.214      0.00039548533  39548.533    
    422500   449.89023      396.48115      53.409084      292.33233      970.99793      0.40101743     18421.214      0.00035950803  35950.803    
    422750   459.38187      401.73829      57.643577      296.20851      1004.1804      0.40101743     18421.214      0.00037804411  37804.411    
    423000   465.56247      402.45751      63.104965      296.7388       954.94276      0.40101743     18421.214      0.00037802705  37802.705    
    423250   458.75977      404.28805      54.471721      298.08849      726.672        0.40101743     18421.214      0.00036780435  36780.435    
    423500   473.21383      420.3943       52.819533      309.9639       869.43588      0.40101743     18421.214      0.00037958288  37958.288    
    423750   446.12163      401.46136      44.660265      296.00433      1147.5161      0.40101743     18421.214      0.00033846559  33846.559    
    424000   463.47391      411.36892      52.104994      303.30933      1011.5949      0.40101743     18421.214      0.00037715856  37715.856    
    424250   494.87726      443.5784       51.298855      327.05794      866.70128      0.40101743     18421.214      0.00035856942  35856.942    
    424500   475.32327      421.84537      53.477905      311.0338       759.63936      0.40101743     18421.214      0.00035292623  35292.623    
    424750   483.0408       419.56407      63.476733      309.35176      600.42763      0.40101743     18421.214      0.00035980755  35980.755    
    425000   466.6879       414.4276       52.260298      305.56455      805.29461      0.40101743     18421.214      0.00036907914  36907.914    
    425250   484.56173      426.40881      58.152922      314.39851      1191.7319      0.40101743     18421.214      0.00038801022  38801.022    
    425500   443.73574      386.03039      57.705346      284.6268       621.55103      0.40101743     18421.214      0.00037045106  37045.106    
    425750   462.44252      404.2015       58.241021      298.02468      835.22224      0.40101743     18421.214      0.00036782376  36782.376    
    426000   474.39443      405.71096      68.68347       299.13762      1027.8655      0.40101743     18421.214      0.0003917046   39170.46     
    426250   462.85562      408.64547      54.210152      301.30129      831.36909      0.40101743     18421.214      0.00035674992  35674.992    
    426500   451.55233      400.43053      51.121806      295.24427      705.29598      0.40101743     18421.214      0.00031105139  31105.139    
    426750   442.49156      384.02554      58.466019      283.14859      718.11043      0.40101743     18421.214      0.00035207285  35207.285    
    427000   464.09592      412.89747      51.198448      304.43636      427.58688      0.40101743     18421.214      0.00039218543  39218.543    
    427250   460.40202      402.29107      58.110946      296.61608      1078.2998      0.40101743     18421.214      0.00035006487  35006.487    
    427500   476.99355      417.77944      59.214109      308.03592      711.2015       0.40101743     18421.214      0.00037775652  37775.652    
    427750   482.11086      413.92713      68.183723      305.19555      999.06076      0.40101743     18421.214      0.00035682878  35682.878    
    428000   450.68696      397.03218      53.654771      292.73862      731.22049      0.40101743     18421.214      0.00034894914  34894.914    
    428250   464.21611      405.46179      58.754314      298.95391      871.13326      0.40101743     18421.214      0.00036869801  36869.801    
    428500   456.49995      391.70819      64.79176       288.81315      734.91539      0.40101743     18421.214      0.00037926557  37926.557    
    428750   465.26171      406.88157      58.380137      300.00074      496.08817      0.40101743     18421.214      0.00036690824  36690.824    
    429000   473.82859      419.88541      53.943183      309.58869      928.57591      0.40101743     18421.214      0.00035847729  35847.729    
    429250   447.65764      391.69875      55.958887      288.80618      690.91008      0.40101743     18421.214      0.00039366433  39366.433    
    429500   419.61542      366.62426      52.991158      270.31833      354.25921      0.40101743     18421.214      0.00032706861  32706.861    
    429750   490.66459      424.2404       66.424193      312.7997       812.24178      0.40101743     18421.214      0.00034290179  34290.179    
    430000   510.02145      447.39916      62.622287      329.87505      1123.8474      0.40101743     18421.214      0.00039471911  39471.911    
    430250   463.11568      407.85887      55.256803      300.72132      1237.9543      0.40101743     18421.214      0.00034336122  34336.122    
    430500   473.082        410.31326      62.768744      302.53098      676.18965      0.40101743     18421.214      0.0003938095   39380.95     
    430750   472.59846      418.201        54.397459      308.34675      776.57873      0.40101743     18421.214      0.00033128221  33128.221    
    431000   446.14938      397.02102      49.128355      292.73039      715.29029      0.40101743     18421.214      0.00036703762  36703.762    
    431250   451.68585      398.06191      53.62394       293.49785      595.58227      0.40101743     18421.214      0.00039586205  39586.205    
    431500   480.07546      416.76588      63.30958       307.28861      971.22302      0.40101743     18421.214      0.00034973333  34973.333    
    431750   478.37055      419.86999      58.500558      309.57732      780.58569      0.40101743     18421.214      0.00035679601  35679.601    
    432000   482.65662      422.93289      59.723731      311.83565      1299.0361      0.40101743     18421.214      0.00037368062  37368.062    
    432250   480.93119      422.23974      58.691443      311.32458      862.30236      0.40101743     18421.214      0.00035996194  35996.194    
    432500   463.45009      410.77956      52.670535      302.87479      426.72611      0.40101743     18421.214      0.00035144571  35144.571    
    432750   453.70281      398.51939      55.183427      293.83516      681.83437      0.40101743     18421.214      0.00032137217  32137.217    
    433000   445.32006      385.95269      59.36737       284.56951      487.64137      0.40101743     18421.214      0.00033853049  33853.049    
    433250   487.24155      415.62849      71.613057      306.44999      1256.3928      0.40101743     18421.214      0.00036867839  36867.839    
    433500   481.30298      427.17278      54.130204      314.96179      778.97075      0.40101743     18421.214      0.00039133361  39133.361    
    433750   448.16839      397.03826      51.130129      292.7431       872.14542      0.40101743     18421.214      0.00039318598  39318.598    
    434000   485.10825      425.80417      59.304078      313.95269      766.84056      0.40101743     18421.214      0.00035785867  35785.867    
    434250   463.56313      403.7392       59.82393       297.68381      791.58895      0.40101743     18421.214      0.00035959836  35959.836    
    434500   446.33621      395.87828      50.457924      291.88782      661.38667      0.40101743     18421.214      0.0003658479   36584.79     
    434750   456.20133      403.87821      52.323118      297.78631      826.29347      0.40101743     18421.214      0.00034937089  34937.089    
    435000   496.6542       427.37238      69.281811      315.10896      949.69424      0.40101743     18421.214      0.000374674    37467.4      
    435250   488.82555      433.48547      55.340077      319.61625      660.14262      0.40101743     18421.214      0.00037920259  37920.259    
    435500   479.33027      420.80707      58.523194      310.26825      654.57014      0.40101743     18421.214      0.00037692681  37692.681    
    435750   461.25171      406.78869      54.463026      299.93225      764.21065      0.40101743     18421.214      0.00038951603  38951.603    
    436000   472.87437      425.0947       47.779664      313.42959      1076.335       0.40101743     18421.214      0.00034585678  34585.678    
    436250   491.86442      426.12311      65.741315      314.18785      641.96011      0.40101743     18421.214      0.00032276159  32276.159    
    436500   446.69879      397.62337      49.075413      293.17451      919.32082      0.40101743     18421.214      0.00037865623  37865.623    
    436750   482.87923      430.76061      52.118619      317.60716      1246.6856      0.40101743     18421.214      0.00037605422  37605.422    
    437000   445.07977      395.43001      49.649759      291.5573       1050.3145      0.40101743     18421.214      0.00033982572  33982.572    
    437250   451.57308      390.69173      60.881349      288.06369      988.6375       0.40101743     18421.214      0.00038435788  38435.788    
    437500   454.71172      393.99126      60.720456      290.49649      870.97634      0.40101743     18421.214      0.00031951985  31951.985    
    437750   444.9046       397.72094      47.183669      293.24644      746.46357      0.40101743     18421.214      0.00036207461  36207.461    
    438000   482.91061      428.88286      54.027751      316.22266      871.05702      0.40101743     18421.214      0.00034060055  34060.055    
    438250   465.93047      405.96475      59.965724      299.32475      1294.3595      0.40101743     18421.214      0.00035008248  35008.248    
    438500   492.34046      426.72469      65.615766      314.63141      764.71663      0.40101743     18421.214      0.00036984902  36984.902    
    438750   477.48002      416.64053      60.839486      307.19619      947.98268      0.40101743     18421.214      0.00035607613  35607.613    
    439000   448.87033      394.05906      54.811274      290.54648      953.03269      0.40101743     18421.214      0.00039415255  39415.255    
    439250   493.05071      425.94299      67.107722      314.05505      1198.8945      0.40101743     18421.214      0.00034317263  34317.263    
    439500   477.09516      418.91028      58.184872      308.86971      670.8359       0.40101743     18421.214      0.00034888266  34888.266    
    439750   463.60778      393.82993      69.777852      290.37754      415.53544      0.40101743     18421.214      0.00035537498  35537.498    
    440000   467.40254      413.49826      53.904273      304.87934      607.79656      0.40101743     18421.214      0.00036843651  36843.651    
    440250   459.91353      401.50798      58.405557      296.03869      758.18381      0.40101743     18421.214      0.00038662094  38662.094    
    440500   444.85568      394.39449      50.461187      290.7938       880.99255      0.40101743     18421.214      0.00034614066  34614.066    
    440750   461.92401      394.66529      67.258718      290.99346      1194.2803      0.40101743     18421.214      0.00034692887  34692.887    
    441000   456.61775      399.05758      57.560166      294.23198      1028.758       0.40101743     18421.214      0.0003114758   31147.58     
    441250   458.94612      403.2834       55.662727      297.34774      1012.7467      0.40101743     18421.214      0.000352427    35242.7      
    441500   466.60213      403.00332      63.598808      297.14124      842.34155      0.40101743     18421.214      0.00033677634  33677.634    
    441750   467.09946      400.62588      66.473581      295.38831      569.62289      0.40101743     18421.214      0.00033191327  33191.327    
    442000   451.85235      398.80447      53.047882      294.04535      623.47654      0.40101743     18421.214      0.0003815492   38154.92     
    442250   470.96622      409.94876      61.017462      302.26223      917.58959      0.40101743     18421.214      0.00033780388  33780.388    
    442500   492.44364      438.36139      54.082244      323.21135      976.47107      0.40101743     18421.214      0.00036997809  36997.809    
    442750   470.80383      416.61998      54.183856      307.18103      783.51803      0.40101743     18421.214      0.00037806941  37806.941    
    443000   466.28483      411.33346      54.951375      303.28319      1295.7525      0.40101743     18421.214      0.00039816371  39816.371    
    443250   511.74109      442.8149       68.926191      326.49499      831.47857      0.40101743     18421.214      0.00035084805  35084.805    
    443500   463.36075      398.53232      64.828432      293.84469      322.66505      0.40101743     18421.214      0.00037599835  37599.835    
    443750   494.58911      438.37533      56.213779      323.22162      912.10657      0.40101743     18421.214      0.00035021516  35021.516    
    444000   500.21923      432.23021      67.989016      318.69072      385.128        0.40101743     18421.214      0.00035409305  35409.305    
    444250   487.04432      429.89453      57.149794      316.96858      1093.9225      0.40101743     18421.214      0.00034975851  34975.851    
    444500   474.94589      409.26066      65.685225      301.75488      1198.8277      0.40101743     18421.214      0.00033439193  33439.193    
    444750   438.60939      381.536        57.07339       281.31302      816.07818      0.40101743     18421.214      0.00035838108  35838.108    
    445000   451.23859      392.35086      58.887732      289.28699      933.86642      0.40101743     18421.214      0.00035365051  35365.051    
    445250   459.53372      410.49169      49.042029      302.66254      1137.6303      0.40101743     18421.214      0.00034578727  34578.727    
    445500   454.26152      405.63686      48.624662      299.08299      1142.9804      0.40101743     18421.214      0.00036212108  36212.108    
    445750   460.4697       402.62214      57.847562      296.86018      906.72574      0.40101743     18421.214      0.00031652558  31652.558    
    446000   463.92429      402.24653      61.677758      296.58324      484.10218      0.40101743     18421.214      0.00032932842  32932.842    
    446250   498.78923      437.78461      61.004618      322.78608      1154.3829      0.40101743     18421.214      0.00038683615  38683.615    
    446500   504.17164      437.76683      66.404813      322.77297      1039.5148      0.40101743     18421.214      0.00038402283  38402.283    
    446750   473.98148      416.42737      57.554112      307.03902      1190.9948      0.40101743     18421.214      0.00033483256  33483.256    
    447000   465.96115      414.812        51.149147      305.84798      873.62444      0.40101743     18421.214      0.00037666491  37666.491    
    447250   445.88058      392.91899      52.961595      289.70588      599.92549      0.40101743     18421.214      0.00035458789  35458.789    
    447500   442.17754      382.93306      59.244481      282.34309      538.80756      0.40101743     18421.214      0.00036735433  36735.433    
    447750   438.2802       384.98676      53.293443      283.85732      1321.0057      0.40101743     18421.214      0.00038127151  38127.151    
    448000   480.89081      431.80466      49.086152      318.37696      796.9099       0.40101743     18421.214      0.00037421751  37421.751    
    448250   468.78399      397.56571      71.218278      293.13199      894.97376      0.40101743     18421.214      0.00035744904  35744.904    
    448500   450.06101      394.26896      55.792055      290.70124      770.50598      0.40101743     18421.214      0.00038390292  38390.292    
    448750   470.38367      419.18064      51.203031      309.06905      1221.191       0.40101743     18421.214      0.00032749586  32749.586    
    449000   460.35201      401.75429      58.597722      296.22031      1039.9438      0.40101743     18421.214      0.00033690664  33690.664    
    449250   457.46262      397.22958      60.233044      292.88416      452.42966      0.40101743     18421.214      0.00037177413  37177.413    
    449500   469.89714      410.74148      59.155669      302.84671      956.418        0.40101743     18421.214      0.00033820166  33820.166    
    449750   496.33931      434.47296      61.866354      320.34434      822.25833      0.40101743     18421.214      0.00037517022  37517.022    
    450000   450.78165      388.5319       62.249748      286.47121      978.11387      0.40101743     18421.214      0.00036109294  36109.294    
    450250   441.70045      389.71497      51.985483      287.34351      1107.6362      0.40101743     18421.214      0.0003778525   37785.25     
    450500   474.09657      419.94833      54.148247      309.63508      712.40973      0.40101743     18421.214      0.00030710524  30710.524    
    450750   459.71843      404.39978      55.318641      298.17087      527.11495      0.40101743     18421.214      0.00035555134  35555.134    
    451000   465.44292      403.42463      62.018292      297.45187      690.74141      0.40101743     18421.214      0.00032828191  32828.191    
    451250   452.89469      386.29028      66.604414      284.81842      538.49545      0.40101743     18421.214      0.0003923729   39237.29     
    451500   482.32721      422.68318      59.644031      311.65154      728.11994      0.40101743     18421.214      0.00036060537  36060.537    
    451750   473.65733      410.54789      63.109442      302.70398      493.12796      0.40101743     18421.214      0.00040455897  40455.897    
    452000   497.07154      447.15005      49.921485      329.69138      1380.0191      0.40101743     18421.214      0.00035619599  35619.599    
    452250   501.56938      445.02336      56.546015      328.12333      293.29975      0.40101743     18421.214      0.0003515799   35157.99     
    452500   458.38468      405.00375      53.380929      298.61619      933.22939      0.40101743     18421.214      0.00036908849  36908.849    
    452750   473.77215      424.77011      49.002033      313.19027      892.45676      0.40101743     18421.214      0.00032481007  32481.007    
    453000   436.44764      388.55344      47.894203      286.48709      914.90814      0.40101743     18421.214      0.00034654333  34654.333    
    453250   464.85865      406.1342       58.72445       299.44969      1075.9869      0.40101743     18421.214      0.00037105067  37105.067    
    453500   487.52048      430.47667      57.043813      317.3978       744.59687      0.40101743     18421.214      0.00038067213  38067.213    
    453750   441.70706      394.48075      47.226306      290.8574       1082.0551      0.40101743     18421.214      0.00035498029  35498.029    
    454000   453.82094      400.99398      52.826961      295.65971      607.18837      0.40101743     18421.214      0.00036261845  36261.845    
    454250   479.71623      415.20361      64.512619      306.13672      785.29432      0.40101743     18421.214      0.00036225334  36225.334    
    454500   500.41174      438.8164       61.595347      323.54683      1041.1417      0.40101743     18421.214      0.00039824544  39824.544    
    454750   498.41176      436.99947      61.412288      322.20718      517.42123      0.40101743     18421.214      0.00037356553  37356.553    
    455000   453.76814      402.88788      50.880254      297.05612      1202.0533      0.40101743     18421.214      0.00032225552  32225.552    
    455250   473.50518      418.95146      54.553716      308.90007      1126.3309      0.40101743     18421.214      0.00034512544  34512.544    
    455500   466.7021       410.65122      56.050887      302.78016      949.78743      0.40101743     18421.214      0.00034733368  34733.368    
    455750   480.34989      427.80083      52.549059      315.42487      1234.7342      0.40101743     18421.214      0.00037990546  37990.546    
    456000   453.84414      399.48848      54.355659      294.54968      1040.4012      0.40101743     18421.214      0.00038020399  38020.399    
    456250   487.11855      417.29178      69.826769      307.67636      1032.4785      0.40101743     18421.214      0.00037666374  37666.374    
    456500   483.93726      432.07605      51.861203      318.57706      798.23543      0.40101743     18421.214      0.00033354725  33354.725    
    456750   461.88727      401.65139      60.235877      296.14443      859.13945      0.40101743     18421.214      0.00034730614  34730.614    
    457000   447.30077      376.19843      71.102338      277.37753      933.31173      0.40101743     18421.214      0.00039006561  39006.561    
    457250   473.14424      411.75876      61.385482      303.59677      1181.188       0.40101743     18421.214      0.00037296941  37296.941    
    457500   501.52641      441.81226      59.714144      325.75573      1042.0949      0.40101743     18421.214      0.0003418738   34187.38     
    457750   456.7514       396.95071      59.800692      292.67854      876.1195       0.40101743     18421.214      0.00037455923  37455.923    
    458000   486.40928      428.56578      57.843497      315.98888      1160.3509      0.40101743     18421.214      0.00034982744  34982.744    
    458250   472.07648      417.2835       54.792983      307.67025      721.66675      0.40101743     18421.214      0.00037105606  37105.606    
    458500   477.99035      427.94339      50.046961      315.52998      1065.4308      0.40101743     18421.214      0.00037230633  37230.633    
    458750   481.16108      414.52071      66.640367      305.63321      1081.9941      0.40101743     18421.214      0.00036495028  36495.028    
    459000   444.69926      386.35705      58.342211      284.86766      780.3947       0.40101743     18421.214      0.00035822394  35822.394    
    459250   477.57314      421.54329      56.029848      310.81108      1571.2366      0.40101743     18421.214      0.00032707531  32707.531    
    459500   474.368        419.99161      54.376389      309.66699      1360.2321      0.40101743     18421.214      0.00037019374  37019.374    
    459750   468.22703      421.5077       46.719326      310.78484      733.61702      0.40101743     18421.214      0.00037015173  37015.173    
    460000   466.07007      411.63672      54.433352      303.50679      894.7679       0.40101743     18421.214      0.00037906705  37906.705    
    460250   465.8722       411.18918      54.683028      303.17681      535.24944      0.40101743     18421.214      0.00035571505  35571.505    
    460500   465.55439      403.98069      61.5737        297.86187      635.55611      0.40101743     18421.214      0.00036157453  36157.453    
    460750   512.47958      449.85341      62.626166      331.68461      1453.1072      0.40101743     18421.214      0.00037208826  37208.826    
    461000   482.96824      431.88282      51.085418      318.43459      1170.3261      0.40101743     18421.214      0.00038398656  38398.656    
    461250   456.51696      404.13734      52.379615      297.97737      685.4272       0.40101743     18421.214      0.00038552972  38552.972    
    461500   449.7738       384.36084      65.412956      283.39582      1260.5868      0.40101743     18421.214      0.000379781    37978.1      
    461750   458.10133      403.10109      55.000242      297.21332      486.30444      0.40101743     18421.214      0.00034853554  34853.554    
    462000   486.12039      427.71897      58.401419      315.36451      975.9832       0.40101743     18421.214      0.00033848023  33848.023    
    462250   469.47722      414.85753      54.619691      305.88155      760.85542      0.40101743     18421.214      0.00039324958  39324.958    
    462500   469.72677      413.17639      56.550376      304.64201      651.50484      0.40101743     18421.214      0.00039153119  39153.119    
    462750   448.05962      389.03167      59.027949      286.8397       1263.1567      0.40101743     18421.214      0.00034642389  34642.389    
    463000   440.50503      395.63428      44.870755      291.70791      1022.8489      0.40101743     18421.214      0.00031509659  31509.659    
    463250   450.04732      399.63466      50.412655      294.65747      385.41269      0.40101743     18421.214      0.00035785007  35785.007    
    463500   458.5979       401.40145      57.196456      295.96015      1336.676       0.40101743     18421.214      0.00032379981  32379.981    
    463750   459.6869       401.51978      58.167118      296.0474       365.95621      0.40101743     18421.214      0.00033098888  33098.888    
    464000   459.98601      403.92162      56.064393      297.81831      953.91408      0.40101743     18421.214      0.00039981851  39981.851    
    464250   476.14258      417.37948      58.763097      307.74103      956.80818      0.40101743     18421.214      0.0003590727   35907.27     
    464500   472.89173      410.46691      62.424825      302.64427      700.66302      0.40101743     18421.214      0.00033513162  33513.162    
    464750   467.64824      416.1106       51.537639      306.80546      1310.7827      0.40101743     18421.214      0.00036501236  36501.236    
    465000   481.58204      431.40996      50.172076      318.08594      1168.2312      0.40101743     18421.214      0.00034245855  34245.855    
    465250   437.55635      386.10086      51.455492      284.67876      556.30573      0.40101743     18421.214      0.00033853685  33853.685    
    465500   432.57417      378.17488      54.399287      278.8348       890.42999      0.40101743     18421.214      0.00034901894  34901.894    
    465750   481.29384      429.51358      51.780257      316.6877       659.14464      0.40101743     18421.214      0.00033048575  33048.575    
    466000   442.43741      389.83688      52.600523      287.4334       620.27085      0.40101743     18421.214      0.00040989725  40989.725    
    466250   451.26113      397.65955      53.601583      293.20118      759.25646      0.40101743     18421.214      0.00036002559  36002.559    
    466500   453.49294      400.41001      53.082932      295.22914      1180.4652      0.40101743     18421.214      0.00034223092  34223.092    
    466750   465.30149      403.62371      61.677778      297.59866      1044.3632      0.40101743     18421.214      0.00039130925  39130.925    
    467000   471.4536       407.38535      64.068248      300.37218      1079.5384      0.40101743     18421.214      0.0003307837   33078.37     
    467250   466.14569      401.79151      64.35418       296.24775      409.51797      0.40101743     18421.214      0.00037611732  37611.732    
    467500   489.61801      418.94843      70.66958       308.89783      1194.242       0.40101743     18421.214      0.00037601703  37601.703    
    467750   464.27532      410.81498      53.460339      302.90091      1004.5652      0.40101743     18421.214      0.00034138951  34138.951    
    468000   457.20204      403.23526      53.966779      297.31225      682.86461      0.40101743     18421.214      0.00036640921  36640.921    
    468250   483.0944       430.13646      52.95794       317.14696      920.66864      0.40101743     18421.214      0.00037335929  37335.929    
    468500   480.40123      407.83282      72.568411      300.70211      1207.6337      0.40101743     18421.214      0.0003608321   36083.21     
    468750   463.89173      400.48745      63.404284      295.28624      1762.0699      0.40101743     18421.214      0.00036550563  36550.563    
    469000   466.16167      406.06108      60.100594      299.39578      1014.2046      0.40101743     18421.214      0.00035358724  35358.724    
    469250   517.23459      457.90243      59.332161      337.61929      988.59922      0.40101743     18421.214      0.00040414908  40414.908    
    469500   445.5641       385.17874      60.385356      283.99887      1027.233       0.40101743     18421.214      0.00041385472  41385.472    
    469750   444.75759      389.64691      55.11068       287.29333      566.92154      0.40101743     18421.214      0.00038487369  38487.369    
    470000   488.09862      431.33513      56.763485      318.03077      851.17352      0.40101743     18421.214      0.00038224447  38224.447    
    470250   467.78825      412.4557       55.33255       304.11064      937.95296      0.40101743     18421.214      0.00038798186  38798.186    
    470500   486.31539      431.12184      55.193554      317.8735       849.66184      0.40101743     18421.214      0.00040302556  40302.556    
    470750   479.14593      425.5005       53.645428      313.72879      1083.1984      0.40101743     18421.214      0.00036965137  36965.137    
    471000   462.03546      411.34528      50.690178      303.2919       1242.0277      0.40101743     18421.214      0.00036237112  36237.112    
    471250   457.87993      401.76341      56.116513      296.22703      892.05209      0.40101743     18421.214      0.00036893448  36893.448    
    471500   425.55132      362.45882      63.092501      267.24708      663.97861      0.40101743     18421.214      0.00034362907  34362.907    
    471750   467.2287       403.8526       63.376097      297.76743      756.30481      0.40101743     18421.214      0.0003785659   37856.59     
    472000   493.92561      440.76399      53.161623      324.98282      887.56159      0.40101743     18421.214      0.00034807602  34807.602    
    472250   475.95686      416.21152      59.745337      306.87987      897.90396      0.40101743     18421.214      0.00035675909  35675.909    
    472500   485.85998      417.95172      67.908258      308.16295      1146.3382      0.40101743     18421.214      0.00034169082  34169.082    
    472750   488.82122      427.81095      61.010274      315.43232      883.98393      0.40101743     18421.214      0.00037218454  37218.454    
    473000   481.17324      421.37916      59.794084      310.69005      578.54377      0.40101743     18421.214      0.00036187559  36187.559    
    473250   480.39795      422.07694      58.321015      311.20454      1219.3314      0.40101743     18421.214      0.0003385257   33852.57     
    473500   450.96236      402.08053      48.881822      296.46085      844.27875      0.40101743     18421.214      0.00036636019  36636.019    
    473750   471.7318       408.33769      63.394113      301.07435      749.50949      0.40101743     18421.214      0.00037425993  37425.993    
    474000   458.85127      390.9406       67.910674      288.24718      928.02617      0.40101743     18421.214      0.0003408295   34082.95     
    474250   479.88674      415.7558       64.130935      306.54386      1348.0996      0.40101743     18421.214      0.00033809952  33809.952    
    474500   491.31459      442.38645      48.928146      326.17909      640.23775      0.40101743     18421.214      0.00036716483  36716.483    
    474750   447.62839      399.50927      48.119116      294.56502      807.26138      0.40101743     18421.214      0.00034963964  34963.964    
    475000   468.27462      413.65423      54.620395      304.99433      1138.7117      0.40101743     18421.214      0.00035210481  35210.481    
    475250   461.53672      416.83776      44.698967      307.3416       955.69611      0.40101743     18421.214      0.00034690288  34690.288    
    475500   471.74765      413.3254       58.422246      304.75189      1194.1369      0.40101743     18421.214      0.00035955153  35955.153    
    475750   441.56941      386.02666      55.542748      284.62406      908.96284      0.40101743     18421.214      0.00034440509  34440.509    
    476000   473.48082      412.82871      60.652116      304.38566      496.15635      0.40101743     18421.214      0.00030607863  30607.863    
    476250   493.09122      434.36193      58.729285      320.26248      1079.7641      0.40101743     18421.214      0.00037593225  37593.225    
    476500   491.12228      426.851        64.271282      314.72454      429.48034      0.40101743     18421.214      0.00035482662  35482.662    
    476750   459.43583      406.60337      52.832464      299.79561      1110.7493      0.40101743     18421.214      0.00036877365  36877.365    
    477000   463.80121      413.99583      49.805387      305.2462       893.27029      0.40101743     18421.214      0.00038789195  38789.195    
    477250   448.58993      394.70698      53.882943      291.0242       846.52448      0.40101743     18421.214      0.00036940701  36940.701    
    477500   472.13595      397.88498      74.250971      293.3674       370.55318      0.40101743     18421.214      0.00033940137  33940.137    
    477750   450.12323      395.21823      54.905004      291.40116      854.58574      0.40101743     18421.214      0.00035239632  35239.632    
    478000   470.54663      412.59081      57.955817      304.21026      985.10559      0.40101743     18421.214      0.00037694244  37694.244    
    478250   497.44494      439.57189      57.873049      324.10387      1017.9046      0.40101743     18421.214      0.00038827304  38827.304    
    478500   472.74657      412.82942      59.91715       304.38619      970.03434      0.40101743     18421.214      0.00035024926  35024.926    
    478750   462.86275      403.40124      59.461512      297.43463      685.97017      0.40101743     18421.214      0.00037813134  37813.134    
    479000   473.33789      416.77183      56.566056      307.29299      826.93433      0.40101743     18421.214      0.00034942787  34942.787    
    479250   455.74533      391.62084      64.12449       288.74874      627.37841      0.40101743     18421.214      0.00036181433  36181.433    
    479500   465.84365      404.85444      60.989211      298.5061       881.69098      0.40101743     18421.214      0.00037077093  37077.093    
    479750   452.11339      395.52789      56.585494      291.62947      944.76888      0.40101743     18421.214      0.00034167278  34167.278    
    480000   493.52371      435.74137      57.782336      321.27956      825.747        0.40101743     18421.214      0.00036278056  36278.056    
    480250   480.1776       425.61079      54.566805      313.81011      914.14499      0.40101743     18421.214      0.0003578623   35786.23     
    480500   457.11368      403.73174      53.381942      297.67831      722.61702      0.40101743     18421.214      0.00037263427  37263.427    
    480750   468.53753      412.84603      55.691503      304.39843      1199.2075      0.40101743     18421.214      0.00035007314  35007.314    
    481000   452.91344      390.95965      61.953788      288.26123      901.78723      0.40101743     18421.214      0.00039104048  39104.048    
    481250   463.10445      408.06778      55.036666      300.87535      1009.5318      0.40101743     18421.214      0.0003794224   37942.24     
    481500   448.41449      380.59629      67.818195      280.62015      730.6372       0.40101743     18421.214      0.00037970791  37970.791    
    481750   463.84148      405.77179      58.069697      299.18247      932.41663      0.40101743     18421.214      0.00037729524  37729.524    
    482000   479.243        420.62398      58.619019      310.13325      390.85872      0.40101743     18421.214      0.00035084028  35084.028    
    482250   468.46065      413.17368      55.286965      304.64002      1342.4547      0.40101743     18421.214      0.00038593863  38593.863    
    482500   481.931        429.47196      52.459042      316.65702      1211.5676      0.40101743     18421.214      0.00035855555  35855.555    
    482750   470.96758      417.21508      53.752509      307.61981      1002.6268      0.40101743     18421.214      0.00033343892  33343.892    
    483000   487.94667      431.2279       56.718767      317.9517       994.03232      0.40101743     18421.214      0.00037582297  37582.297    
    483250   441.35363      392.41146      48.942169      289.33167      1070.0105      0.40101743     18421.214      0.00034247721  34247.721    
    483500   470.38781      416.86812      53.519685      307.36399      800.99972      0.40101743     18421.214      0.00035269602  35269.602    
    483750   469.54083      412.50751      57.033316      304.14884      823.11674      0.40101743     18421.214      0.0003496466   34964.66     
    484000   448.46125      395.20163      53.259618      291.38892      1073.5822      0.40101743     18421.214      0.00034146282  34146.282    
    484250   461.39862      402.76254      58.636078      296.96371      495.50002      0.40101743     18421.214      0.00034706251  34706.251    
    484500   502.70516      434.85549      67.849676      320.62638      1397.5674      0.40101743     18421.214      0.000372       37200        
    484750   446.46079      395.11023      51.350553      291.32153      546.21971      0.40101743     18421.214      0.00037277193  37277.193    
    485000   465.19846      407.69128      57.507184      300.59775      1056.6952      0.40101743     18421.214      0.00036473011  36473.011    
    485250   478.53224      424.93262      53.599618      313.31008      1079.1698      0.40101743     18421.214      0.00035300504  35300.504    
    485500   457.97559      408.0606       49.91499       300.87006      639.82127      0.40101743     18421.214      0.00034857977  34857.977    
    485750   467.03933      407.50172      59.537609      300.45798      1088.3473      0.40101743     18421.214      0.00038289809  38289.809    
    486000   470.41655      414.33096      56.085596      305.4933       829.2885       0.40101743     18421.214      0.00031467428  31467.428    
    486250   481.63982      421.89535      59.744471      311.07066      654.98298      0.40101743     18421.214      0.00035754426  35754.426    
    486500   486.2586       434.14476      52.113838      320.10235      906.99715      0.40101743     18421.214      0.00036440435  36440.435    
    486750   485.17862      429.05036      56.128265      316.34616      393.11106      0.40101743     18421.214      0.0003723519   37235.19     
    487000   497.44231      438.81666      58.625646      323.54703      696.30785      0.40101743     18421.214      0.00037295331  37295.331    
    487250   451.47284      410.1774       41.295436      302.43081      772.96131      0.40101743     18421.214      0.00037311916  37311.916    
    487500   457.39603      398.14277      59.25326       293.55747      700.24118      0.40101743     18421.214      0.00037130914  37130.914    
    487750   465.35068      409.2013       56.149387      301.71111      679.53034      0.40101743     18421.214      0.00037639769  37639.769    
    488000   479.74608      428.03862      51.707459      315.60019      187.01369      0.40101743     18421.214      0.00035797882  35797.882    
    488250   458.03586      398.94672      59.089143      294.15024      470.21635      0.40101743     18421.214      0.00038060305  38060.305    
    488500   460.05673      404.56633      55.4904        298.29367      1090.414       0.40101743     18421.214      0.0003663063   36630.63     
    488750   491.81585      434.37624      57.439606      320.27303      1042.8059      0.40101743     18421.214      0.00036395657  36395.657    
    489000   495.90538      434.17179      61.733589      320.12228      1208.3978      0.40101743     18421.214      0.00038255167  38255.167    
    489250   468.15585      408.87814      59.277707      301.47284      799.9688       0.40101743     18421.214      0.0003562476   35624.76     
    489500   449.22713      388.31598      60.911145      286.31201      1137.6454      0.40101743     18421.214      0.00036360711  36360.711    
    489750   455.81513      405.8547       49.96043       299.24361      712.62062      0.40101743     18421.214      0.00037384792  37384.792    
    490000   460.81344      408.90906      51.904379      301.49564      676.78476      0.40101743     18421.214      0.00037343795  37343.795    
    490250   461.36321      415.4649       45.898317      306.32937      894.44693      0.40101743     18421.214      0.00037776021  37776.021    
    490500   477.55489      426.92837      50.626522      314.78158      799.08184      0.40101743     18421.214      0.00035466205  35466.205    
    490750   449.96084      389.80956      60.151284      287.41325      503.59592      0.40101743     18421.214      0.00037372807  37372.807    
    491000   476.96485      423.93441      53.030433      312.57409      942.5883       0.40101743     18421.214      0.00039443999  39443.999    
    491250   448.14681      390.74493      57.401881      288.10291      383.66787      0.40101743     18421.214      0.0003670813   36708.13     
    491500   446.0638       389.81533      56.24847       287.41751      1134.3078      0.40101743     18421.214      0.00037291406  37291.406    
    491750   444.33718      381.09207      63.245109      280.9857       892.89749      0.40101743     18421.214      0.00039654669  39654.669    
    492000   495.25831      435.10142      60.156893      320.80771      1222.9152      0.40101743     18421.214      0.00036099522  36099.522    
    492250   509.21569      430.06328      79.152409      317.09301      678.49286      0.40101743     18421.214      0.00036491146  36491.146    
    492500   487.72506      431.47939      56.245674      318.13713      1225.2257      0.40101743     18421.214      0.00035840038  35840.038    
    492750   490.94975      433.87091      57.07884       319.90044      948.21239      0.40101743     18421.214      0.00035094093  35094.093    
    493000   472.25232      412.15723      60.095097      303.89057      979.71497      0.40101743     18421.214      0.00037024739  37024.739    
    493250   453.27127      398.26356      55.007704      293.64653      831.14175      0.40101743     18421.214      0.00035973465  35973.465    
    493500   480.04859      426.19452      53.854075      314.2405       811.87959      0.40101743     18421.214      0.00034564576  34564.576    
    493750   448.49701      393.15999      55.337019      289.88358      772.51299      0.40101743     18421.214      0.00035530483  35530.483    
    494000   466.99735      413.9263       53.071042      305.19494      1342.1191      0.40101743     18421.214      0.00035919824  35919.824    
    494250   474.94964      417.01714      57.932501      307.47386      1143.07        0.40101743     18421.214      0.00035011851  35011.851    
    494500   453.90368      381.66083      72.242845      281.40505      1023.2719      0.40101743     18421.214      0.00040349248  40349.248    
    494750   451.62376      392.49742      59.126342      289.39505      588.12862      0.40101743     18421.214      0.0003683171   36831.71     
    495000   511.63105      454.49305      57.137993      335.1055       1058.8855      0.40101743     18421.214      0.00039781818  39781.818    
    495250   459.66693      400.79881      58.868121      295.51581      1148.7712      0.40101743     18421.214      0.000374624    37462.4      
    495500   470.78914      407.54609      63.243052      300.49069      992.17703      0.40101743     18421.214      0.0003605204   36052.04     
    495750   505.59702      428.36304      77.233977      315.83939      817.35904      0.40101743     18421.214      0.00034037656  34037.656    
    496000   469.75138      399.07218      70.679205      294.24274      578.79517      0.40101743     18421.214      0.00033675303  33675.303    
    496250   462.62771      404.28789      58.339821      298.08837      672.70581      0.40101743     18421.214      0.00035962251  35962.251    
    496500   486.16096      427.71345      58.44751       315.36044      850.9188       0.40101743     18421.214      0.00037846237  37846.237    
    496750   469.54027      422.37431      47.165963      311.42379      1070.978       0.40101743     18421.214      0.00034293236  34293.236    
    497000   488.0561       434.81814      53.23796       320.59885      568.14865      0.40101743     18421.214      0.00037472029  37472.029    
    497250   486.43602      435.99231      50.443706      321.46458      671.74394      0.40101743     18421.214      0.00034778449  34778.449    
    497500   456.18115      405.88811      50.293043      299.26824      1171.0686      0.40101743     18421.214      0.00035647876  35647.876    
    497750   463.63946      408.75414      54.885326      301.38141      857.30718      0.40101743     18421.214      0.00034799808  34799.808    
    498000   475.95719      416.45183      59.505359      307.05705      961.82422      0.40101743     18421.214      0.00038119704  38119.704    
    498250   445.15774      387.36581      57.791932      285.61143      1144.599       0.40101743     18421.214      0.0003825567   38255.67     
    498500   503.29594      435.77708      67.518857      321.30589      1297.6191      0.40101743     18421.214      0.00035876275  35876.275    
    498750   452.84985      400.17287      52.676973      295.0543       932.47677      0.40101743     18421.214      0.00038138954  38138.954    
    499000   499.61524      440.073        59.542239      324.47334      737.69391      0.40101743     18421.214      0.000374818    37481.8      
    499250   485.8096       427.11194      58.697656      314.91693      693.62455      0.40101743     18421.214      0.00037720377  37720.377    
    499500   486.32202      432.78987      53.532155      319.10337      818.21934      0.40101743     18421.214      0.00037434192  37434.192    
    499750   470.19512      410.88392      59.3112        302.95174      548.59007      0.40101743     18421.214      0.00031725171  31725.171    
    500000   473.61244      422.8751       50.737348      311.79304      1385.9128      0.40101743     18421.214      0.00035397217  35397.217    
Loop time of 24.4261 on 4 procs for 500000 steps with 456 atoms

Performance: 1768.598 ns/day, 0.014 hours/ns, 20469.879 timesteps/s
99.7% CPU use with 4 MPI tasks x no OpenMP threads

MPI task timing breakdown:
Section |  min time  |  avg time  |  max time  |%varavg| %total
---------------------------------------------------------------
Pair    | 0.029156   | 0.029295   | 0.029399   |   0.1 |  0.12
Bond    | 4.5358     | 4.6541     | 4.7817     |   4.4 | 19.05
Neigh   | 8.7364     | 8.7416     | 8.7458     |   0.1 | 35.79
Comm    | 8.1081     | 8.2312     | 8.3519     |   3.4 | 33.70
Output  | 0.023011   | 0.031985   | 0.035009   |   2.9 |  0.13
Modify  | 2.3347     | 2.341      | 2.3551     |   0.5 |  9.58
Other   |            | 0.397      |            |       |  1.63

Nlocal:            114 ave         121 max         107 min
Histogram: 1 0 0 0 0 2 0 0 0 1
Nghost:        2264.75 ave        2285 max        2235 min
Histogram: 1 0 0 0 1 0 0 0 0 2
Neighs:        17684.2 ave       21000 max       14329 min
Histogram: 1 0 1 0 0 0 0 1 0 1

Total # of neighbors = 70737
Ave neighs/atom = 155.125
Ave special neighs/atom = 6.3157895
Neighbor list builds = 24785
Dangerous builds = 0

unfix 			f1
unfix 			f2

Total wall time: 0:00:34
