
#------------------------------------------------------------------------------#
# simulation settings
#------------------------------------------------------------------------------#

##### simulation variables

variable        seed 	equal  20902
variable        T       equal  300	    #K
variable        p       equal  0.0 	#bar
variable        damp_T  equal  100 		  	#K
variable        damp_P  equal  1000.0	  	#bar
variable        dT      equal  1.0 		 	#fs
variable        kb      equal  0.0019872041

## system setup ##

units           real
atom_style      full
boundary        p p p

pair_style      lj/cut/soft 1 0.5 12.5
bond_style      harmonic
angle_style     hybrid cosine/periodic fourier
dihedral_style  harmonic
improper_style  fourier

pair_modify 	tail yes mix arithmetic
special_bonds 	lj/coul 0.0 0.0 1.0

read_data 	 	../data.emin_sod-4c_Zn-2c_mim_fe
Reading data file ...
  triclinic box = (4.5054746 4.3760097 4.4164229) to (20.786525 20.913779 20.965143) with tilt (-0.95270579 -0.51398262 -1.0127119)
  1 by 2 by 2 MPI processor grid
  reading atoms ...
  276 atoms
  reading velocities ...
  276 velocities
  scanning bonds ...
  3 = max bonds/atom
  scanning angles ...
  6 = max angles/atom
  scanning dihedrals ...
  10 = max dihedrals/atom
  scanning impropers ...
  4 = max impropers/atom
  reading bonds ...
  312 bonds
  reading angles ...
  576 angles
  reading dihedrals ...
  624 dihedrals
  reading impropers ...
  360 impropers
Finding 1-2 1-3 1-4 neighbors ...
  special bond factors lj:    0        0        1       
  special bond factors coul:  0        0        1       
     4 = max # of 1-2 neighbors
     8 = max # of 1-3 neighbors
    12 = max # of special neighbors
  special bonds CPU = 0.000 seconds
  read_data CPU = 0.003 seconds
include 	 	../non_bonded_sod-4c_Zn-2c_mim_lj.param
### Parameters for Equilibration ###

### Parameters for MOF ###

mass 1 65.380000000
mass 2 14.006700000
mass 3 12.010700000
mass 4 1.007940000
mass 5 12.010700000


bond_coeff 1 165.837318 1.881712
bond_coeff 2 663.718927 1.345073
bond_coeff 3 369.943935 1.486000
bond_coeff 4 462.655054 1.379256
bond_coeff 5 357.440381 1.081418
bond_coeff 6 331.069389 1.109401

angle_coeff 1 fourier 197.524216 0.343737 0.374972 0.281246
angle_coeff 2 cosine/periodic 45.889625 -1 3
angle_coeff 3 cosine/periodic 120.000516 -1 3
angle_coeff 4 cosine/periodic 212.442573 -1 3
angle_coeff 5 cosine/periodic 136.548728 -1 3
angle_coeff 6 cosine/periodic 153.699352 -1 3
angle_coeff 7 cosine/periodic 79.786967 -1 3
angle_coeff 8 cosine/periodic 57.289016 -1 3
angle_coeff 9 fourier 121.777217 0.343737 0.374972 0.281246
angle_coeff 10 fourier 75.498766 0.343737 0.374972 0.281246

dihedral_coeff 1 3.368555 -1 2
dihedral_coeff 2 0.166667 1 3

improper_coeff 1 2.000000 1.000000 -1.000000 0.000000 0

pair_coeff 1 1 0.124 2.46155 1 12.5
pair_coeff 1 2 0.0924986 2.86112 1 12.5
pair_coeff 1 3 0.114105 2.9462 1 12.5
pair_coeff 1 4 0.0738647 2.51634 1 12.5
pair_coeff 1 5 0.114105 2.9462 1 12.5
pair_coeff 2 2 0.069 3.26069 1 12.5
pair_coeff 2 3 0.0851176 3.34577 1 12.5
pair_coeff 2 4 0.0550999 2.91591 1 12.5
pair_coeff 2 5 0.0851176 3.34577 1 12.5
pair_coeff 3 3 0.105 3.43085 1 12.5
pair_coeff 3 4 0.0679706 3.00099 1 12.5
pair_coeff 3 5 0.105 3.43085 1 12.5
pair_coeff 4 4 0.044 2.57113 1 12.5
pair_coeff 4 5 0.0679706 3.00099 1 12.5
pair_coeff 5 5 0.105 3.43085 1 12.5

group			fram type < 6
276 atoms in group fram

fix				SPRING fram spring/self 10 	# harmonic restraint to framework


#------------------------------------------------------------------------------#
# equilibration
#------------------------------------------------------------------------------#

reset_timestep	0

variable 		delta equal ${lambda}
variable 		delta equal 0
fix 			ADAPT all adapt 0 pair lj/cut/soft lambda * * v_delta

thermo_style	custom step etotal ke pe temp press density vol evdwl etail ecoul elong epair
thermo 			5000
velocity 		all create ${T} ${seed}
velocity 		all create 300 ${seed}
velocity 		all create 300 20902

fix				f1 all nve
fix 			f2 all langevin ${T} ${T} ${damp_T} ${seed} zero yes
fix 			f2 all langevin 300 ${T} ${damp_T} ${seed} zero yes
fix 			f2 all langevin 300 300 ${damp_T} ${seed} zero yes
fix 			f2 all langevin 300 300 100 ${seed} zero yes
fix 			f2 all langevin 300 300 100 20902 zero yes
compute 		c1 all temp/com
fix_modify		f2 temp c1

run				500000
Generated 0 of 10 mixed pair_coeff terms from arithmetic mixing rule
Neighbor list info ...
  update every 1 steps, delay 10 steps, check yes
  max neighbors/atom: 2000, page size: 100000
  master list distance cutoff = 14.5
  ghost atom cutoff = 14.5
  binsize = 7.25, bins = 3 3 3
  1 neighbor lists, perpetual/occasional/extra = 1 0 0
  (1) pair lj/cut/soft, perpetual
      attributes: half, newton on
      pair build: half/bin/newton/tri
      stencil: half/bin/3d/tri
      bin: standard
WARNING: Inconsistent image flags (../domain.cpp:819)
Per MPI rank memory allocation (min/avg/max) = 13.55 | 13.56 | 13.56 Mbytes
   Step         TotEng         KinEng         PotEng          Temp          Press         Density         Volume         E_vdwl         E_tail         E_coul         E_long         E_pair    
         0   1339.25        245.91683      1093.3332      300            4981.2392      1.0177122      4455.7805      0              0              0              0              0            
      5000   1500.9438      251.07509      1249.8687      306.29269      259.21443      1.0177122      4455.7805      0              0              0              0              0            
     10000   1525.9554      251.82233      1274.1331      307.20427     -4188.6671      1.0177122      4455.7805      0              0              0              0              0            
     15000   1512.6592      227.41403      1285.2452      277.42798      3251.7472      1.0177122      4455.7805      0              0              0              0              0            
     20000   1507.9476      231.93774      1276.0099      282.94657      1141.3113      1.0177122      4455.7805      0              0              0              0              0            
     25000   1548.4906      257.47205      1291.0186      314.0965       1639.3186      1.0177122      4455.7805      0              0              0              0              0            
     30000   1544.4476      267.4216       1277.026       326.2342      -833.85825      1.0177122      4455.7805      0              0              0              0              0            
     35000   1524.9388      244.64024      1280.2985      298.44266      1035.616       1.0177122      4455.7805      0              0              0              0              0            
     40000   1553.4347      263.56245      1289.8722      321.52632      1327.2012      1.0177122      4455.7805      0              0              0              0              0            
     45000   1527.0064      259.5439       1267.4625      316.624       -788.38098      1.0177122      4455.7805      0              0              0              0              0            
     50000   1530.8796      246.03428      1284.8453      300.14329     -844.43649      1.0177122      4455.7805      0              0              0              0              0            
     55000   1513.8982      244.64847      1269.2497      298.4527      -2063.1452      1.0177122      4455.7805      0              0              0              0              0            
     60000   1551.3536      262.17152      1289.1821      319.82949     -1439.5475      1.0177122      4455.7805      0              0              0              0              0            
     65000   1536.9324      259.62229      1277.3101      316.71963     -1478.3386      1.0177122      4455.7805      0              0              0              0              0            
     70000   1525.666       245.02076      1280.6453      298.90687     -3288.7239      1.0177122      4455.7805      0              0              0              0              0            
     75000   1524.8408      250.64409      1274.1967      305.7669      -2691.4617      1.0177122      4455.7805      0              0              0              0              0            
     80000   1551.6628      268.94725      1282.7156      328.09538      2521.5988      1.0177122      4455.7805      0              0              0              0              0            
     85000   1541.6896      264.36676      1277.3228      322.50752     -728.943        1.0177122      4455.7805      0              0              0              0              0            
     90000   1524.5811      240.03375      1284.5473      292.82309     -2243.495       1.0177122      4455.7805      0              0              0              0              0            
     95000   1543.3084      255.25061      1288.0578      311.38651      1098.075       1.0177122      4455.7805      0              0              0              0              0            
    100000   1523.5253      253.66462      1269.8607      309.45172     -3023.7562      1.0177122      4455.7805      0              0              0              0              0            
    105000   1508.8335      236.36197      1272.4715      288.34379      1106.2514      1.0177122      4455.7805      0              0              0              0              0            
    110000   1520.7941      235.11394      1285.6802      286.82129     -4312.9788      1.0177122      4455.7805      0              0              0              0              0            
    115000   1514.1034      237.70972      1276.3936      289.98795     -2718.4166      1.0177122      4455.7805      0              0              0              0              0            
    120000   1542.4896      260.21701      1282.2726      317.44515     -1804.0732      1.0177122      4455.7805      0              0              0              0              0            
    125000   1543.0559      247.22001      1295.8359      301.58978      3898.9441      1.0177122      4455.7805      0              0              0              0              0            
    130000   1503.3462      250.85482      1252.4913      306.02398      2966.5576      1.0177122      4455.7805      0              0              0              0              0            
    135000   1534.9315      233.14784      1301.7836      284.42279     -5438.3615      1.0177122      4455.7805      0              0              0              0              0            
    140000   1529.3733      244.88537      1284.4879      298.74169     -1507.033       1.0177122      4455.7805      0              0              0              0              0            
    145000   1536.0259      246.36527      1289.6607      300.54706     -836.54618      1.0177122      4455.7805      0              0              0              0              0            
    150000   1530.5816      252.77942      1277.8021      308.37185     -3614.1958      1.0177122      4455.7805      0              0              0              0              0            
    155000   1530.9134      231.32061      1299.5928      282.19371     -3909.4726      1.0177122      4455.7805      0              0              0              0              0            
    160000   1560.0953      268.24018      1291.8552      327.2328      -1983.6432      1.0177122      4455.7805      0              0              0              0              0            
    165000   1504.1127      238.37413      1265.7385      290.79848     -3778.3481      1.0177122      4455.7805      0              0              0              0              0            
    170000   1535.3154      242.33147      1292.9839      295.62614     -2976.7756      1.0177122      4455.7805      0              0              0              0              0            
    175000   1543.4884      265.00225      1278.4861      323.28277     -629.21269      1.0177122      4455.7805      0              0              0              0              0            
    180000   1534.0535      252.81116      1281.2423      308.41057     -1485.1288      1.0177122      4455.7805      0              0              0              0              0            
    185000   1557.5993      272.09085      1285.5085      331.93033     -2151.64        1.0177122      4455.7805      0              0              0              0              0            
    190000   1541.1749      250.55731      1290.6176      305.66104     -4654.0344      1.0177122      4455.7805      0              0              0              0              0            
    195000   1558.475       243.85438      1314.6206      297.48397     -342.58488      1.0177122      4455.7805      0              0              0              0              0            
    200000   1540.4443      257.42224      1283.022       314.03573     -6031.9452      1.0177122      4455.7805      0              0              0              0              0            
    205000   1528.9492      244.09541      1284.8538      297.778       -1223.6447      1.0177122      4455.7805      0              0              0              0              0            
    210000   1506.5452      240.20204      1266.3431      293.02839     -1734.8139      1.0177122      4455.7805      0              0              0              0              0            
    215000   1522.3942      238.79694      1283.5972      291.31427      1258.7254      1.0177122      4455.7805      0              0              0              0              0            
    220000   1529.155       250.58454      1278.5705      305.69426      1055.0759      1.0177122      4455.7805      0              0              0              0              0            
    225000   1545.5883      260.17861      1285.4096      317.3983       2113.6283      1.0177122      4455.7805      0              0              0              0              0            
    230000   1511.7687      235.49841      1276.2703      287.29032     -1911.2037      1.0177122      4455.7805      0              0              0              0              0            
    235000   1494.2235      229.42648      1264.797       279.88301     -1762.0575      1.0177122      4455.7805      0              0              0              0              0            
    240000   1521.0624      252.70491      1268.3574      308.28095     -830.08535      1.0177122      4455.7805      0              0              0              0              0            
    245000   1536.3443      247.82484      1288.5194      302.32763     -526.59339      1.0177122      4455.7805      0              0              0              0              0            
    250000   1545.929       262.02798      1283.901       319.65439     -1001.8035      1.0177122      4455.7805      0              0              0              0              0            
    255000   1542.5429      261.50345      1281.0394      319.0145      -570.15733      1.0177122      4455.7805      0              0              0              0              0            
    260000   1525.9445      251.58371      1274.3608      306.91317     -655.41957      1.0177122      4455.7805      0              0              0              0              0            
    265000   1520.9265      258.30035      1262.6261      315.10696     -931.95552      1.0177122      4455.7805      0              0              0              0              0            
    270000   1569.4653      261.49122      1307.9741      318.99959     -2275.7192      1.0177122      4455.7805      0              0              0              0              0            
    275000   1518.7206      254.44508      1264.2755      310.40382     -3971.9556      1.0177122      4455.7805      0              0              0              0              0            
    280000   1472.5961      224.52612      1248.07        273.90494     -3642.4354      1.0177122      4455.7805      0              0              0              0              0            
    285000   1523.5196      244.88439      1278.6352      298.7405      -1190.1323      1.0177122      4455.7805      0              0              0              0              0            
    290000   1525.5642      251.41456      1274.1497      306.70682     -630.25214      1.0177122      4455.7805      0              0              0              0              0            
    295000   1505.0618      251.84734      1253.2145      307.23477     -1464.0952      1.0177122      4455.7805      0              0              0              0              0            
    300000   1543.9467      259.14578      1284.8009      316.13832     -1738.1338      1.0177122      4455.7805      0              0              0              0              0            
    305000   1562.8057      246.62389      1316.1818      300.86256     -2931.6161      1.0177122      4455.7805      0              0              0              0              0            
    310000   1541.5577      247.97132      1293.5864      302.50632     -1317.1451      1.0177122      4455.7805      0              0              0              0              0            
    315000   1538.8732      243.91504      1294.9582      297.55796     -3152.4133      1.0177122      4455.7805      0              0              0              0              0            
    320000   1529.3767      251.4973       1277.8794      306.80776      614.17081      1.0177122      4455.7805      0              0              0              0              0            
    325000   1528.0161      253.502        1274.5141      309.25333      3020.7632      1.0177122      4455.7805      0              0              0              0              0            
    330000   1535.0329      258.53317      1276.4998      315.39098      95.227335      1.0177122      4455.7805      0              0              0              0              0            
    335000   1562.8886      269.54046      1293.3482      328.81904      1351.2678      1.0177122      4455.7805      0              0              0              0              0            
    340000   1535.1229      255.778        1279.3449      312.02988     -2338.7804      1.0177122      4455.7805      0              0              0              0              0            
    345000   1536.7382      250.98718      1285.751       306.18545      3421.369       1.0177122      4455.7805      0              0              0              0              0            
    350000   1519.0559      242.78131      1276.2746      296.1749      -4177.1904      1.0177122      4455.7805      0              0              0              0              0            
    355000   1503.8142      239.18312      1264.631       291.78539     -3975.2189      1.0177122      4455.7805      0              0              0              0              0            
    360000   1503.0696      223.79923      1279.2703      273.0182      -1098.8104      1.0177122      4455.7805      0              0              0              0              0            
    365000   1547.525       266.25835      1281.2666      324.81513      2429.1931      1.0177122      4455.7805      0              0              0              0              0            
    370000   1520.9214      227.2468       1293.6746      277.22398     -1018.0223      1.0177122      4455.7805      0              0              0              0              0            
    375000   1547.3111      278.07719      1269.2339      339.23321      3714.9048      1.0177122      4455.7805      0              0              0              0              0            
    380000   1500.4936      225.49294      1275.0007      275.08439      2829.5174      1.0177122      4455.7805      0              0              0              0              0            
    385000   1541.7322      266.96929      1274.7629      325.68241     -3331.3554      1.0177122      4455.7805      0              0              0              0              0            
    390000   1535.2588      246.03237      1289.2264      300.14096     -5919.2718      1.0177122      4455.7805      0              0              0              0              0            
    395000   1501.1112      235.13336      1265.9778      286.84498     -1326.3065      1.0177122      4455.7805      0              0              0              0              0            
    400000   1555.2035      275.34004      1279.8635      335.8941      -327.57035      1.0177122      4455.7805      0              0              0              0              0            
    405000   1531.006       244.79841      1286.2076      298.63562     -6204.7614      1.0177122      4455.7805      0              0              0              0              0            
    410000   1537.6319      249.91767      1287.7143      304.88072     -1815.0135      1.0177122      4455.7805      0              0              0              0              0            
    415000   1544.8106      240.80506      1304.0055      293.76402     -8739.8804      1.0177122      4455.7805      0              0              0              0              0            
    420000   1527.2374      249.13531      1278.1021      303.9263      -3081.9719      1.0177122      4455.7805      0              0              0              0              0            
    425000   1520.536       227.91018      1292.6259      278.03325     -1844.2553      1.0177122      4455.7805      0              0              0              0              0            
    430000   1555.5769      275.13751      1280.4394      335.64703     -1194.9152      1.0177122      4455.7805      0              0              0              0              0            
    435000   1536.9807      239.5534       1297.4273      292.2371      -3551.0161      1.0177122      4455.7805      0              0              0              0              0            
    440000   1510.0369      239.7697       1270.2672      292.50096     -175.33764      1.0177122      4455.7805      0              0              0              0              0            
    445000   1552.9822      261.69145      1291.2908      319.24385     -3904.7255      1.0177122      4455.7805      0              0              0              0              0            
    450000   1518.1505      239.97469      1278.1758      292.75104      230.6431       1.0177122      4455.7805      0              0              0              0              0            
    455000   1499.0292      240.95178      1258.0774      293.94302     -66.902538      1.0177122      4455.7805      0              0              0              0              0            
    460000   1540.1         253.00522      1287.0948      308.6473      -5200.1606      1.0177122      4455.7805      0              0              0              0              0            
    465000   1526.7692      244.28875      1282.4805      298.01387     -4256.9847      1.0177122      4455.7805      0              0              0              0              0            
    470000   1514.9361      232.94419      1281.9919      284.17436      187.4389       1.0177122      4455.7805      0              0              0              0              0            
    475000   1516.4876      231.09269      1285.3949      281.91566     -3979.8454      1.0177122      4455.7805      0              0              0              0              0            
    480000   1532.6426      267.58607      1265.0566      326.43485      838.93133      1.0177122      4455.7805      0              0              0              0              0            
    485000   1524.1131      248.5027       1275.6104      303.15457     -3082.3917      1.0177122      4455.7805      0              0              0              0              0            
    490000   1541.0119      268.65864      1272.3532      327.74329     -592.41309      1.0177122      4455.7805      0              0              0              0              0            
    495000   1560.2827      262.3696       1297.9131      320.07114     -971.47438      1.0177122      4455.7805      0              0              0              0              0            
    500000   1533.83        246.81392      1287.0161      301.09438      213.38547      1.0177122      4455.7805      0              0              0              0              0            
Loop time of 57.4161 on 4 procs for 500000 steps with 276 atoms

Performance: 752.403 ns/day, 0.032 hours/ns, 8708.366 timesteps/s
99.5% CPU use with 4 MPI tasks x no OpenMP threads

MPI task timing breakdown:
Section |  min time  |  avg time  |  max time  |%varavg| %total
---------------------------------------------------------------
Pair    | 33.153     | 36.004     | 38.781     |  42.8 | 62.71
Bond    | 2.5061     | 2.6958     | 2.8876     |   9.0 |  4.70
Neigh   | 0.25403    | 0.25415    | 0.25428    |   0.0 |  0.44
Comm    | 13.07      | 16.048     | 19.079     |  67.7 | 27.95
Output  | 0.00098204 | 0.001037   | 0.0011653  |   0.2 |  0.00
Modify  | 1.8482     | 1.8583     | 1.8711     |   0.6 |  3.24
Other   |            | 0.5556     |            |       |  0.97

Nlocal:             69 ave          74 max          63 min
Histogram: 1 0 1 0 0 0 0 0 0 2
Nghost:           3692 ave        3720 max        3659 min
Histogram: 1 0 0 1 0 0 0 0 1 1
Neighs:        27088.5 ave       29428 max       24345 min
Histogram: 1 0 0 1 0 0 0 0 1 1

Total # of neighbors = 108354
Ave neighs/atom = 392.58696
Ave special neighs/atom = 6.4347826
Neighbor list builds = 468
Dangerous builds = 0
unfix			ADAPT

#------------------------------------------------------------------------------#
# sampling
#------------------------------------------------------------------------------#

reset_timestep	0

variable		ddlambda equal 0.001
variable		ddlambda_n equal -0.001

compute 		ALL1 all fep ${T} pair lj/cut/soft lambda * * v_ddlambda
compute 		ALL1 all fep 300 pair lj/cut/soft lambda * * v_ddlambda
compute 		ALL2 all fep ${T} pair lj/cut/soft lambda * * v_ddlambda_n
compute 		ALL2 all fep 300 pair lj/cut/soft lambda * * v_ddlambda_n
variable 		dudlam equal (c_ALL1[1]-c_ALL2[1])/0.002

fix				ALL all ave/time 250 1 250 v_dudlam file LJ_${lambda}.lmp
fix				ALL all ave/time 250 1 250 v_dudlam file LJ_0.lmp

thermo_style	custom step etotal ke pe temp press density vol evdwl etail ecoul elong epair v_dudlam
thermo			250

run 			800000
Generated 0 of 10 mixed pair_coeff terms from arithmetic mixing rule
FEP settings ...
  temperature = 300.000000
  tail no
  pair lj/cut/soft lambda 1-5 1-5
FEP settings ...
  temperature = 300.000000
  tail no
  pair lj/cut/soft lambda 1-5 1-5
WARNING: Inconsistent image flags (../domain.cpp:819)
Per MPI rank memory allocation (min/avg/max) = 13.56 | 13.56 | 13.56 Mbytes
   Step         TotEng         KinEng         PotEng          Temp          Press         Density         Volume         E_vdwl         E_tail         E_coul         E_long         E_pair        v_dudlam   
         0   1533.83        246.81392      1287.0161      301.09438      213.38547      1.0177122      4455.7805      0              0              0              0              0             -231.8089     
       250   1519.2578      244.0674       1275.1904      297.74383      938.70068      1.0177122      4455.7805      0              0              0              0              0             -231.58977    
       500   1532.4663      259.4485       1273.0178      316.50762     -3769.1178      1.0177122      4455.7805      0              0              0              0              0             -231.15522    
       750   1524.4634      249.80015      1274.6633      304.73736      4273.1617      1.0177122      4455.7805      0              0              0              0              0             -233.02003    
      1000   1521.9547      241.51019      1280.4445      294.62423     -2621.5851      1.0177122      4455.7805      0              0              0              0              0             -231.67457    
      1250   1574.7125      270.99997      1303.7126      330.59954     -2684.2568      1.0177122      4455.7805      0              0              0              0              0             -232.65703    
      1500   1514.4094      241.49383      1272.9156      294.60428     -1157.165       1.0177122      4455.7805      0              0              0              0              0             -232.73007    
      1750   1541.484       269.1661       1272.3179      328.36236     -645.27021      1.0177122      4455.7805      0              0              0              0              0             -231.6468     
      2000   1538.4524      263.93492      1274.5175      321.98072      2987.7673      1.0177122      4455.7805      0              0              0              0              0             -231.88877    
      2250   1536.4283      269.43081      1266.9975      328.68528     -3287.8856      1.0177122      4455.7805      0              0              0              0              0             -232.11475    
      2500   1551.2898      263.54128      1287.7486      321.5005       315.27036      1.0177122      4455.7805      0              0              0              0              0             -231.12008    
      2750   1530.2468      246.13872      1284.1081      300.2707      -1125.0867      1.0177122      4455.7805      0              0              0              0              0             -231.23898    
      3000   1530.4573      242.57441      1287.8829      295.9225      -4295.486       1.0177122      4455.7805      0              0              0              0              0             -232.44202    
      3250   1557.4831      261.36718      1296.116       318.84826     -81.879003      1.0177122      4455.7805      0              0              0              0              0             -232.63232    
      3500   1524.8015      251.83767      1272.9638      307.22298     -964.93803      1.0177122      4455.7805      0              0              0              0              0             -231.47481    
      3750   1521.0302      247.6902       1273.34        302.16338     -2074.9978      1.0177122      4455.7805      0              0              0              0              0             -232.71189    
      4000   1562.0669      266.6192       1295.4477      325.25533     -4298.2248      1.0177122      4455.7805      0              0              0              0              0             -231.10131    
      4250   1557.4066      253.22773      1304.1788      308.91875     -191.9512       1.0177122      4455.7805      0              0              0              0              0             -231.40452    
      4500   1536.9062      253.51636      1283.3899      309.27086     -1288.2673      1.0177122      4455.7805      0              0              0              0              0             -232.49998    
      4750   1509.2536      235.10269      1274.1509      286.80756     -5763.1289      1.0177122      4455.7805      0              0              0              0              0             -231.09499    
      5000   1535.4717      259.57609      1275.8956      316.66327     -2635.5644      1.0177122      4455.7805      0              0              0              0              0             -231.7912     
      5250   1531.438       257.33171      1274.1063      313.92529      1160.987       1.0177122      4455.7805      0              0              0              0              0             -230.7631     
      5500   1529.1406      231.95075      1297.1899      282.96244     -1540.3304      1.0177122      4455.7805      0              0              0              0              0             -231.08798    
      5750   1515.0457      232.58889      1282.4568      283.74092     -4199.0142      1.0177122      4455.7805      0              0              0              0              0             -231.83       
      6000   1519.5296      239.91337      1279.6162      292.67623     -4319.687       1.0177122      4455.7805      0              0              0              0              0             -232.85447    
      6250   1560.8306      261.52003      1299.3106      319.03473     -419.3434       1.0177122      4455.7805      0              0              0              0              0             -232.19105    
      6500   1526.1128      239.65598      1286.4568      292.36224      394.79825      1.0177122      4455.7805      0              0              0              0              0             -232.57018    
      6750   1513.3581      225.46028      1287.8978      275.04455      1994.5756      1.0177122      4455.7805      0              0              0              0              0             -232.11785    
      7000   1501.7098      228.68684      1273.023       278.98071     -7215.2519      1.0177122      4455.7805      0              0              0              0              0             -230.75832    
      7250   1535.1964      263.06319      1272.1332      320.91726     -729.46364      1.0177122      4455.7805      0              0              0              0              0             -232.30635    
      7500   1497.9799      231.26484      1266.7151      282.12568     -3947.9727      1.0177122      4455.7805      0              0              0              0              0             -231.32332    
      7750   1543.3201      264.50898      1278.8111      322.68103      3036.6543      1.0177122      4455.7805      0              0              0              0              0             -232.02061    
      8000   1511.1521      235.00795      1276.1442      286.69199     -1442.2603      1.0177122      4455.7805      0              0              0              0              0             -230.73497    
      8250   1537.7939      267.28864      1270.5053      326.072       -5032.8014      1.0177122      4455.7805      0              0              0              0              0             -231.5279     
      8500   1522.2894      246.6168       1275.6726      300.85391     -3437.2607      1.0177122      4455.7805      0              0              0              0              0             -232.57475    
      8750   1551.7054      257.89809      1293.8073      314.61624     -1141.409       1.0177122      4455.7805      0              0              0              0              0             -231.10816    
      9000   1541.9034      267.22132      1274.682       325.98987     -341.07777      1.0177122      4455.7805      0              0              0              0              0             -230.99798    
      9250   1520.6999      244.4054       1276.2945      298.15617     -3456.1752      1.0177122      4455.7805      0              0              0              0              0             -232.11254    
      9500   1562.9631      263.82407      1299.139       321.84548      2715.4844      1.0177122      4455.7805      0              0              0              0              0             -233.31275    
      9750   1540.651       248.87771      1291.7733      303.61206     -59.034759      1.0177122      4455.7805      0              0              0              0              0             -232.95323    
     10000   1509.4721      238.39603      1271.0761      290.8252      -576.79446      1.0177122      4455.7805      0              0              0              0              0             -231.0265     
     10250   1558.1682      270.55869      1287.6095      330.06122     -4447.6389      1.0177122      4455.7805      0              0              0              0              0             -233.78092    
     10500   1536.8138      252.14863      1284.6652      307.60233      2285.5101      1.0177122      4455.7805      0              0              0              0              0             -232.22951    
     10750   1551.6979      263.83682      1287.8611      321.86104      2011.4925      1.0177122      4455.7805      0              0              0              0              0             -233.25643    
     11000   1514.8419      239.86629      1274.9757      292.6188      -5113.7181      1.0177122      4455.7805      0              0              0              0              0             -231.90185    
     11250   1550.7511      260.24308      1290.508       317.47695     -3293.905       1.0177122      4455.7805      0              0              0              0              0             -233.28663    
     11500   1537.9197      243.6258       1294.2939      297.20512     -1317.2586      1.0177122      4455.7805      0              0              0              0              0             -232.63       
     11750   1540.5008      259.422        1281.0788      316.4753       4399.6704      1.0177122      4455.7805      0              0              0              0              0             -231.91101    
     12000   1541.1334      249.83701      1291.2964      304.78232     -4672.339       1.0177122      4455.7805      0              0              0              0              0             -232.0985     
     12250   1509.2949      236.75092      1272.544       288.81829      6801.9352      1.0177122      4455.7805      0              0              0              0              0             -233.41257    
     12500   1528.7125      259.02355      1269.689       315.98921     -5354.5004      1.0177122      4455.7805      0              0              0              0              0             -232.11077    
     12750   1493.5844      233.82606      1259.7584      285.25017     -531.55098      1.0177122      4455.7805      0              0              0              0              0             -230.79123    
     13000   1544.2168      266.87833      1277.3385      325.57145      4484.7448      1.0177122      4455.7805      0              0              0              0              0             -232.89395    
     13250   1513.9231      237.16502      1276.7581      289.32346     -4986.9848      1.0177122      4455.7805      0              0              0              0              0             -231.46304    
     13500   1537.5066      266.57025      1270.9364      325.19561      737.08171      1.0177122      4455.7805      0              0              0              0              0             -232.09669    
     13750   1546.8369      268.21755      1278.6194      327.2052      -2693.9371      1.0177122      4455.7805      0              0              0              0              0             -232.03963    
     14000   1534.9083      250.51605      1284.3922      305.6107      -3350.9591      1.0177122      4455.7805      0              0              0              0              0             -232.87088    
     14250   1547.0059      251.64597      1295.3599      306.98912      1813.7144      1.0177122      4455.7805      0              0              0              0              0             -231.83306    
     14500   1516.2039      243.82874      1272.3751      297.45269     -5987.7993      1.0177122      4455.7805      0              0              0              0              0             -232.32851    
     14750   1548.4638      267.35983      1281.104       326.15884      1186.4956      1.0177122      4455.7805      0              0              0              0              0             -232.03486    
     15000   1542.8861      251.15474      1291.7313      306.38986      147.5087       1.0177122      4455.7805      0              0              0              0              0             -233.40296    
     15250   1544.9145      263.94651      1280.9679      321.99485      249.98515      1.0177122      4455.7805      0              0              0              0              0             -231.19671    
     15500   1538.4886      251.94096      1286.5477      307.34899      1442.1807      1.0177122      4455.7805      0              0              0              0              0             -232.35327    
     15750   1529.669       256.68919      1272.9798      313.14147     -3381.0988      1.0177122      4455.7805      0              0              0              0              0             -233.73673    
     16000   1521.62        251.08603      1270.534       306.30603     -437.9833       1.0177122      4455.7805      0              0              0              0              0             -232.2526     
     16250   1531.2181      257.19179      1274.0263      313.7546      -2587.1215      1.0177122      4455.7805      0              0              0              0              0             -231.68467    
     16500   1543.7046      251.7272       1291.9774      307.08822     -18.669209      1.0177122      4455.7805      0              0              0              0              0             -232.20247    
     16750   1500.4046      241.84759      1258.557       295.03583     -2524.5888      1.0177122      4455.7805      0              0              0              0              0             -230.8358     
     17000   1538.5053      243.52231      1294.983       297.07886     -463.22149      1.0177122      4455.7805      0              0              0              0              0             -233.79415    
     17250   1529.8831      239.62156      1290.2615      292.32024      1235.7041      1.0177122      4455.7805      0              0              0              0              0             -233.09683    
     17500   1520.1445      241.99843      1278.1461      295.21985     -1715.8459      1.0177122      4455.7805      0              0              0              0              0             -231.82152    
     17750   1534.7768      251.31611      1283.4607      306.58672     -5812.1708      1.0177122      4455.7805      0              0              0              0              0             -232.3508     
     18000   1523.2807      247.93602      1275.3447      302.46326     -4356.7656      1.0177122      4455.7805      0              0              0              0              0             -230.96156    
     18250   1542.3119      243.33168      1298.9803      296.84631     -2107.7171      1.0177122      4455.7805      0              0              0              0              0             -231.81907    
     18500   1525.3395      254.74982      1270.5897      310.77559     -2174.6724      1.0177122      4455.7805      0              0              0              0              0             -231.32958    
     18750   1521.8878      243.61061      1278.2772      297.18658      255.69959      1.0177122      4455.7805      0              0              0              0              0             -232.23752    
     19000   1496.8239      229.81391      1267.01        280.35566     -1911.9285      1.0177122      4455.7805      0              0              0              0              0             -230.63703    
     19250   1511.5575      224.47426      1287.0832      273.84168      539.88199      1.0177122      4455.7805      0              0              0              0              0             -230.4454     
     19500   1523.8643      259.11865      1264.7456      316.10523     -45.346617      1.0177122      4455.7805      0              0              0              0              0             -232.64115    
     19750   1549.3375      270.07424      1279.2632      329.47022     -2231.7112      1.0177122      4455.7805      0              0              0              0              0             -232.82549    
     20000   1522.0814      266.63481      1255.4466      325.27437     -1692.2804      1.0177122      4455.7805      0              0              0              0              0             -230.1351     
     20250   1539.5216      259.68312      1279.8385      316.79384     -772.79287      1.0177122      4455.7805      0              0              0              0              0             -233.09967    
     20500   1539.2114      258.18916      1281.0222      314.97131     -1191.0315      1.0177122      4455.7805      0              0              0              0              0             -231.09254    
     20750   1530.8154      241.01617      1289.7993      294.02157     -3507.3291      1.0177122      4455.7805      0              0              0              0              0             -230.34461    
     21000   1512.6289      246.01018      1266.6188      300.11389      1687.804       1.0177122      4455.7805      0              0              0              0              0             -231.86097    
     21250   1531.2936      251.84275      1279.4509      307.22917      5259.0868      1.0177122      4455.7805      0              0              0              0              0             -232.11652    
     21500   1514.3993      244.35443      1270.0449      298.09399     -1184.1945      1.0177122      4455.7805      0              0              0              0              0             -232.85463    
     21750   1534.2993      244.66789      1289.6314      298.47639     -3617.6699      1.0177122      4455.7805      0              0              0              0              0             -230.50867    
     22000   1526.7514      242.92789      1283.8235      296.35371     -1341.9501      1.0177122      4455.7805      0              0              0              0              0             -232.80231    
     22250   1494.7211      240.04645      1254.6746      292.83858      312.85949      1.0177122      4455.7805      0              0              0              0              0             -232.2807     
     22500   1519.1735      249.1922       1269.9814      303.9957      -4258.0986      1.0177122      4455.7805      0              0              0              0              0             -232.11671    
     22750   1519.7385      239.41785      1280.3206      292.07173      3254.2498      1.0177122      4455.7805      0              0              0              0              0             -233.04905    
     23000   1513.4368      254.66459      1258.7722      310.67161     -3437.7467      1.0177122      4455.7805      0              0              0              0              0             -230.84744    
     23250   1548.4387      262.23252      1286.2061      319.90392     -3956.2127      1.0177122      4455.7805      0              0              0              0              0             -231.65112    
     23500   1541.6318      246.24003      1295.3917      300.39428     -3620.2108      1.0177122      4455.7805      0              0              0              0              0             -229.90128    
     23750   1535.012       254.25513      1280.7568      310.1721      -3326.9022      1.0177122      4455.7805      0              0              0              0              0             -230.67061    
     24000   1555.6617      262.37726      1293.2844      320.08049      413.54392      1.0177122      4455.7805      0              0              0              0              0             -232.3949     
     24250   1558.276       280.12313      1278.1528      341.72911     -4723.7603      1.0177122      4455.7805      0              0              0              0              0             -232.84514    
     24500   1524.1604      245.75026      1278.4102      299.79679     -2278.1603      1.0177122      4455.7805      0              0              0              0              0             -232.68715    
     24750   1559.3301      263.52851      1295.8016      321.48492      640.25849      1.0177122      4455.7805      0              0              0              0              0             -233.41299    
     25000   1523.5523      243.83395      1279.7183      297.45904      1192.1854      1.0177122      4455.7805      0              0              0              0              0             -232.04654    
     25250   1505.6002      232.31693      1273.2833      283.40914     -5392.892       1.0177122      4455.7805      0              0              0              0              0             -232.76602    
     25500   1544.7923      260.30607      1284.4863      317.55378     -1286.0949      1.0177122      4455.7805      0              0              0              0              0             -231.49771    
     25750   1544.0859      249.83335      1294.2526      304.77786     -1369.344       1.0177122      4455.7805      0              0              0              0              0             -232.11114    
     26000   1545.2184      247.17207      1298.0464      301.5313      -1102.1247      1.0177122      4455.7805      0              0              0              0              0             -231.05225    
     26250   1573.4895      269.47363      1304.0159      328.73752      1818.8699      1.0177122      4455.7805      0              0              0              0              0             -232.52871    
     26500   1517.041       258.94383      1258.0971      315.89197     -165.67018      1.0177122      4455.7805      0              0              0              0              0             -231.3417     
     26750   1525.1941      238.6531       1286.541       291.1388      -1526.5703      1.0177122      4455.7805      0              0              0              0              0             -232.23877    
     27000   1527.0236      240.51404      1286.5095      293.409       -5766.3252      1.0177122      4455.7805      0              0              0              0              0             -232.11089    
     27250   1524.4332      240.6577       1283.7755      293.58426     -947.88754      1.0177122      4455.7805      0              0              0              0              0             -232.5696     
     27500   1523.0898      254.73851      1268.3513      310.76178     -1322.1751      1.0177122      4455.7805      0              0              0              0              0             -232.12886    
     27750   1547.7985      255.78776      1292.0107      312.0418      -3791.0676      1.0177122      4455.7805      0              0              0              0              0             -231.33468    
     28000   1512.3311      242.34097      1269.9902      295.63772     -1839.1709      1.0177122      4455.7805      0              0              0              0              0             -231.50085    
     28250   1524.1374      254.04186      1270.0955      309.91192      967.26476      1.0177122      4455.7805      0              0              0              0              0             -231.17076    
     28500   1517.9605      233.85117      1284.1094      285.28081     -4144.5908      1.0177122      4455.7805      0              0              0              0              0             -232.53199    
     28750   1561.5255      279.6057       1281.9198      341.09788      229.64237      1.0177122      4455.7805      0              0              0              0              0             -232.17167    
     29000   1532.648       255.43096      1277.217       311.60652     -6161.2682      1.0177122      4455.7805      0              0              0              0              0             -233.41497    
     29250   1529.9055      253.22962      1276.6758      308.92105      4660.6242      1.0177122      4455.7805      0              0              0              0              0             -232.42579    
     29500   1504.5886      242.22678      1262.3618      295.49841      2028.3533      1.0177122      4455.7805      0              0              0              0              0             -232.74705    
     29750   1519.1463      247.34295      1271.8034      301.73977     -752.74766      1.0177122      4455.7805      0              0              0              0              0             -231.01368    
     30000   1527.7232      247.85695      1279.8662      302.3668       3494.5792      1.0177122      4455.7805      0              0              0              0              0             -231.96166    
     30250   1515.7381      225.67489      1290.0633      275.30636     -1781.339       1.0177122      4455.7805      0              0              0              0              0             -231.43004    
     30500   1525.4878      256.7029       1268.7849      313.15819     -1208.6301      1.0177122      4455.7805      0              0              0              0              0             -232.05845    
     30750   1521.6183      250.26654      1271.3518      305.30632      1641.6389      1.0177122      4455.7805      0              0              0              0              0             -232.71459    
     31000   1521.3212      252.35796      1268.9632      307.8577      -1099.7739      1.0177122      4455.7805      0              0              0              0              0             -232.91528    
     31250   1516.4333      242.34469      1274.0886      295.64226     -1094.1633      1.0177122      4455.7805      0              0              0              0              0             -231.92659    
     31500   1559.4525      272.21756      1287.235       332.08491     -674.59413      1.0177122      4455.7805      0              0              0              0              0             -231.82873    
     31750   1513.1469      240.25607      1272.8908      293.0943       497.06916      1.0177122      4455.7805      0              0              0              0              0             -231.81921    
     32000   1543.0477      250.76463      1292.283       305.91396      856.94792      1.0177122      4455.7805      0              0              0              0              0             -233.01832    
     32250   1546.3287      269.31483      1277.0138      328.5438       1968.284       1.0177122      4455.7805      0              0              0              0              0             -232.05156    
     32500   1507.2422      237.21845      1270.0238      289.38863     -2180.7436      1.0177122      4455.7805      0              0              0              0              0             -232.05285    
     32750   1572.6371      251.44752      1321.1895      306.74703      2364.9687      1.0177122      4455.7805      0              0              0              0              0             -232.66548    
     33000   1565.7232      270.13504      1295.5882      329.54439     -891.6559       1.0177122      4455.7805      0              0              0              0              0             -233.34951    
     33250   1483.2196      211.58298      1271.6366      258.11529     -6385.1558      1.0177122      4455.7805      0              0              0              0              0             -231.11248    
     33500   1517.8418      232.53071      1285.3111      283.66994     -416.60283      1.0177122      4455.7805      0              0              0              0              0             -232.01468    
     33750   1540.144       261.75185      1278.3922      319.31754     -4123.3737      1.0177122      4455.7805      0              0              0              0              0             -230.95939    
     34000   1544.4106      263.08585      1281.3248      320.94491      155.2916       1.0177122      4455.7805      0              0              0              0              0             -229.83533    
     34250   1553.7029      254.19761      1299.5052      310.10193     -3042.6565      1.0177122      4455.7805      0              0              0              0              0             -230.83321    
     34500   1525.1607      229.97512      1295.1856      280.55232     -1659.9105      1.0177122      4455.7805      0              0              0              0              0             -229.81837    
     34750   1547.6155      251.58995      1296.0256      306.92078     -831.4838       1.0177122      4455.7805      0              0              0              0              0             -231.82445    
     35000   1524.8015      235.69737      1289.1042      287.53303     -5933.6384      1.0177122      4455.7805      0              0              0              0              0             -232.47888    
     35250   1529.1599      254.41919      1274.7407      310.37225     -2871.1211      1.0177122      4455.7805      0              0              0              0              0             -231.50611    
     35500   1529.7243      255.92224      1273.802       312.20585     -3856.579       1.0177122      4455.7805      0              0              0              0              0             -231.57303    
     35750   1518.8574      236.59646      1282.2609      288.62985     -599.29895      1.0177122      4455.7805      0              0              0              0              0             -232.00459    
     36000   1523.4981      249.25443      1274.2437      304.07162     -1174.9875      1.0177122      4455.7805      0              0              0              0              0             -233.84983    
     36250   1512.1852      238.80612      1273.3791      291.32547     -1700.9844      1.0177122      4455.7805      0              0              0              0              0             -230.81423    
     36500   1512.9336      253.6785       1259.2551      309.46865      700.63994      1.0177122      4455.7805      0              0              0              0              0             -232.00152    
     36750   1538.7617      265.60429      1273.1574      324.01722     -3429.2142      1.0177122      4455.7805      0              0              0              0              0             -232.4661     
     37000   1505.0521      237.64729      1267.4048      289.91178     -1690.4407      1.0177122      4455.7805      0              0              0              0              0             -231.67424    
     37250   1529.6596      263.45775      1266.2018      321.39861      520.08577      1.0177122      4455.7805      0              0              0              0              0             -231.54326    
     37500   1497.6808      221.58892      1276.0918      270.32178     -1976.5724      1.0177122      4455.7805      0              0              0              0              0             -232.20374    
     37750   1529.1843      244.28127      1284.903       298.00474     -2606.699       1.0177122      4455.7805      0              0              0              0              0             -231.06024    
     38000   1546.6419      259.4134       1287.2285      316.4648      -423.11649      1.0177122      4455.7805      0              0              0              0              0             -232.19378    
     38250   1556.5798      266.38202      1290.1977      324.96599     -2809.7011      1.0177122      4455.7805      0              0              0              0              0             -231.8706     
     38500   1491.4993      225.10062      1266.3987      274.6058       2848.1464      1.0177122      4455.7805      0              0              0              0              0             -233.10025    
     38750   1518.5418      232.3898       1286.152       283.49804      1129.8852      1.0177122      4455.7805      0              0              0              0              0             -232.32843    
     39000   1519.8204      249.76499      1270.0554      304.69447     -2889.1168      1.0177122      4455.7805      0              0              0              0              0             -232.1419     
     39250   1537.726       254.53055      1283.1954      310.50809      511.20233      1.0177122      4455.7805      0              0              0              0              0             -232.81126    
     39500   1494.3548      232.92447      1261.4303      284.1503      -5327.1428      1.0177122      4455.7805      0              0              0              0              0             -231.51496    
     39750   1528.3763      274.39789      1253.9784      334.74475     -2775.3497      1.0177122      4455.7805      0              0              0              0              0             -231.76723    
     40000   1553.8226      258.83804      1294.9846      315.7629      -1872.5236      1.0177122      4455.7805      0              0              0              0              0             -231.1357     
     40250   1546.0574      255.30349      1290.7539      311.45101      4635.7804      1.0177122      4455.7805      0              0              0              0              0             -234.24054    
     40500   1512.2298      239.56728      1272.6625      292.25402     -768.76222      1.0177122      4455.7805      0              0              0              0              0             -231.1832     
     40750   1516.4569      253.42054      1263.0364      309.15397     -3059.7612      1.0177122      4455.7805      0              0              0              0              0             -231.84427    
     41000   1545.9021      267.81303      1278.0891      326.71172      1249.3131      1.0177122      4455.7805      0              0              0              0              0             -232.52926    
     41250   1552.596       251.67618      1300.9198      307.02598     -934.40111      1.0177122      4455.7805      0              0              0              0              0             -232.17427    
     41500   1550.4673      252.351        1298.1163      307.84921      1164.1684      1.0177122      4455.7805      0              0              0              0              0             -232.64154    
     41750   1535.9408      258.99141      1276.9494      315.95001      646.28268      1.0177122      4455.7805      0              0              0              0              0             -231.83426    
     42000   1539.69        260.81243      1278.8776      318.17151     -2420.4391      1.0177122      4455.7805      0              0              0              0              0             -232.62372    
     42250   1530.6666      240.90955      1289.7571      293.8915      -695.56215      1.0177122      4455.7805      0              0              0              0              0             -233.60129    
     42500   1524.7975      238.40285      1286.3946      290.83351     -2527.8712      1.0177122      4455.7805      0              0              0              0              0             -232.30541    
     42750   1517           230.5081       1286.4919      281.20251     -2722.93        1.0177122      4455.7805      0              0              0              0              0             -232.10751    
     43000   1554.4472      264.29321      1290.154       322.4178      -4283.2641      1.0177122      4455.7805      0              0              0              0              0             -231.8708     
     43250   1551.0043      248.54914      1302.4551      303.21123     -8759.0672      1.0177122      4455.7805      0              0              0              0              0             -229.72864    
     43500   1536.844       250.15589      1286.6881      305.17133     -1333.286       1.0177122      4455.7805      0              0              0              0              0             -231.41115    
     43750   1548.6384      250.90438      1297.734       306.08443     -1056.3766      1.0177122      4455.7805      0              0              0              0              0             -232.94887    
     44000   1519.6163      219.72186      1299.8945      268.04411     -4468.688       1.0177122      4455.7805      0              0              0              0              0             -231.75733    
     44250   1563.0829      264.26281      1298.8201      322.38072     -4292.1652      1.0177122      4455.7805      0              0              0              0              0             -232.77297    
     44500   1504.803       226.08891      1278.7141      275.81143      1047.6576      1.0177122      4455.7805      0              0              0              0              0             -230.83248    
     44750   1530.2138      242.46716      1287.7466      295.79166     -146.87238      1.0177122      4455.7805      0              0              0              0              0             -233.63594    
     45000   1538.1113      245.7141       1292.3972      299.75269     -7157.0534      1.0177122      4455.7805      0              0              0              0              0             -231.38555    
     45250   1500.2093      235.75617      1264.4531      287.60476     -1833.3892      1.0177122      4455.7805      0              0              0              0              0             -231.03897    
     45500   1505.4335      247.25262      1258.1809      301.62956     -3700.6642      1.0177122      4455.7805      0              0              0              0              0             -232.56853    
     45750   1523.8162      250.78762      1273.0285      305.942        1412.7921      1.0177122      4455.7805      0              0              0              0              0             -232.10123    
     46000   1539.3596      247.30206      1292.0575      301.68987     -35.922397      1.0177122      4455.7805      0              0              0              0              0             -233.28824    
     46250   1536.5798      256.17422      1280.4055      312.51325     -1263.9015      1.0177122      4455.7805      0              0              0              0              0             -232.10945    
     46500   1539.34        260.85342      1278.4866      318.22151     -4626.2701      1.0177122      4455.7805      0              0              0              0              0             -231.57827    
     46750   1541.9078      252.79108      1289.1167      308.38607     -3147.252       1.0177122      4455.7805      0              0              0              0              0             -234.43643    
     47000   1522.2025      246.56774      1275.6347      300.79406     -1537.6264      1.0177122      4455.7805      0              0              0              0              0             -232.61023    
     47250   1520.637       251.00375      1269.6333      306.20566      1833.4773      1.0177122      4455.7805      0              0              0              0              0             -233.00248    
     47500   1533.5907      247.27863      1286.3121      301.66129     -3012.4547      1.0177122      4455.7805      0              0              0              0              0             -232.08165    
     47750   1550.578       248.44436      1302.1337      303.08339      1811.2591      1.0177122      4455.7805      0              0              0              0              0             -231.42628    
     48000   1545.9272      259.78723      1286.14        316.92085     -4064.5861      1.0177122      4455.7805      0              0              0              0              0             -230.64366    
     48250   1533.2599      255.5813       1277.6786      311.78993     -2108.8947      1.0177122      4455.7805      0              0              0              0              0             -232.11099    
     48500   1516.1141      250.54792      1265.5662      305.64958     -2505.1235      1.0177122      4455.7805      0              0              0              0              0             -232.30355    
     48750   1542.4854      256.08922      1286.3961      312.40955     -1108.7699      1.0177122      4455.7805      0              0              0              0              0             -232.91852    
     49000   1528.8778      237.332        1291.5458      289.52716     -4841.0313      1.0177122      4455.7805      0              0              0              0              0             -232.30784    
     49250   1546.2845      228.99942      1317.2851      279.36204      76.695794      1.0177122      4455.7805      0              0              0              0              0             -232.71904    
     49500   1563.2169      263.75987      1299.457       321.76717     -6824.4223      1.0177122      4455.7805      0              0              0              0              0             -232.18489    
     49750   1526.2898      250.84727      1275.4426      306.01477     -983.43906      1.0177122      4455.7805      0              0              0              0              0             -232.67389    
     50000   1517.3822      246.21246      1271.1697      300.36065     -1143.8464      1.0177122      4455.7805      0              0              0              0              0             -231.2212     
     50250   1517.2776      240.23565      1277.042       293.06939     -2795.2277      1.0177122      4455.7805      0              0              0              0              0             -232.26884    
     50500   1538.0157      254.21773      1283.798       310.12647     -1227.7752      1.0177122      4455.7805      0              0              0              0              0             -231.85769    
     50750   1533.7132      229.41856      1304.2946      279.87336     -5427.0546      1.0177122      4455.7805      0              0              0              0              0             -234.06422    
     51000   1566.4002      288.95811      1277.4421      352.50712     -141.57161      1.0177122      4455.7805      0              0              0              0              0             -232.69316    
     51250   1522.2185      244.77232      1277.4462      298.60378      157.09449      1.0177122      4455.7805      0              0              0              0              0             -231.97845    
     51500   1517.5748      249.35607      1268.2188      304.19562     -3714.9084      1.0177122      4455.7805      0              0              0              0              0             -232.0327     
     51750   1522.2588      232.74532      1289.5134      283.93175      3183.1846      1.0177122      4455.7805      0              0              0              0              0             -231.87476    
     52000   1523.0923      246.21082      1276.8815      300.35864     -1712.6321      1.0177122      4455.7805      0              0              0              0              0             -231.46248    
     52250   1506.0245      240.77781      1265.2467      293.73079     -2008.8066      1.0177122      4455.7805      0              0              0              0              0             -230.93109    
     52500   1520.1762      249.22226      1270.9539      304.03238     -2315.3365      1.0177122      4455.7805      0              0              0              0              0             -232.52008    
     52750   1502.1571      240.02225      1262.1348      292.80906     -415.07358      1.0177122      4455.7805      0              0              0              0              0             -230.65499    
     53000   1514.6216      232.55285      1282.0687      283.69696      344.33434      1.0177122      4455.7805      0              0              0              0              0             -233.38788    
     53250   1522.4374      265.69515      1256.7422      324.12807      474.38174      1.0177122      4455.7805      0              0              0              0              0             -231.41166    
     53500   1531.3443      244.24015      1287.1041      297.95458      1011.8449      1.0177122      4455.7805      0              0              0              0              0             -233.2934     
     53750   1522.4538      232.33544      1290.1183      283.43173     -2785.8558      1.0177122      4455.7805      0              0              0              0              0             -233.52223    
     54000   1527.8441      235.84254      1292.0016      287.71012     -5743.6106      1.0177122      4455.7805      0              0              0              0              0             -232.37453    
     54250   1524.3345      233.71015      1290.6244      285.10877      462.07801      1.0177122      4455.7805      0              0              0              0              0             -232.47962    
     54500   1528.7277      267.16021      1261.5675      325.91533     -371.07643      1.0177122      4455.7805      0              0              0              0              0             -232.52119    
     54750   1552.285       266.40055      1285.8844      324.98859      531.93336      1.0177122      4455.7805      0              0              0              0              0             -230.38736    
     55000   1503.6579      228.36359      1275.2943      278.58637     -4283.6828      1.0177122      4455.7805      0              0              0              0              0             -231.77814    
     55250   1559.0213      267.14752      1291.8738      325.89984     -5893.0574      1.0177122      4455.7805      0              0              0              0              0             -231.36343    
     55500   1544.5815      264.45248      1280.129       322.61209     -3262.1233      1.0177122      4455.7805      0              0              0              0              0             -231.37751    
     55750   1527.7207      249.57857      1278.1421      304.46705     -4990.1394      1.0177122      4455.7805      0              0              0              0              0             -231.30197    
     56000   1541.8014      256.15591      1285.6455      312.4909      -3090.9266      1.0177122      4455.7805      0              0              0              0              0             -231.28592    
     56250   1507.565       231.25855      1276.3064      282.11801     -535.92544      1.0177122      4455.7805      0              0              0              0              0             -232.01996    
     56500   1512.7107      239.75603      1272.9547      292.48429     -2624.7734      1.0177122      4455.7805      0              0              0              0              0             -231.36672    
     56750   1547.4604      263.2282       1284.2322      321.11857      1608.5838      1.0177122      4455.7805      0              0              0              0              0             -233.81754    
     57000   1541.3102      250.16226      1291.148       305.1791      -6467.987       1.0177122      4455.7805      0              0              0              0              0             -232.45043    
     57250   1552.5091      265.69093      1286.8182      324.12291      372.25367      1.0177122      4455.7805      0              0              0              0              0             -232.1257     
     57500   1510.3015      230.77746      1279.524       281.53111     -4211.6617      1.0177122      4455.7805      0              0              0              0              0             -231.06587    
     57750   1523.7847      249.55215      1274.2326      304.43481     -1030.6159      1.0177122      4455.7805      0              0              0              0              0             -231.44735    
     58000   1502.8021      229.20177      1273.6003      279.60888     -540.98146      1.0177122      4455.7805      0              0              0              0              0             -232.76829    
     58250   1558.0895      266.12079      1291.9687      324.64731     -5237.9114      1.0177122      4455.7805      0              0              0              0              0             -232.25836    
     58500   1563.4268      267.67451      1295.7523      326.54273     -3381.2975      1.0177122      4455.7805      0              0              0              0              0             -232.91636    
     58750   1529.0604      249.24429      1279.8161      304.05925      343.51842      1.0177122      4455.7805      0              0              0              0              0             -232.10452    
     59000   1528.7651      264.43193      1264.3331      322.58702      1003.198       1.0177122      4455.7805      0              0              0              0              0             -231.8142     
     59250   1524.4612      246.14021      1278.321       300.27251     -3275.8625      1.0177122      4455.7805      0              0              0              0              0             -231.42555    
     59500   1533.2247      258.53071      1274.694       315.38799     -1168.5666      1.0177122      4455.7805      0              0              0              0              0             -232.66814    
     59750   1550.2537      269.60786      1280.6458      328.90127     -344.35039      1.0177122      4455.7805      0              0              0              0              0             -232.82577    
     60000   1511.7848      233.50729      1278.2775      284.8613      -1000.025       1.0177122      4455.7805      0              0              0              0              0             -231.11499    
     60250   1513.6617      234.98946      1278.6723      286.66944     -5876.6013      1.0177122      4455.7805      0              0              0              0              0             -232.52428    
     60500   1521.8345      245.59983      1276.2347      299.61328     -2072.3163      1.0177122      4455.7805      0              0              0              0              0             -230.9002     
     60750   1524.9203      243.63733      1281.283       297.21918      287.18493      1.0177122      4455.7805      0              0              0              0              0             -231.85659    
     61000   1536.5073      250.63205      1285.8752      305.75221     -3013.9695      1.0177122      4455.7805      0              0              0              0              0             -233.658      
     61250   1545.2841      269.64958      1275.6345      328.95216     -578.1687       1.0177122      4455.7805      0              0              0              0              0             -230.14606    
     61500   1544.3256      253.72259      1290.603       309.52244      549.54818      1.0177122      4455.7805      0              0              0              0              0             -231.92424    
     61750   1556.4803      267.85938      1288.6209      326.76826     -3456.1432      1.0177122      4455.7805      0              0              0              0              0             -232.11851    
     62000   1557.2414      259.26956      1297.9719      316.28933     -880.27414      1.0177122      4455.7805      0              0              0              0              0             -231.93135    
     62250   1553.3867      267.38735      1285.9993      326.19242     -3557.0049      1.0177122      4455.7805      0              0              0              0              0             -231.02292    
     62500   1536.8318      253.85457      1282.9772      309.68345     -1996.9639      1.0177122      4455.7805      0              0              0              0              0             -231.52935    
     62750   1526.6796      249.40349      1277.2762      304.25346     -1609.4732      1.0177122      4455.7805      0              0              0              0              0             -233.52884    
     63000   1503.3079      236.59905      1266.7088      288.63301      2486.1014      1.0177122      4455.7805      0              0              0              0              0             -232.76251    
     63250   1500.3613      220.37414      1279.9872      268.83984     -1046.0385      1.0177122      4455.7805      0              0              0              0              0             -231.28108    
     63500   1520.775       254.86796      1265.9071      310.9197      -4085.6335      1.0177122      4455.7805      0              0              0              0              0             -232.4616     
     63750   1533.2992      245.11126      1288.188       299.01727     -1327.7311      1.0177122      4455.7805      0              0              0              0              0             -232.7869     
     64000   1535.9214      241.81153      1294.1099      294.99184     -2053.4719      1.0177122      4455.7805      0              0              0              0              0             -230.62432    
     64250   1514.735       242.07811      1272.6569      295.31705     -2460.0697      1.0177122      4455.7805      0              0              0              0              0             -230.10278    
     64500   1529.8069      250.20908      1279.5978      305.23623     -1089.5133      1.0177122      4455.7805      0              0              0              0              0             -230.54733    
     64750   1505.5231      240.69811      1264.825       293.63355     -5113.5582      1.0177122      4455.7805      0              0              0              0              0             -230.43035    
     65000   1559.649       273.60116      1286.0478      333.7728       1212.5512      1.0177122      4455.7805      0              0              0              0              0             -231.01478    
     65250   1534.4072      250.04226      1284.365       305.03271     -557.13956      1.0177122      4455.7805      0              0              0              0              0             -231.78658    
     65500   1535.568       234.48431      1301.0837      286.05319      947.97346      1.0177122      4455.7805      0              0              0              0              0             -233.43232    
     65750   1544.2168      258.66657      1285.5502      315.55372     -3102.0636      1.0177122      4455.7805      0              0              0              0              0             -230.94079    
     66000   1564.357       269.57229      1294.7847      328.85788     -1937.6923      1.0177122      4455.7805      0              0              0              0              0             -230.89512    
     66250   1543.9678      261.07179      1282.896       318.48791     -1225.8756      1.0177122      4455.7805      0              0              0              0              0             -231.7005     
     66500   1515.8691      238.54659      1277.3225      291.00886     -786.31034      1.0177122      4455.7805      0              0              0              0              0             -231.64024    
     66750   1524.5851      249.84947      1274.7356      304.79753     -4810.2599      1.0177122      4455.7805      0              0              0              0              0             -231.83331    
     67000   1520.3974      251.26459      1269.1328      306.52387      596.97771      1.0177122      4455.7805      0              0              0              0              0             -232.88896    
     67250   1514.5332      243.7968       1270.7364      297.41373     -4786.5525      1.0177122      4455.7805      0              0              0              0              0             -231.95619    
     67500   1523.3402      248.64465      1274.6955      303.32774      1270.2026      1.0177122      4455.7805      0              0              0              0              0             -232.37366    
     67750   1483.4478      222.31031      1261.1375      271.20182     -5645.9391      1.0177122      4455.7805      0              0              0              0              0             -231.85926    
     68000   1539.7166      254.6708       1285.0458      310.67919      711.88645      1.0177122      4455.7805      0              0              0              0              0             -232.52579    
     68250   1545.7162      249.90368      1295.8125      304.86366     -1212.8861      1.0177122      4455.7805      0              0              0              0              0             -232.29239    
     68500   1544.8539      255.88044      1288.9735      312.15485     -2190.5826      1.0177122      4455.7805      0              0              0              0              0             -231.36432    
     68750   1517.5257      232.64876      1284.8769      283.81396      1131.8329      1.0177122      4455.7805      0              0              0              0              0             -231.95723    
     69000   1538.4522      248.42961      1290.0226      303.0654      -703.16905      1.0177122      4455.7805      0              0              0              0              0             -232.41147    
     69250   1537.4005      259.15828      1278.2422      316.15357     -2249.5371      1.0177122      4455.7805      0              0              0              0              0             -232.73768    
     69500   1537.6263      242.50863      1295.1177      295.84225      1037.72        1.0177122      4455.7805      0              0              0              0              0             -230.35402    
     69750   1523.6832      258.3165       1265.3667      315.12667      677.36791      1.0177122      4455.7805      0              0              0              0              0             -231.60921    
     70000   1533.5852      242.19842      1291.3868      295.46382      788.71766      1.0177122      4455.7805      0              0              0              0              0             -230.99891    
     70250   1503.2543      227.22103      1276.0333      277.19253     -3536.2935      1.0177122      4455.7805      0              0              0              0              0             -232.11071    
     70500   1518.2819      228.81652      1289.4654      279.13891      385.20783      1.0177122      4455.7805      0              0              0              0              0             -231.99842    
     70750   1523.41        250.84687      1272.5631      306.01428      1551.0465      1.0177122      4455.7805      0              0              0              0              0             -233.38994    
     71000   1537.3972      258.088        1279.3092      314.84791     -1913.7635      1.0177122      4455.7805      0              0              0              0              0             -231.15987    
     71250   1539.6505      254.78103      1284.8695      310.81365     -1171.2201      1.0177122      4455.7805      0              0              0              0              0             -232.97488    
     71500   1537.0805      260.57029      1276.5102      317.87611     -3686.8686      1.0177122      4455.7805      0              0              0              0              0             -231.41725    
     71750   1528.2176      240.71534      1287.5022      293.65458     -4925.2034      1.0177122      4455.7805      0              0              0              0              0             -231.84617    
     72000   1514.5373      241.38318      1273.1541      294.46929     -2436.8649      1.0177122      4455.7805      0              0              0              0              0             -231.94446    
     72250   1568.3643      262.7404       1305.6239      320.52349     -3663.9614      1.0177122      4455.7805      0              0              0              0              0             -231.53392    
     72500   1551.4284      256.51945      1294.9089      312.9344      -3230.7397      1.0177122      4455.7805      0              0              0              0              0             -232.45441    
     72750   1540.9971      265.31717      1275.6799      323.66696      5111.206       1.0177122      4455.7805      0              0              0              0              0             -233.83083    
     73000   1528.8276      250.32979      1278.4978      305.38348     -2241.7438      1.0177122      4455.7805      0              0              0              0              0             -231.70242    
     73250   1571.3182      273.19625      1298.122       333.27884     -1285.555       1.0177122      4455.7805      0              0              0              0              0             -232.36957    
     73500   1532.1341      252.92089      1279.2132      308.54443     -3617.6734      1.0177122      4455.7805      0              0              0              0              0             -231.49271    
     73750   1554.3469      265.23419      1289.1127      323.56572     -1092.4884      1.0177122      4455.7805      0              0              0              0              0             -232.97556    
     74000   1514.3668      232.91794      1281.4489      284.14233     -3789.8248      1.0177122      4455.7805      0              0              0              0              0             -232.35635    
     74250   1475.4904      209.70833      1265.782       255.82836     -2723.2284      1.0177122      4455.7805      0              0              0              0              0             -231.8561     
     74500   1516.2915      242.76812      1273.5234      296.15881     -3449.4993      1.0177122      4455.7805      0              0              0              0              0             -230.86167    
     74750   1523.7271      258.09632      1265.6308      314.85807     -1386.3216      1.0177122      4455.7805      0              0              0              0              0             -232.25695    
     75000   1526.6591      258.68897      1267.9702      315.58105     -1812.5858      1.0177122      4455.7805      0              0              0              0              0             -232.06187    
     75250   1518.2506      251.3902       1266.8604      306.6771       893.75244      1.0177122      4455.7805      0              0              0              0              0             -230.62608    
     75500   1559.5617      252.54937      1307.0123      308.0912      -2653.3016      1.0177122      4455.7805      0              0              0              0              0             -232.94072    
     75750   1516.2369      224.96893      1291.268       274.44514     -2888.2581      1.0177122      4455.7805      0              0              0              0              0             -231.9        
     76000   1523.1369      247.45766      1275.6793      301.8797      -3340.7939      1.0177122      4455.7805      0              0              0              0              0             -230.31161    
     76250   1527.55        252.2787       1275.2713      307.761       -1317.4497      1.0177122      4455.7805      0              0              0              0              0             -231.64852    
     76500   1531.9639      256.42431      1275.5396      312.81834      169.59521      1.0177122      4455.7805      0              0              0              0              0             -232.65608    
     76750   1532.1873      240.7746       1291.4127      293.72687     -1554.0094      1.0177122      4455.7805      0              0              0              0              0             -231.56667    
     77000   1507.1805      247.01688      1260.1636      301.34198     -689.66897      1.0177122      4455.7805      0              0              0              0              0             -232.44934    
     77250   1532.3842      264.06559      1268.3187      322.14012      2648.2334      1.0177122      4455.7805      0              0              0              0              0             -233.09708    
     77500   1490.7489      228.00357      1262.7453      278.14717     -1320.2202      1.0177122      4455.7805      0              0              0              0              0             -230.71932    
     77750   1522.6508      246.6613       1275.9895      300.9082       1294.5349      1.0177122      4455.7805      0              0              0              0              0             -232.13621    
     78000   1542.2831      266.1383       1276.1448      324.66867     -1600.0124      1.0177122      4455.7805      0              0              0              0              0             -232.53771    
     78250   1561.6324      258.5495       1303.0829      315.41091      165.29779      1.0177122      4455.7805      0              0              0              0              0             -232.34297    
     78500   1546.9519      253.82204      1293.1299      309.64376     -4736.5426      1.0177122      4455.7805      0              0              0              0              0             -232.72109    
     78750   1533.7641      265.05944      1268.7047      323.35255     -811.62612      1.0177122      4455.7805      0              0              0              0              0             -230.69966    
     79000   1527.5892      257.45157      1270.1377      314.07152     -1386.8309      1.0177122      4455.7805      0              0              0              0              0             -232.67517    
     79250   1527.123       246.12521      1280.9978      300.25421     -4056.6564      1.0177122      4455.7805      0              0              0              0              0             -229.95775    
     79500   1539.4819      250.89665      1288.5853      306.075       -7017.1103      1.0177122      4455.7805      0              0              0              0              0             -231.59885    
     79750   1555.7343      251.76637      1303.9679      307.136        400.52338      1.0177122      4455.7805      0              0              0              0              0             -232.0185     
     80000   1559.1894      274.95739      1284.232       335.42729     -1872.2898      1.0177122      4455.7805      0              0              0              0              0             -232.79333    
     80250   1538.5632      256.29134      1282.2719      312.65613     -2051.5209      1.0177122      4455.7805      0              0              0              0              0             -231.93574    
     80500   1552.2851      255.43918      1296.8459      311.61655      1435.8121      1.0177122      4455.7805      0              0              0              0              0             -232.01693    
     80750   1545.1056      269.27257      1275.833       328.49225     -2018.1116      1.0177122      4455.7805      0              0              0              0              0             -229.93527    
     81000   1536.0894      243.14339      1292.946       296.61661     -3296.472       1.0177122      4455.7805      0              0              0              0              0             -233.01231    
     81250   1506.3885      246.06352      1260.325       300.17895     -471.1345       1.0177122      4455.7805      0              0              0              0              0             -230.54624    
     81500   1536.051       252.94471      1283.1063      308.57349     -3321.5126      1.0177122      4455.7805      0              0              0              0              0             -231.3874     
     81750   1519.343       242.23048      1277.1125      295.50294     -3786.5017      1.0177122      4455.7805      0              0              0              0              0             -232.38544    
     82000   1483.9912      222.13783      1261.8534      270.99141     -5029.3825      1.0177122      4455.7805      0              0              0              0              0             -230.61072    
     82250   1544.2543      269.27704      1274.9773      328.4977       3218.5906      1.0177122      4455.7805      0              0              0              0              0             -233.95992    
     82500   1550.9461      268.27636      1282.6698      327.27694     -1234.999       1.0177122      4455.7805      0              0              0              0              0             -232.78592    
     82750   1538.3323      248.50519      1289.8271      303.15761     -1991.1121      1.0177122      4455.7805      0              0              0              0              0             -232.44483    
     83000   1528.0098      260.02203      1267.9878      317.20728     -386.425        1.0177122      4455.7805      0              0              0              0              0             -232.07278    
     83250   1528.0166      242.43031      1285.5863      295.74671     -620.1148       1.0177122      4455.7805      0              0              0              0              0             -231.9402     
     83500   1552.7456      255.52451      1297.2211      311.72064     -1965.9724      1.0177122      4455.7805      0              0              0              0              0             -230.49732    
     83750   1590.6455      272.23665      1318.4088      332.10819     -2121.5166      1.0177122      4455.7805      0              0              0              0              0             -232.69079    
     84000   1535.4889      257.68342      1277.8055      314.35435     -4015.7893      1.0177122      4455.7805      0              0              0              0              0             -231.7223     
     84250   1516.8762      236.56604      1280.3102      288.59274     -3992.66        1.0177122      4455.7805      0              0              0              0              0             -230.37687    
     84500   1549.2294      262.17907      1287.0503      319.8387      -2772.1051      1.0177122      4455.7805      0              0              0              0              0             -231.88333    
     84750   1572.6089      286.29299      1286.3159      349.25587      110.24034      1.0177122      4455.7805      0              0              0              0              0             -231.81009    
     85000   1517.3245      243.78039      1273.5441      297.39371      1917.7944      1.0177122      4455.7805      0              0              0              0              0             -231.96483    
     85250   1547.0355      268.4275       1278.608       327.46133     -5287.5408      1.0177122      4455.7805      0              0              0              0              0             -231.82106    
     85500   1535.1412      248.86718      1286.2741      303.59921      11.926177      1.0177122      4455.7805      0              0              0              0              0             -232.24385    
     85750   1567.6044      275.67568      1291.9287      336.30355     -1587.1804      1.0177122      4455.7805      0              0              0              0              0             -232.97241    
     86000   1508.356       246.00783      1262.3482      300.11102     -3446.2896      1.0177122      4455.7805      0              0              0              0              0             -230.6923     
     86250   1524.6331      236.74172      1287.8914      288.80706      2694.769       1.0177122      4455.7805      0              0              0              0              0             -231.4557     
     86500   1544.4022      246.49549      1297.9067      300.70592     -1915.3426      1.0177122      4455.7805      0              0              0              0              0             -231.98871    
     86750   1524.5908      241.01271      1283.5781      294.01734     -896.23491      1.0177122      4455.7805      0              0              0              0              0             -232.10564    
     87000   1520.2526      265.93982      1254.3128      324.42654     -330.60076      1.0177122      4455.7805      0              0              0              0              0             -232.62053    
     87250   1512.4881      239.66217      1272.8259      292.36979     -5010.6285      1.0177122      4455.7805      0              0              0              0              0             -232.07161    
     87500   1556.8876      265.91         1290.9776      324.39016      1432.6849      1.0177122      4455.7805      0              0              0              0              0             -232.41553    
     87750   1523.6774      241.83171      1281.8457      295.01646      1249.9172      1.0177122      4455.7805      0              0              0              0              0             -232.38828    
     88000   1520.7457      245.71786      1275.0279      299.75727     -4371.8129      1.0177122      4455.7805      0              0              0              0              0             -231.33002    
     88250   1526.5025      254.65261      1271.8499      310.657        731.6413       1.0177122      4455.7805      0              0              0              0              0             -231.49763    
     88500   1527.1066      244.61671      1282.4899      298.41395     -1987.155       1.0177122      4455.7805      0              0              0              0              0             -232.25366    
     88750   1510.6006      239.20734      1271.3933      291.81493      588.26475      1.0177122      4455.7805      0              0              0              0              0             -232.22017    
     89000   1513.664       230.78194      1282.882       281.53658     -4682.1691      1.0177122      4455.7805      0              0              0              0              0             -233.09482    
     89250   1522.6822      247.5397       1275.1425      301.97978      378.01421      1.0177122      4455.7805      0              0              0              0              0             -231.74583    
     89500   1532.7256      249.74119      1282.9844      304.66543     -3013.9701      1.0177122      4455.7805      0              0              0              0              0             -230.11994    
     89750   1509.4776      235.86631      1273.6112      287.73913     -4262.4747      1.0177122      4455.7805      0              0              0              0              0             -231.25934    
     90000   1554.8517      264.09947      1290.7523      322.18146     -3859.7834      1.0177122      4455.7805      0              0              0              0              0             -232.00606    
     90250   1540.0174      256.76581      1283.2515      313.23494     -1339.8878      1.0177122      4455.7805      0              0              0              0              0             -234.07643    
     90500   1512.4908      225.86282      1286.628       275.53562     -2798.2436      1.0177122      4455.7805      0              0              0              0              0             -231.96591    
     90750   1548.4307      264.88199      1283.5487      323.13607     -2212.3315      1.0177122      4455.7805      0              0              0              0              0             -232.98417    
     91000   1543.322       268.22118      1275.1008      327.20963     -209.47579      1.0177122      4455.7805      0              0              0              0              0             -232.31323    
     91250   1540.4689      244.67023      1295.7987      298.47925     -990.25138      1.0177122      4455.7805      0              0              0              0              0             -232.57466    
     91500   1542.8823      253.75774      1289.1246      309.56532      3213.9436      1.0177122      4455.7805      0              0              0              0              0             -231.13536    
     91750   1545.6664      248.49525      1297.1711      303.14548     -1256.6795      1.0177122      4455.7805      0              0              0              0              0             -232.38546    
     92000   1534.2206      260.32735      1273.8933      317.57975     -3599.3848      1.0177122      4455.7805      0              0              0              0              0             -232.98928    
     92250   1519.5764      246.15514      1273.4212      300.29072     -2645.8087      1.0177122      4455.7805      0              0              0              0              0             -233.37642    
     92500   1524.1711      241.49134      1282.6798      294.60124     -2338.3039      1.0177122      4455.7805      0              0              0              0              0             -231.52781    
     92750   1530.11        233.53393      1296.5761      284.89379     -2369.8889      1.0177122      4455.7805      0              0              0              0              0             -232.45937    
     93000   1550.068       250.17321      1299.8948      305.19246     -2456.782       1.0177122      4455.7805      0              0              0              0              0             -232.10068    
     93250   1547.0072      262.61332      1284.3939      320.36846      1784.039       1.0177122      4455.7805      0              0              0              0              0             -232.47393    
     93500   1544.4344      253.68766      1290.7468      309.47983     -3770.0674      1.0177122      4455.7805      0              0              0              0              0             -231.30259    
     93750   1509.5634      237.2029       1272.3605      289.36966     -4660.3862      1.0177122      4455.7805      0              0              0              0              0             -231.99779    
     94000   1541.7133      240.89402      1300.8192      293.87255     -642.89555      1.0177122      4455.7805      0              0              0              0              0             -231.71702    
     94250   1529.099       245.97611      1283.1229      300.07232     -455.55435      1.0177122      4455.7805      0              0              0              0              0             -231.15414    
     94500   1528.2064      256.39799      1271.8084      312.78623      1807.9938      1.0177122      4455.7805      0              0              0              0              0             -231.30934    
     94750   1547.1572      257.36065      1289.7966      313.9606      -2376.7447      1.0177122      4455.7805      0              0              0              0              0             -231.89315    
     95000   1541.3162      265.83374      1275.4825      324.29713     -363.02097      1.0177122      4455.7805      0              0              0              0              0             -233.94426    
     95250   1509.8904      232.16129      1277.7291      283.21928     -4851.6102      1.0177122      4455.7805      0              0              0              0              0             -230.5554     
     95500   1535.0961      261.22711      1273.869       318.67738      267.85646      1.0177122      4455.7805      0              0              0              0              0             -229.53129    
     95750   1536.4658      243.8235       1292.6423      297.44629     -5307.126       1.0177122      4455.7805      0              0              0              0              0             -231.96195    
     96000   1496.6863      227.2984       1269.3879      277.28691     -2569.0298      1.0177122      4455.7805      0              0              0              0              0             -232.06523    
     96250   1541.5946      249.00367      1292.5909      303.76571     -1110.26        1.0177122      4455.7805      0              0              0              0              0             -233.28431    
     96500   1545.732       258.33618      1287.3958      315.15067      679.73959      1.0177122      4455.7805      0              0              0              0              0             -232.59284    
     96750   1530.1865      248.60394      1281.5825      303.27807     -4273.4273      1.0177122      4455.7805      0              0              0              0              0             -233.70511    
     97000   1511.3515      239.91253      1271.4389      292.67521     -329.55134      1.0177122      4455.7805      0              0              0              0              0             -232.04386    
     97250   1529.2919      247.71398      1281.5779      302.19239     -8833.403       1.0177122      4455.7805      0              0              0              0              0             -231.49051    
     97500   1498.974       240.47166      1258.5023      293.3573      -2693.712       1.0177122      4455.7805      0              0              0              0              0             -233.10179    
     97750   1508.341       234.26329      1274.0777      285.78356      237.83532      1.0177122      4455.7805      0              0              0              0              0             -232.35585    
     98000   1522.0477      251.32664      1270.7211      306.59956     -1570.012       1.0177122      4455.7805      0              0              0              0              0             -231.03074    
     98250   1527.0952      257.08391      1270.0113      313.623        14.42835       1.0177122      4455.7805      0              0              0              0              0             -233.6859     
     98500   1540.27        252.018        1288.252       307.44297     -333.35076      1.0177122      4455.7805      0              0              0              0              0             -232.54664    
     98750   1526.6122      250.03412      1276.5781      305.02278     -8273.2574      1.0177122      4455.7805      0              0              0              0              0             -231.39269    
     99000   1526.7791      253.59598      1273.1832      309.36798      342.98591      1.0177122      4455.7805      0              0              0              0              0             -232.52124    
     99250   1523.2355      261.82822      1261.4073      319.4107      -1098.7527      1.0177122      4455.7805      0              0              0              0              0             -233.72499    
     99500   1540.5003      245.35426      1295.146       299.31371     -1462.6913      1.0177122      4455.7805      0              0              0              0              0             -232.63586    
     99750   1557.6392      281.31668      1276.3225      343.18515      273.31775      1.0177122      4455.7805      0              0              0              0              0             -232.93901    
    100000   1526.9701      258.78947      1268.1806      315.70365     -2985.941       1.0177122      4455.7805      0              0              0              0              0             -232.54281    
    100250   1515.724       246.1094       1269.6146      300.23492     -4645.487       1.0177122      4455.7805      0              0              0              0              0             -232.2002     
    100500   1536.4244      256.35593      1280.0685      312.73492     -4489.4104      1.0177122      4455.7805      0              0              0              0              0             -232.241      
    100750   1513.3069      243.23253      1270.0744      296.72536      2273.07        1.0177122      4455.7805      0              0              0              0              0             -233.12002    
    101000   1513.2136      249.14688      1264.0668      303.94041     -2868.6212      1.0177122      4455.7805      0              0              0              0              0             -230.81178    
    101250   1525.8526      241.52919      1284.3235      294.64741     -3976.2407      1.0177122      4455.7805      0              0              0              0              0             -233.3408     
    101500   1547.675       261.58006      1286.0949      319.10796     -1129.6834      1.0177122      4455.7805      0              0              0              0              0             -232.24043    
    101750   1516.1481      239.13349      1277.0146      291.72484     -538.6507       1.0177122      4455.7805      0              0              0              0              0             -232.21104    
    102000   1538.5233      258.60943      1279.9139      315.48401     -3931.7648      1.0177122      4455.7805      0              0              0              0              0             -231.83297    
    102250   1550.5403      250.32431      1300.216       305.37679      302.86414      1.0177122      4455.7805      0              0              0              0              0             -230.99431    
    102500   1515.3127      238.09053      1277.2221      290.45251     -2616.2932      1.0177122      4455.7805      0              0              0              0              0             -231.88674    
    102750   1505.9638      244.13219      1261.8316      297.82288     -174.43091      1.0177122      4455.7805      0              0              0              0              0             -231.43833    
    103000   1529.1244      250.67475      1278.4497      305.80431     -4544.3315      1.0177122      4455.7805      0              0              0              0              0             -231.22396    
    103250   1536.128       260.81453      1275.3135      318.17408     -1903.7371      1.0177122      4455.7805      0              0              0              0              0             -231.41659    
    103500   1483.8528      227.1769       1256.6759      277.1387      -1891.9659      1.0177122      4455.7805      0              0              0              0              0             -231.99175    
    103750   1539.4688      267.80114      1271.6676      326.6972      -502.51679      1.0177122      4455.7805      0              0              0              0              0             -231.32445    
    104000   1544.9972      250.00421      1294.993       304.9863      -2986.8282      1.0177122      4455.7805      0              0              0              0              0             -232.55894    
    104250   1554.1476      260.32332      1293.8243      317.57484     -1618.7448      1.0177122      4455.7805      0              0              0              0              0             -231.12539    
    104500   1549.1625      257.08871      1292.0738      313.62886      16.747538      1.0177122      4455.7805      0              0              0              0              0             -232.94078    
    104750   1522.8681      249.89948      1272.9687      304.85854     -3094.5514      1.0177122      4455.7805      0              0              0              0              0             -231.00443    
    105000   1548.8857      248.66426      1300.2214      303.35165     -359.34658      1.0177122      4455.7805      0              0              0              0              0             -232.78327    
    105250   1551.3447      262.47754      1288.8671      320.20282     -6599.5808      1.0177122      4455.7805      0              0              0              0              0             -231.45313    
    105500   1539.4919      246.87623      1292.6156      301.17039      304.72688      1.0177122      4455.7805      0              0              0              0              0             -231.83522    
    105750   1537.7291      249.508        1288.2211      304.38096     -2626.1301      1.0177122      4455.7805      0              0              0              0              0             -231.45428    
    106000   1515.626       251.18927      1264.4367      306.43198     -951.70648      1.0177122      4455.7805      0              0              0              0              0             -232.27183    
    106250   1530.4545      265.02339      1265.4311      323.30856     -1313.1247      1.0177122      4455.7805      0              0              0              0              0             -231.88382    
    106500   1519.4126      253.77619      1265.6364      309.58783     -2991.1355      1.0177122      4455.7805      0              0              0              0              0             -231.22847    
    106750   1544.25        243.45708      1300.793       296.99929      2720.4984      1.0177122      4455.7805      0              0              0              0              0             -232.10713    
    107000   1533.4256      262.90742      1270.5182      320.72724     -1464.0204      1.0177122      4455.7805      0              0              0              0              0             -232.40849    
    107250   1550.2597      266.33354      1283.9262      324.90685     -2766.2546      1.0177122      4455.7805      0              0              0              0              0             -231.48155    
    107500   1533.7402      239.81934      1293.9209      292.56152      1672.8442      1.0177122      4455.7805      0              0              0              0              0             -233.58362    
    107750   1564.3753      259.82504      1304.5502      316.96697     -658.90952      1.0177122      4455.7805      0              0              0              0              0             -233.32454    
    108000   1514.4968      246.94078      1267.556       301.24914     -329.02439      1.0177122      4455.7805      0              0              0              0              0             -232.47336    
    108250   1510.3485      246.5187       1263.8298      300.73423     -1014.1844      1.0177122      4455.7805      0              0              0              0              0             -232.55467    
    108500   1514.5445      243.38196      1271.1625      296.90764      590.04419      1.0177122      4455.7805      0              0              0              0              0             -233.72423    
    108750   1527.8662      253.36744      1274.4987      309.08919      5016.4832      1.0177122      4455.7805      0              0              0              0              0             -232.31199    
    109000   1517.0339      255.98194      1261.052       312.27867     -1612.3146      1.0177122      4455.7805      0              0              0              0              0             -231.26909    
    109250   1520.2865      258.94992      1261.3366      315.89939     -386.291        1.0177122      4455.7805      0              0              0              0              0             -232.06598    
    109500   1550.4794      258.95596      1291.5235      315.90676     -1705.1643      1.0177122      4455.7805      0              0              0              0              0             -233.73192    
    109750   1534.3538      261.98723      1272.3666      319.60468     -2467.2943      1.0177122      4455.7805      0              0              0              0              0             -232.7646     
    110000   1503.5725      231.63002      1271.9425      282.57117      2995.6858      1.0177122      4455.7805      0              0              0              0              0             -232.1243     
    110250   1527.5156      261.19405      1266.3216      318.63706     -4196.7453      1.0177122      4455.7805      0              0              0              0              0             -231.20424    
    110500   1561.8136      259.16837      1302.6453      316.16588     -715.76289      1.0177122      4455.7805      0              0              0              0              0             -233.31858    
    110750   1552.2765      257.44922      1294.8272      314.06865     -2751.3472      1.0177122      4455.7805      0              0              0              0              0             -233.30685    
    111000   1518.6877      260.78498      1257.9028      318.13803     -1521.5522      1.0177122      4455.7805      0              0              0              0              0             -229.91977    
    111250   1509.4022      235.42065      1273.9816      287.19545      975.20342      1.0177122      4455.7805      0              0              0              0              0             -231.58433    
    111500   1534.4517      235.59716      1298.8546      287.41078     -2560.1101      1.0177122      4455.7805      0              0              0              0              0             -232.78445    
    111750   1526.6517      258.63125      1268.0204      315.51064     -603.0304       1.0177122      4455.7805      0              0              0              0              0             -231.2788     
    112000   1506.0317      242.59604      1263.4356      295.94888     -3527.648       1.0177122      4455.7805      0              0              0              0              0             -229.92999    
    112250   1540.7664      263.8202       1276.9462      321.84077     -2166.9574      1.0177122      4455.7805      0              0              0              0              0             -230.96536    
    112500   1572.4306      275.15043      1297.2801      335.66279     -2571.5001      1.0177122      4455.7805      0              0              0              0              0             -231.83899    
    112750   1516.4699      241.35786      1275.1121      294.4384      -359.17962      1.0177122      4455.7805      0              0              0              0              0             -230.65994    
    113000   1518.2428      232.02925      1286.2135      283.0582      -7246.1662      1.0177122      4455.7805      0              0              0              0              0             -230.59709    
    113250   1529.229       258.92899      1270.3         315.87385     -995.59773      1.0177122      4455.7805      0              0              0              0              0             -231.84132    
    113500   1538.6132      246.76102      1291.8522      301.02985     -951.08551      1.0177122      4455.7805      0              0              0              0              0             -232.23447    
    113750   1548.6538      257.90683      1290.747       314.6269      -230.53273      1.0177122      4455.7805      0              0              0              0              0             -231.42909    
    114000   1533.9149      262.6961       1271.2188      320.46945     -2206.3741      1.0177122      4455.7805      0              0              0              0              0             -230.82382    
    114250   1549.4609      276.40559      1273.0553      337.19399      2096.8167      1.0177122      4455.7805      0              0              0              0              0             -232.10267    
    114500   1576.7758      274.76072      1302.0151      335.18737      4302.431       1.0177122      4455.7805      0              0              0              0              0             -232.23917    
    114750   1574.2525      292.64563      1281.6069      357.00562     -1274.4782      1.0177122      4455.7805      0              0              0              0              0             -230.88155    
    115000   1525.8818      242.04609      1283.8357      295.27799     -3847.1182      1.0177122      4455.7805      0              0              0              0              0             -230.4936     
    115250   1547.1276      266.04799      1281.0796      324.55849     -49.239402      1.0177122      4455.7805      0              0              0              0              0             -233.54398    
    115500   1538.9399      261.80825      1277.1316      319.38633     -4555.5181      1.0177122      4455.7805      0              0              0              0              0             -229.35951    
    115750   1526.8558      246.75771      1280.0981      301.02581     -4038.3681      1.0177122      4455.7805      0              0              0              0              0             -231.55743    
    116000   1529.9181      256.56328      1273.3548      312.98787     -3335.7129      1.0177122      4455.7805      0              0              0              0              0             -232.47517    
    116250   1565.0431      264.22416      1300.8189      322.33357      133.64546      1.0177122      4455.7805      0              0              0              0              0             -232.40035    
    116500   1521.0308      236.82685      1284.204       288.91092     -1147.5578      1.0177122      4455.7805      0              0              0              0              0             -232.39963    
    116750   1546.8763      253.80806      1293.0682      309.62671      2795.7786      1.0177122      4455.7805      0              0              0              0              0             -231.62521    
    117000   1537.2184      261.57064      1275.6478      319.09647     -4001.6057      1.0177122      4455.7805      0              0              0              0              0             -231.38699    
    117250   1556.9179      270.7886       1286.1293      330.34169     -3012.848       1.0177122      4455.7805      0              0              0              0              0             -232.98879    
    117500   1536.1696      267.00111      1269.1685      325.72124      1921.291       1.0177122      4455.7805      0              0              0              0              0             -230.55356    
    117750   1485.6267      232.9201       1252.7066      284.14497     -1010.0648      1.0177122      4455.7805      0              0              0              0              0             -231.62879    
    118000   1524.385       254.00115      1270.3838      309.86226     -27.764311      1.0177122      4455.7805      0              0              0              0              0             -233.31278    
    118250   1557.3584      255.39146      1301.967       311.55834     -4174.316       1.0177122      4455.7805      0              0              0              0              0             -231.48785    
    118500   1557.5366      253.35951      1304.1771      309.07951     -4523.0633      1.0177122      4455.7805      0              0              0              0              0             -232.19314    
    118750   1534.622       256.51953      1278.1025      312.93449      1559.4773      1.0177122      4455.7805      0              0              0              0              0             -232.44356    
    119000   1534.7689      252.42833      1282.3405      307.94355     -5941.9799      1.0177122      4455.7805      0              0              0              0              0             -230.62775    
    119250   1542.5005      251.41871      1291.0818      306.71188      297.79853      1.0177122      4455.7805      0              0              0              0              0             -232.18594    
    119500   1516.5822      234.1409       1282.4413      285.63425     -1134.2282      1.0177122      4455.7805      0              0              0              0              0             -232.52365    
    119750   1530.2299      253.76799      1276.4619      309.57782     -4798.4429      1.0177122      4455.7805      0              0              0              0              0             -231.54725    
    120000   1511.1738      235.67392      1275.4998      287.50442      2329.2542      1.0177122      4455.7805      0              0              0              0              0             -232.34194    
    120250   1525.6057      251.42724      1274.1785      306.72229     -1908.9069      1.0177122      4455.7805      0              0              0              0              0             -230.97003    
    120500   1543.0089      269.16356      1273.8453      328.35926     -347.88609      1.0177122      4455.7805      0              0              0              0              0             -233.70312    
    120750   1535.5169      262.397        1273.1199      320.10456     -4619.4483      1.0177122      4455.7805      0              0              0              0              0             -230.18701    
    121000   1506.5744      248.97259      1257.6018      303.7278      -14.256952      1.0177122      4455.7805      0              0              0              0              0             -231.61364    
    121250   1521.1993      252.49978      1268.6995      308.0307      -487.13003      1.0177122      4455.7805      0              0              0              0              0             -232.15793    
    121500   1553.2178      256.46174      1296.7561      312.864       -2191.7545      1.0177122      4455.7805      0              0              0              0              0             -231.48644    
    121750   1522.9203      239.59539      1283.3249      292.28832     -1919.9374      1.0177122      4455.7805      0              0              0              0              0             -230.65164    
    122000   1516.8321      246.44659      1270.3855      300.64627     -2132.6458      1.0177122      4455.7805      0              0              0              0              0             -230.76048    
    122250   1532.7662      249.97934      1282.7868      304.95596     -2292.1007      1.0177122      4455.7805      0              0              0              0              0             -232.34401    
    122500   1554.9524      273.363        1281.5894      333.48226      352.74721      1.0177122      4455.7805      0              0              0              0              0             -230.92207    
    122750   1518.3616      255.7397       1262.6219      311.98316     -2725.765       1.0177122      4455.7805      0              0              0              0              0             -232.67033    
    123000   1529.0199      254.2105       1274.8094      310.11765     -2155.3451      1.0177122      4455.7805      0              0              0              0              0             -232.11417    
    123250   1513.1859      241.16589      1272.02        294.20422      3546.1617      1.0177122      4455.7805      0              0              0              0              0             -231.83969    
    123500   1504.7136      233.55584      1271.1578      284.92053     -775.22678      1.0177122      4455.7805      0              0              0              0              0             -231.16984    
    123750   1502.9334      246.86187      1256.0715      301.15288     -3289.5551      1.0177122      4455.7805      0              0              0              0              0             -231.08061    
    124000   1531.9183      243.17678      1288.7415      296.65735      335.0578       1.0177122      4455.7805      0              0              0              0              0             -232.62767    
    124250   1524.2528      254.34489      1269.9079      310.28159      2552.3236      1.0177122      4455.7805      0              0              0              0              0             -232.019      
    124500   1506.832       234.04234      1272.7897      285.51402     -695.57278      1.0177122      4455.7805      0              0              0              0              0             -230.7983     
    124750   1519.1694      242.26049      1276.9089      295.53955     -5401.1064      1.0177122      4455.7805      0              0              0              0              0             -231.38836    
    125000   1512.6315      242.919        1269.7125      296.34288      643.41484      1.0177122      4455.7805      0              0              0              0              0             -231.61145    
    125250   1550.8304      253.58237      1297.248       309.35139      6250.4364      1.0177122      4455.7805      0              0              0              0              0             -234.8057     
    125500   1519.5772      238.19864      1281.3786      290.58439     -896.29236      1.0177122      4455.7805      0              0              0              0              0             -232.20151    
    125750   1541.5753      243.85278      1297.7226      297.48202     -5961.5307      1.0177122      4455.7805      0              0              0              0              0             -231.39229    
    126000   1569.3488      255.46824      1313.8806      311.652       -444.81681      1.0177122      4455.7805      0              0              0              0              0             -232.38439    
    126250   1532.2867      273.74818      1258.5385      333.95215     -3284.4744      1.0177122      4455.7805      0              0              0              0              0             -230.82967    
    126500   1525.684       259.97164      1265.7123      317.14582      1414.5761      1.0177122      4455.7805      0              0              0              0              0             -232.21322    
    126750   1553.3566      255.47711      1297.8795      311.66282     -2465.5333      1.0177122      4455.7805      0              0              0              0              0             -232.2759     
    127000   1556.0525      286.17675      1269.8758      349.11407     -2140.2601      1.0177122      4455.7805      0              0              0              0              0             -231.44719    
    127250   1559.7261      272.13046      1287.5956      331.97865     -3471.3725      1.0177122      4455.7805      0              0              0              0              0             -233.47445    
    127500   1552.3487      262.26471      1290.084       319.94318     -5235.5474      1.0177122      4455.7805      0              0              0              0              0             -230.69639    
    127750   1502.602       243.41989      1259.1822      296.95393     -962.213        1.0177122      4455.7805      0              0              0              0              0             -232.70463    
    128000   1548.218       251.60652      1296.6114      306.941       -540.67431      1.0177122      4455.7805      0              0              0              0              0             -231.90921    
    128250   1493.3812      233.58141      1259.7998      284.95172     -1170.2175      1.0177122      4455.7805      0              0              0              0              0             -232.44768    
    128500   1551.0959      248.12434      1302.9715      302.693       -4221.7536      1.0177122      4455.7805      0              0              0              0              0             -232.39379    
    128750   1535.1545      249.84015      1285.3143      304.78616     -6603.9313      1.0177122      4455.7805      0              0              0              0              0             -231.40802    
    129000   1543.4387      261.57646      1281.8622      319.10357     -770.93492      1.0177122      4455.7805      0              0              0              0              0             -232.46824    
    129250   1547.6062      269.7368       1277.8694      329.05856     -2272.101       1.0177122      4455.7805      0              0              0              0              0             -232.10365    
    129500   1519.2284      244.47926      1274.7492      298.24627     -1696.6802      1.0177122      4455.7805      0              0              0              0              0             -232.59594    
    129750   1524.3751      244.1462       1280.2289      297.83996      495.89652      1.0177122      4455.7805      0              0              0              0              0             -232.75976    
    130000   1514.3496      240.76134      1273.5883      293.7107      -1426.593       1.0177122      4455.7805      0              0              0              0              0             -233.0801     
    130250   1530.1487      243.25333      1286.8953      296.75073     -1329.4723      1.0177122      4455.7805      0              0              0              0              0             -232.58866    
    130500   1563.5585      257.41345      1306.145       314.02501     -7321.0178      1.0177122      4455.7805      0              0              0              0              0             -231.38194    
    130750   1563.4215      249.48001      1313.9415      304.34682     -4592.884       1.0177122      4455.7805      0              0              0              0              0             -231.6643     
    131000   1510.2535      253.82707      1256.4264      309.6499       482.85829      1.0177122      4455.7805      0              0              0              0              0             -231.78324    
    131250   1520.1532      257.62308      1262.5301      314.28074     -3127.316       1.0177122      4455.7805      0              0              0              0              0             -232.12331    
    131500   1519.8511      249.05419      1270.7969      303.82734      562.09401      1.0177122      4455.7805      0              0              0              0              0             -230.88132    
    131750   1517.0239      239.43231      1277.5916      292.08938     -2019.1893      1.0177122      4455.7805      0              0              0              0              0             -233.35817    
    132000   1521.2567      247.37238      1273.8843      301.77566      1358.8154      1.0177122      4455.7805      0              0              0              0              0             -232.14173    
    132250   1532.2631      237.29192      1294.9712      289.47826     -1343.3508      1.0177122      4455.7805      0              0              0              0              0             -232.14281    
    132500   1530.1111      240.17836      1289.9328      292.9995      -1295.0404      1.0177122      4455.7805      0              0              0              0              0             -233.38352    
    132750   1520.5255      233.07071      1287.4548      284.3287       1214.3478      1.0177122      4455.7805      0              0              0              0              0             -232.56557    
    133000   1529.986       249.74086      1280.2451      304.66503     -3419.6125      1.0177122      4455.7805      0              0              0              0              0             -232.0276     
    133250   1562.4225      270.03084      1292.3917      329.41727      3021.38        1.0177122      4455.7805      0              0              0              0              0             -230.89837    
    133500   1554.4529      256.01446      1298.4385      312.31835     -3455.0636      1.0177122      4455.7805      0              0              0              0              0             -232.78956    
    133750   1538.3709      248.30396      1290.067       302.91212     -2475.4471      1.0177122      4455.7805      0              0              0              0              0             -232.90294    
    134000   1517.8366      246.46236      1271.3742      300.66551     -1127.1052      1.0177122      4455.7805      0              0              0              0              0             -232.18293    
    134250   1533.7997      265.10903      1268.6907      323.41304      4547.0404      1.0177122      4455.7805      0              0              0              0              0             -232.13882    
    134500   1526.0556      250.96342      1275.0922      306.15646     -2379.2537      1.0177122      4455.7805      0              0              0              0              0             -232.11888    
    134750   1527.7913      255.97524      1271.8161      312.2705      -1551.1163      1.0177122      4455.7805      0              0              0              0              0             -230.79485    
    135000   1552.5442      267.42932      1285.1149      326.24362     -3136.1235      1.0177122      4455.7805      0              0              0              0              0             -231.9941     
    135250   1541.6975      261.86468      1279.8328      319.45517      1796.9597      1.0177122      4455.7805      0              0              0              0              0             -233.62024    
    135500   1552.231       268.65679      1283.5742      327.74104     -2689.783       1.0177122      4455.7805      0              0              0              0              0             -230.49976    
    135750   1529.5474      239.66465      1289.8827      292.37281     -2451.6938      1.0177122      4455.7805      0              0              0              0              0             -229.65464    
    136000   1557.8116      284.19787      1273.6137      346.69998     -2669.7564      1.0177122      4455.7805      0              0              0              0              0             -230.06953    
    136250   1521.2945      251.13645      1270.158       306.36755     -661.78273      1.0177122      4455.7805      0              0              0              0              0             -231.15063    
    136500   1513.8188      234.71069      1279.1081      286.32935     -3006.3049      1.0177122      4455.7805      0              0              0              0              0             -233.22839    
    136750   1512.9997      236.6566       1276.3431      288.70321     -2813.6126      1.0177122      4455.7805      0              0              0              0              0             -231.90495    
    137000   1546.4539      249.90467      1296.5493      304.86486     -2654.8056      1.0177122      4455.7805      0              0              0              0              0             -232.55362    
    137250   1511.5687      246.02499      1265.5437      300.13195      1372.988       1.0177122      4455.7805      0              0              0              0              0             -231.90963    
    137500   1518.749       254.30163      1264.4474      310.22883     -2240.7875      1.0177122      4455.7805      0              0              0              0              0             -233.19778    
    137750   1539.0452      254.3113       1284.7339      310.24062     -4872.2467      1.0177122      4455.7805      0              0              0              0              0             -230.66543    
    138000   1545.0623      254.92369      1290.1386      310.98769     -991.55893      1.0177122      4455.7805      0              0              0              0              0             -232.62158    
    138250   1546.3289      258.23253      1288.0964      315.02422     -3483.8649      1.0177122      4455.7805      0              0              0              0              0             -230.59883    
    138500   1522.339       235.66519      1286.6738      287.49377     -3499.9661      1.0177122      4455.7805      0              0              0              0              0             -231.6754     
    138750   1533.6781      250.42262      1283.2555      305.49672     -602.62552      1.0177122      4455.7805      0              0              0              0              0             -231.20459    
    139000   1558.9032      263.66239      1295.2408      321.64824      4303.4267      1.0177122      4455.7805      0              0              0              0              0             -231.3777     
    139250   1534.7693      251.31727      1283.452       306.58813     -3667.2426      1.0177122      4455.7805      0              0              0              0              0             -233.61566    
    139500   1506.644       234.47827      1272.1658      286.04582     -6170.0847      1.0177122      4455.7805      0              0              0              0              0             -233.37814    
    139750   1520.9421      242.28124      1278.6609      295.56485      368.78167      1.0177122      4455.7805      0              0              0              0              0             -231.01015    
    140000   1532.9278      268.47998      1264.4478      327.52534     -698.96044      1.0177122      4455.7805      0              0              0              0              0             -232.83754    
    140250   1523.6902      245.90069      1277.7896      299.98031     -3527.6878      1.0177122      4455.7805      0              0              0              0              0             -232.28967    
    140500   1516.3624      262.44168      1253.9208      320.15907      3241.0043      1.0177122      4455.7805      0              0              0              0              0             -233.46623    
    140750   1529.7519      246.31648      1283.4354      300.48754     -457.87261      1.0177122      4455.7805      0              0              0              0              0             -232.97168    
    141000   1554.7267      267.28772      1287.439       326.07088      1223.0536      1.0177122      4455.7805      0              0              0              0              0             -232.09804    
    141250   1533.2151      253.68343      1279.5317      309.47467      377.98372      1.0177122      4455.7805      0              0              0              0              0             -233.12886    
    141500   1530.2824      252.03468      1278.2477      307.46331     -600.69443      1.0177122      4455.7805      0              0              0              0              0             -231.76449    
    141750   1519.2902      241.15297      1278.1372      294.18845     -1112.0654      1.0177122      4455.7805      0              0              0              0              0             -231.24215    
    142000   1521.516       242.86081      1278.6552      296.27188     -4134.984       1.0177122      4455.7805      0              0              0              0              0             -232.5485     
    142250   1501.9074      227.35008      1274.5573      277.34996     -3810.9107      1.0177122      4455.7805      0              0              0              0              0             -232.93005    
    142500   1501.2781      231.73657      1269.5415      282.70115      636.42483      1.0177122      4455.7805      0              0              0              0              0             -231.99605    
    142750   1501.1891      227.6716       1273.5175      277.7422       1771.8336      1.0177122      4455.7805      0              0              0              0              0             -233.09494    
    143000   1551.1561      255.5889       1295.5672      311.7992      -2611.449       1.0177122      4455.7805      0              0              0              0              0             -233.10534    
    143250   1522.368       248.35038      1274.0176      302.96875      434.10102      1.0177122      4455.7805      0              0              0              0              0             -232.10717    
    143500   1554.6896      272.80192      1281.8876      332.79779     -1754.5566      1.0177122      4455.7805      0              0              0              0              0             -231.03462    
    143750   1557.8623      277.60567      1280.2567      338.658       -2349.1567      1.0177122      4455.7805      0              0              0              0              0             -231.16718    
    144000   1569.7257      252.56257      1317.1631      308.1073      -2211.7262      1.0177122      4455.7805      0              0              0              0              0             -232.16455    
    144250   1550.3397      257.68324      1292.6564      314.35414     -2299.6786      1.0177122      4455.7805      0              0              0              0              0             -231.63251    
    144500   1521.2         251.26588      1269.9341      306.52544     -1743.6159      1.0177122      4455.7805      0              0              0              0              0             -232.08249    
    144750   1541.2625      231.81641      1309.4461      282.79855     -556.48676      1.0177122      4455.7805      0              0              0              0              0             -231.76989    
    145000   1503.8642      241.35635      1262.5079      294.43656     -3899.9207      1.0177122      4455.7805      0              0              0              0              0             -232.22369    
    145250   1519.2646      249.213        1270.0516      304.02108     -2013.1648      1.0177122      4455.7805      0              0              0              0              0             -232.93824    
    145500   1533.4754      247.82563      1285.6498      302.32859     -3492.1591      1.0177122      4455.7805      0              0              0              0              0             -232.70235    
    145750   1518.9963      244.97136      1274.0249      298.8466      -2632.0686      1.0177122      4455.7805      0              0              0              0              0             -231.80613    
    146000   1511.8404      241.10701      1270.7334      294.13239     -6220.2598      1.0177122      4455.7805      0              0              0              0              0             -231.65669    
    146250   1529.204       245.35477      1283.8492      299.31433      311.98855      1.0177122      4455.7805      0              0              0              0              0             -232.27724    
    146500   1506.8865      231.84733      1275.0392      282.83628     -1672.7976      1.0177122      4455.7805      0              0              0              0              0             -232.48549    
    146750   1515.6874      239.9627       1275.7247      292.73642     -2246.7707      1.0177122      4455.7805      0              0              0              0              0             -231.852      
    147000   1543.8333      264.32663      1279.5066      322.45856     -2948.7828      1.0177122      4455.7805      0              0              0              0              0             -232.8377     
    147250   1546.3426      255.09131      1291.2513      311.19218     -865.88398      1.0177122      4455.7805      0              0              0              0              0             -232.57198    
    147500   1504.734       234.9358       1269.7982      286.60397      222.19316      1.0177122      4455.7805      0              0              0              0              0             -232.12291    
    147750   1529.8449      247.20607      1282.6388      301.57278      403.08677      1.0177122      4455.7805      0              0              0              0              0             -231.28401    
    148000   1522.8077      248.06417      1274.7435      302.6196       2519.8801      1.0177122      4455.7805      0              0              0              0              0             -231.71787    
    148250   1515.5073      258.65005      1256.8572      315.53357      1816.6389      1.0177122      4455.7805      0              0              0              0              0             -231.12323    
    148500   1536.3913      247.98975      1288.4015      302.5288      -1724.1911      1.0177122      4455.7805      0              0              0              0              0             -231.35388    
    148750   1535.858       265.12211      1270.7359      323.429       -5805.8652      1.0177122      4455.7805      0              0              0              0              0             -230.61983    
    149000   1526.3363      256.82411      1269.5121      313.30606     -865.33588      1.0177122      4455.7805      0              0              0              0              0             -232.08634    
    149250   1523.3812      262.66121      1260.72        320.42689      1109.8471      1.0177122      4455.7805      0              0              0              0              0             -231.47829    
    149500   1539.3364      250.39268      1288.9437      305.4602       1792.9901      1.0177122      4455.7805      0              0              0              0              0             -231.89977    
    149750   1515.1075      248.7969       1266.3106      303.51348     -3393.9624      1.0177122      4455.7805      0              0              0              0              0             -231.72276    
    150000   1519.2495      254.91853      1264.331       310.98139      3691.6776      1.0177122      4455.7805      0              0              0              0              0             -232.5509     
    150250   1528.1802      231.42419      1296.756       282.32007     -6613.5771      1.0177122      4455.7805      0              0              0              0              0             -231.86775    
    150500   1519.5795      236.30232      1283.2771      288.27102     -488.05565      1.0177122      4455.7805      0              0              0              0              0             -232.92483    
    150750   1522.4356      245.21598      1277.2196      299.14502      2856.9944      1.0177122      4455.7805      0              0              0              0              0             -231.03487    
    151000   1526.717       236.6812       1290.0358      288.73323     -3891.9563      1.0177122      4455.7805      0              0              0              0              0             -232.08865    
    151250   1512.8993      247.96334      1264.936       302.49658     -3158.5165      1.0177122      4455.7805      0              0              0              0              0             -230.00285    
    151500   1525.1891      243.01569      1282.1734      296.46083     -935.45795      1.0177122      4455.7805      0              0              0              0              0             -231.24232    
    151750   1531.0002      236.94529      1294.0549      289.0554      -4516.4151      1.0177122      4455.7805      0              0              0              0              0             -233.14944    
    152000   1512.4745      244.18994      1268.2845      297.89332      1146.8544      1.0177122      4455.7805      0              0              0              0              0             -231.888      
    152250   1480.0454      225.4563       1254.5891      275.0397      -2039.5302      1.0177122      4455.7805      0              0              0              0              0             -231.35403    
    152500   1519.9466      255.9375       1264.0091      312.22447      3365.5431      1.0177122      4455.7805      0              0              0              0              0             -231.79257    
    152750   1499.9177      237.51666      1262.401       289.75242     -2962.8834      1.0177122      4455.7805      0              0              0              0              0             -233.13801    
    153000   1518.6733      253.2701       1265.4032      308.97044     -1790.538       1.0177122      4455.7805      0              0              0              0              0             -232.06454    
    153250   1520.3814      244.39112      1275.9903      298.13875     -2018.8981      1.0177122      4455.7805      0              0              0              0              0             -231.35584    
    153500   1554.1313      260.08518      1294.0461      317.28432     -1854.8112      1.0177122      4455.7805      0              0              0              0              0             -232.78458    
    153750   1519.2656      254.05975      1265.2058      309.93375      1000.0439      1.0177122      4455.7805      0              0              0              0              0             -233.31157    
    154000   1537.6443      242.77551      1294.8688      296.16782     -3477.2499      1.0177122      4455.7805      0              0              0              0              0             -231.89237    
    154250   1549.9359      259.61558      1290.3203      316.71145     -2366.0275      1.0177122      4455.7805      0              0              0              0              0             -232.73105    
    154500   1533.806       255.42292      1278.3831      311.59672      355.40814      1.0177122      4455.7805      0              0              0              0              0             -231.346      
    154750   1490.5008      224.90441      1265.5964      274.36643     -2854.4817      1.0177122      4455.7805      0              0              0              0              0             -231.62999    
    155000   1556.2305      272.2872       1283.9434      332.16986     -5430.0748      1.0177122      4455.7805      0              0              0              0              0             -232.27251    
    155250   1506.1289      221.03912      1285.0898      269.65108      1143.3196      1.0177122      4455.7805      0              0              0              0              0             -231.92631    
    155500   1521.9333      238.17217      1283.7611      290.5521      -4505.3999      1.0177122      4455.7805      0              0              0              0              0             -231.7036     
    155750   1536.6987      236.92721      1299.7715      289.03334      768.01605      1.0177122      4455.7805      0              0              0              0              0             -232.53866    
    156000   1522.8555      245.09812      1277.7573      299.00123     -3344.9113      1.0177122      4455.7805      0              0              0              0              0             -231.60325    
    156250   1513.0481      245.70048      1267.3476      299.73607     -2295.8411      1.0177122      4455.7805      0              0              0              0              0             -231.64107    
    156500   1528.7742      238.76621      1290.008       291.27678      499.96283      1.0177122      4455.7805      0              0              0              0              0             -233.34896    
    156750   1532.9194      246.54704      1286.3723      300.76882     -1886.1578      1.0177122      4455.7805      0              0              0              0              0             -231.43282    
    157000   1526.5367      253.35427      1273.1824      309.07312      210.93022      1.0177122      4455.7805      0              0              0              0              0             -231.69188    
    157250   1512.0181      238.81099      1273.2071      291.33142     -3233.2012      1.0177122      4455.7805      0              0              0              0              0             -231.53295    
    157500   1559.8043      277.43402      1282.3703      338.44859      874.51005      1.0177122      4455.7805      0              0              0              0              0             -231.77524    
    157750   1490.9301      221.65494      1269.2751      270.40232     -1312.7947      1.0177122      4455.7805      0              0              0              0              0             -232.14558    
    158000   1535.0325      251.28006      1283.7525      306.54274     -3898.3028      1.0177122      4455.7805      0              0              0              0              0             -232.19236    
    158250   1495.4483      231.56715      1263.8811      282.49448     -1868.5196      1.0177122      4455.7805      0              0              0              0              0             -231.69031    
    158500   1537.0279      257.53842      1279.4895      314.17746     -2847.2267      1.0177122      4455.7805      0              0              0              0              0             -230.89699    
    158750   1554.4391      269.21434      1285.2248      328.4212       779.6028       1.0177122      4455.7805      0              0              0              0              0             -231.11078    
    159000   1531.5117      258.19117      1273.3206      314.97377     -5396.5007      1.0177122      4455.7805      0              0              0              0              0             -231.12691    
    159250   1525.3896      256.50248      1268.8872      312.91369      3340.846       1.0177122      4455.7805      0              0              0              0              0             -232.36743    
    159500   1530.0099      242.40891      1287.6009      295.72061     -6201.8752      1.0177122      4455.7805      0              0              0              0              0             -232.70407    
    159750   1526.898       256.1719       1270.7261      312.51041      396.31356      1.0177122      4455.7805      0              0              0              0              0             -233.14063    
    160000   1542.0169      242.33758      1299.6793      295.63358     -4825.1073      1.0177122      4455.7805      0              0              0              0              0             -233.2859     
    160250   1519.4112      243.77892      1275.6323      297.39191     -879.90597      1.0177122      4455.7805      0              0              0              0              0             -231.47789    
    160500   1500.5839      239.66496      1260.9189      292.3732      -367.34259      1.0177122      4455.7805      0              0              0              0              0             -232.77961    
    160750   1529.3356      263.0579       1266.2777      320.91082     -4389.6128      1.0177122      4455.7805      0              0              0              0              0             -230.33629    
    161000   1516.1404      242.63069      1273.5097      295.99116     -1474.5127      1.0177122      4455.7805      0              0              0              0              0             -231.633      
    161250   1556.4961      263.8595       1292.6366      321.88871     -4110.7192      1.0177122      4455.7805      0              0              0              0              0             -231.67336    
    161500   1538.466       262.58809      1275.8779      320.33768     -5468.0979      1.0177122      4455.7805      0              0              0              0              0             -231.5741     
    161750   1529.2139      241.93356      1287.2803      295.14071     -2595.11        1.0177122      4455.7805      0              0              0              0              0             -231.28391    
    162000   1529.2159      229.14398      1300.0719      279.53839     -1088.565       1.0177122      4455.7805      0              0              0              0              0             -231.99525    
    162250   1537.146       248.49985      1288.6461      303.15109     -2179.1638      1.0177122      4455.7805      0              0              0              0              0             -232.67043    
    162500   1535.7502      258.79786      1276.9524      315.71388      1585.7345      1.0177122      4455.7805      0              0              0              0              0             -231.2247     
    162750   1487.2501      229.16462      1258.0855      279.56356      1140.3824      1.0177122      4455.7805      0              0              0              0              0             -231.14477    
    163000   1546.5303      260.66983      1285.8605      317.99755     -643.16714      1.0177122      4455.7805      0              0              0              0              0             -230.79637    
    163250   1532.8797      233.58958      1299.2901      284.96168     -3580.3983      1.0177122      4455.7805      0              0              0              0              0             -232.00019    
    163500   1525.516       254.91504      1270.601       310.97714     -300.57871      1.0177122      4455.7805      0              0              0              0              0             -232.07684    
    163750   1518.9313      247.12156      1271.8097      301.46968     -524.31373      1.0177122      4455.7805      0              0              0              0              0             -232.23283    
    164000   1541.3811      261.04051      1280.3406      318.44975      1620.7107      1.0177122      4455.7805      0              0              0              0              0             -231.62546    
    164250   1484.7521      233.87345      1250.8787      285.30799     -9.2773362      1.0177122      4455.7805      0              0              0              0              0             -232.44509    
    164500   1568.9012      261.44287      1307.4583      318.9406      -2714.785       1.0177122      4455.7805      0              0              0              0              0             -232.38259    
    164750   1539.6034      253.38746      1286.2159      309.11361      3321.4861      1.0177122      4455.7805      0              0              0              0              0             -233.50486    
    165000   1525.0354      253.06958      1271.9658      308.72581     -3050.7534      1.0177122      4455.7805      0              0              0              0              0             -231.30913    
    165250   1540.189       265.9502       1274.2387      324.43921     -55.069112      1.0177122      4455.7805      0              0              0              0              0             -231.97807    
    165500   1518.5435      235.83274      1282.7107      287.69817      1761.25        1.0177122      4455.7805      0              0              0              0              0             -232.25189    
    165750   1578.965       272.90825      1306.0568      332.9275      -1659.3595      1.0177122      4455.7805      0              0              0              0              0             -232.39078    
    166000   1538.3889      256.77683      1281.612       313.24839      930.1574       1.0177122      4455.7805      0              0              0              0              0             -231.38893    
    166250   1547.4445      256.96082      1290.4837      313.47284     -5757.8216      1.0177122      4455.7805      0              0              0              0              0             -231.46048    
    166500   1563.2117      269.99134      1293.2203      329.36909     -2755.1918      1.0177122      4455.7805      0              0              0              0              0             -232.45012    
    166750   1536.062       247.79893      1288.2631      302.29602     -3140.5082      1.0177122      4455.7805      0              0              0              0              0             -230.97068    
    167000   1539.6832      259.65071      1280.0325      316.7543       2961.208       1.0177122      4455.7805      0              0              0              0              0             -231.77149    
    167250   1476.6917      219.43382      1257.2578      267.69272      1041.7391      1.0177122      4455.7805      0              0              0              0              0             -230.21445    
    167500   1520.8524      248.26104      1272.5914      302.85976     -1315.8749      1.0177122      4455.7805      0              0              0              0              0             -231.89082    
    167750   1555.1675      259.3752       1295.7923      316.41819     -1976.6707      1.0177122      4455.7805      0              0              0              0              0             -232.01285    
    168000   1515.1332      256.32308      1258.8102      312.69484      1370.4891      1.0177122      4455.7805      0              0              0              0              0             -231.50264    
    168250   1521.8695      252.29563      1269.5739      307.78165      689.78657      1.0177122      4455.7805      0              0              0              0              0             -233.62329    
    168500   1483.2432      223.03713      1260.2061      272.08849     -4062.6207      1.0177122      4455.7805      0              0              0              0              0             -232.15911    
    168750   1525.767       259.89422      1265.8728      317.05136     -1760.7186      1.0177122      4455.7805      0              0              0              0              0             -230.72641    
    169000   1530.9899      241.13253      1289.8574      294.16352      1736.1715      1.0177122      4455.7805      0              0              0              0              0             -231.25141    
    169250   1533.7971      262.85208      1270.945       320.65973      676.70089      1.0177122      4455.7805      0              0              0              0              0             -231.83354    
    169500   1531.0399      251.24848      1279.7914      306.50421     -401.15775      1.0177122      4455.7805      0              0              0              0              0             -232.83104    
    169750   1540.013       259.31975      1280.6932      316.35056      581.10291      1.0177122      4455.7805      0              0              0              0              0             -231.56632    
    170000   1523.5097      260.13873      1263.371       317.34964     -1189.6074      1.0177122      4455.7805      0              0              0              0              0             -232.12056    
    170250   1511.3008      239.28436      1272.0164      291.90889     -2621.9774      1.0177122      4455.7805      0              0              0              0              0             -231.8764     
    170500   1499.8699      237.75288      1262.1171      290.0406      -1096.6435      1.0177122      4455.7805      0              0              0              0              0             -231.52206    
    170750   1493.6209      229.31935      1264.3015      279.75232     -674.77667      1.0177122      4455.7805      0              0              0              0              0             -232.54806    
    171000   1505.4623      241.02507      1264.4372      294.03242     -936.48702      1.0177122      4455.7805      0              0              0              0              0             -232.51112    
    171250   1548.6222      268.9924       1279.6298      328.15045     -1017.3444      1.0177122      4455.7805      0              0              0              0              0             -232.5524     
    171500   1518.5538      236.14888      1282.4049      288.08384     -400.69277      1.0177122      4455.7805      0              0              0              0              0             -231.41124    
    171750   1524.6136      245.79371      1278.8199      299.84981     -2496.4223      1.0177122      4455.7805      0              0              0              0              0             -232.48158    
    172000   1535.7904      253.30537      1282.4851      309.01346     -28.680036      1.0177122      4455.7805      0              0              0              0              0             -232.37166    
    172250   1547.0588      257.88412      1289.1747      314.5992      -1325.7419      1.0177122      4455.7805      0              0              0              0              0             -232.39321    
    172500   1531.6512      259.74718      1271.904       316.87198     -2821.5792      1.0177122      4455.7805      0              0              0              0              0             -232.66305    
    172750   1538.1472      259.6693       1278.4779      316.77698     -1254.9765      1.0177122      4455.7805      0              0              0              0              0             -232.88545    
    173000   1550.4349      264.50334      1285.9316      322.67415     -979.45106      1.0177122      4455.7805      0              0              0              0              0             -232.14192    
    173250   1552.0186      271.35452      1280.6641      331.03207     -2051.8322      1.0177122      4455.7805      0              0              0              0              0             -232.73819    
    173500   1554.1529      245.97241      1308.1805      300.0678      -5309.4948      1.0177122      4455.7805      0              0              0              0              0             -231.09299    
    173750   1534.4971      246.33733      1288.1598      300.51298     -2709.1145      1.0177122      4455.7805      0              0              0              0              0             -232.5276     
    174000   1521.0583      238.39078      1282.6675      290.81878     -3511.7207      1.0177122      4455.7805      0              0              0              0              0             -231.67471    
    174250   1542.4016      270.87394      1271.5277      330.4458       2253.4648      1.0177122      4455.7805      0              0              0              0              0             -233.21518    
    174500   1574.5533      282.28672      1292.2666      344.36852     -5153.7433      1.0177122      4455.7805      0              0              0              0              0             -230.62378    
    174750   1559.6046      251.2636       1308.341       306.52266     -2199.2507      1.0177122      4455.7805      0              0              0              0              0             -232.69622    
    175000   1510.2659      249.58053      1260.6854      304.46944      1423.7796      1.0177122      4455.7805      0              0              0              0              0             -231.94526    
    175250   1537.7677      252.91669      1284.851       308.5393      -856.56456      1.0177122      4455.7805      0              0              0              0              0             -231.46791    
    175500   1546.3117      273.19037      1273.1213      333.27166     -522.99271      1.0177122      4455.7805      0              0              0              0              0             -231.51143    
    175750   1542.1792      272.31146      1269.8678      332.19946     -390.866        1.0177122      4455.7805      0              0              0              0              0             -230.16799    
    176000   1544.4896      253.53051      1290.9591      309.28812     -867.19204      1.0177122      4455.7805      0              0              0              0              0             -232.29076    
    176250   1518.4322      230.58106      1287.8511      281.29152      1888.7396      1.0177122      4455.7805      0              0              0              0              0             -232.06343    
    176500   1529.3249      252.25474      1277.0701      307.73178     -4472.8122      1.0177122      4455.7805      0              0              0              0              0             -231.69687    
    176750   1508.2559      238.07863      1270.1772      290.43799      474.49474      1.0177122      4455.7805      0              0              0              0              0             -231.81796    
    177000   1555.0859      273.34569      1281.7402      333.46114     -49.538207      1.0177122      4455.7805      0              0              0              0              0             -232.46798    
    177250   1530.8951      239.20862      1291.6865      291.81649     -1712.7428      1.0177122      4455.7805      0              0              0              0              0             -230.04375    
    177500   1535.6837      244.16187      1291.5219      297.85908     -1695.1983      1.0177122      4455.7805      0              0              0              0              0             -233.04434    
    177750   1513.986       230.92615      1283.0599      281.7125      -3482.2917      1.0177122      4455.7805      0              0              0              0              0             -232.05782    
    178000   1524.4256      251.00584      1273.4198      306.20821     -486.6898       1.0177122      4455.7805      0              0              0              0              0             -233.71963    
    178250   1521.3293      258.02028      1263.309       314.76529     -3029.7275      1.0177122      4455.7805      0              0              0              0              0             -230.14736    
    178500   1531.2341      240.7371       1290.497       293.68112     -454.25483      1.0177122      4455.7805      0              0              0              0              0             -231.61029    
    178750   1525.9417      251.92689      1274.0148      307.33182     -3646.3278      1.0177122      4455.7805      0              0              0              0              0             -230.88579    
    179000   1527.2806      245.47235      1281.8083      299.45777     -663.12056      1.0177122      4455.7805      0              0              0              0              0             -233.80016    
    179250   1526.0797      236.09929      1289.9804      288.02334     -2995.1401      1.0177122      4455.7805      0              0              0              0              0             -233.19512    
    179500   1493.1224      236.43675      1256.6857      288.43502     -400.16818      1.0177122      4455.7805      0              0              0              0              0             -232.51946    
    179750   1534.1911      245.05183      1289.1393      298.94477     -4653.0938      1.0177122      4455.7805      0              0              0              0              0             -232.29633    
    180000   1541.0789      273.35905      1267.7198      333.47745     -1193.2836      1.0177122      4455.7805      0              0              0              0              0             -230.97916    
    180250   1558.6794      269.67591      1289.0035      328.98429     -2809.4847      1.0177122      4455.7805      0              0              0              0              0             -230.236      
    180500   1529.289       241.49527      1287.7937      294.60603     -827.15123      1.0177122      4455.7805      0              0              0              0              0             -233.17122    
    180750   1526.3304      254.51259      1271.8178      310.48618     -2398.9115      1.0177122      4455.7805      0              0              0              0              0             -232.67069    
    181000   1517.1369      244.76494      1272.3719      298.59479     -25.273748      1.0177122      4455.7805      0              0              0              0              0             -231.94653    
    181250   1543.2695      251.99687      1291.2726      307.4172       2150.5365      1.0177122      4455.7805      0              0              0              0              0             -231.30935    
    181500   1536.394       247.84371      1288.5503      302.35065     -6847.8494      1.0177122      4455.7805      0              0              0              0              0             -230.58504    
    181750   1523.9027      245.09113      1278.8116      298.9927      -1444.145       1.0177122      4455.7805      0              0              0              0              0             -232.09205    
    182000   1524.2922      237.39341      1286.8988      289.60207      1381.6935      1.0177122      4455.7805      0              0              0              0              0             -233.56111    
    182250   1518.0128      230.02141      1287.9914      280.60879     -3717.0388      1.0177122      4455.7805      0              0              0              0              0             -231.31673    
    182500   1535.1232      245.36654      1289.7567      299.32869     -6758.9275      1.0177122      4455.7805      0              0              0              0              0             -230.11264    
    182750   1556.1915      261.93597      1294.2556      319.54215     -3520.3692      1.0177122      4455.7805      0              0              0              0              0             -232.00327    
    183000   1525.8205      240.95647      1284.864       293.94874      908.02505      1.0177122      4455.7805      0              0              0              0              0             -232.26284    
    183250   1529.5982      249.54327      1280.0549      304.42398     -1799.8016      1.0177122      4455.7805      0              0              0              0              0             -230.593      
    183500   1522.3838      240.20186      1282.1819      293.02817     -5841.7164      1.0177122      4455.7805      0              0              0              0              0             -232.00741    
    183750   1513.2366      218.35801      1294.8786      266.38032     -2200.0337      1.0177122      4455.7805      0              0              0              0              0             -231.17834    
    184000   1523.6277      256.22594      1267.4018      312.57634     -125.4569       1.0177122      4455.7805      0              0              0              0              0             -234.36288    
    184250   1552.5192      277.14084      1275.3784      338.09094      737.61054      1.0177122      4455.7805      0              0              0              0              0             -230.71626    
    184500   1525.6539      252.21344      1273.4405      307.68139     -1495.6734      1.0177122      4455.7805      0              0              0              0              0             -231.06623    
    184750   1532.1932      251.62074      1280.5724      306.95834      1592.7318      1.0177122      4455.7805      0              0              0              0              0             -230.51113    
    185000   1532.6461      248.68403      1283.962       303.37578     -6871.5394      1.0177122      4455.7805      0              0              0              0              0             -232.03489    
    185250   1539.6679      256.92604      1282.7419      313.4304      -374.41945      1.0177122      4455.7805      0              0              0              0              0             -232.45697    
    185500   1544.2419      247.46906      1296.7728      301.89361     -6929.0313      1.0177122      4455.7805      0              0              0              0              0             -230.47028    
    185750   1533.0645      258.18611      1274.8784      314.9676      -2934.6275      1.0177122      4455.7805      0              0              0              0              0             -232.13205    
    186000   1552.4221      278.66709      1273.755       339.95285     -2138.7382      1.0177122      4455.7805      0              0              0              0              0             -231.41796    
    186250   1529.2681      247.46766      1281.8004      301.8919      -6411.0142      1.0177122      4455.7805      0              0              0              0              0             -232.26754    
    186500   1534.4283      242.51094      1291.9174      295.84507     -3434.88        1.0177122      4455.7805      0              0              0              0              0             -232.1733     
    186750   1536.567       253.59634      1282.9707      309.36842     -398.98932      1.0177122      4455.7805      0              0              0              0              0             -231.04316    
    187000   1506.8719      224.94428      1281.9276      274.41507     -2213.6755      1.0177122      4455.7805      0              0              0              0              0             -233.25422    
    187250   1530.8618      249.0146       1281.8472      303.77904      821.97664      1.0177122      4455.7805      0              0              0              0              0             -232.82353    
    187500   1534.2502      255.15788      1279.0924      311.27338     -2615.71        1.0177122      4455.7805      0              0              0              0              0             -230.63039    
    187750   1548.1234      270.08652      1278.0369      329.48521      4234.1982      1.0177122      4455.7805      0              0              0              0              0             -231.90051    
    188000   1518.9633      251.15868      1267.8046      306.39466     -3106.5979      1.0177122      4455.7805      0              0              0              0              0             -231.35481    
    188250   1522.0829      247.39993      1274.683       301.80927     -4197.0473      1.0177122      4455.7805      0              0              0              0              0             -231.67011    
    188500   1550.0243      257.47936      1292.5449      314.10542     -4155.5118      1.0177122      4455.7805      0              0              0              0              0             -231.38992    
    188750   1551.6974      260.07461      1291.6228      317.27142     -4257.9175      1.0177122      4455.7805      0              0              0              0              0             -231.36567    
    189000   1545.06        242.10532      1302.9546      295.35025     -2125.2209      1.0177122      4455.7805      0              0              0              0              0             -231.68744    
    189250   1532.6775      268.01473      1264.6627      326.95778      468.08848      1.0177122      4455.7805      0              0              0              0              0             -231.84178    
    189500   1518.1471      229.80152      1288.3455      280.34053     -2942.1989      1.0177122      4455.7805      0              0              0              0              0             -232.15061    
    189750   1543.3497      252.30591      1291.0438      307.7942       549.32843      1.0177122      4455.7805      0              0              0              0              0             -231.97288    
    190000   1552.0661      261.799        1290.2671      319.37506      4419.1818      1.0177122      4455.7805      0              0              0              0              0             -232.20896    
    190250   1507.4902      234.59365      1272.8965      286.18657      1684.3694      1.0177122      4455.7805      0              0              0              0              0             -231.67227    
    190500   1544.7939      258.77925      1286.0147      315.69118     -2753.1433      1.0177122      4455.7805      0              0              0              0              0             -232.00846    
    190750   1527.2076      261.90961      1265.298       319.50999      272.17654      1.0177122      4455.7805      0              0              0              0              0             -229.9552     
    191000   1551.7943      252.62638      1299.1679      308.18514      1842.9172      1.0177122      4455.7805      0              0              0              0              0             -233.27382    
    191250   1538.5442      243.21776      1295.3265      296.70734     -808.76808      1.0177122      4455.7805      0              0              0              0              0             -231.89841    
    191500   1556.9757      268.78089      1288.1948      327.89243     -9333.8942      1.0177122      4455.7805      0              0              0              0              0             -231.92785    
    191750   1512.2775      235.64124      1276.6363      287.46456     -536.14965      1.0177122      4455.7805      0              0              0              0              0             -231.83658    
    192000   1543.9455      250.28637      1293.6592      305.33051     -544.26336      1.0177122      4455.7805      0              0              0              0              0             -233.01525    
    192250   1548.3683      247.61967      1300.7486      302.07733     -2767.1154      1.0177122      4455.7805      0              0              0              0              0             -231.21961    
    192500   1545.609       263.95248      1281.6565      322.00213     -499.56419      1.0177122      4455.7805      0              0              0              0              0             -232.00027    
    192750   1553.1932      255.82731      1297.3659      312.09004     -2028.5483      1.0177122      4455.7805      0              0              0              0              0             -231.93688    
    193000   1511.5038      231.44025      1280.0635      282.33966     -1581.5993      1.0177122      4455.7805      0              0              0              0              0             -232.84512    
    193250   1524.1645      246.3161       1277.8484      300.48708     -2094.7481      1.0177122      4455.7805      0              0              0              0              0             -231.77691    
    193500   1507.9079      234.24887      1273.6591      285.76597     -3536.418       1.0177122      4455.7805      0              0              0              0              0             -232.73178    
    193750   1550.6222      268.15559      1282.4666      327.12962     -3075.2739      1.0177122      4455.7805      0              0              0              0              0             -232.40598    
    194000   1526.4778      242.13864      1284.3392      295.3909      -851.22269      1.0177122      4455.7805      0              0              0              0              0             -233.17152    
    194250   1519.1531      256.71399      1262.4392      313.17172      98.337542      1.0177122      4455.7805      0              0              0              0              0             -232.62454    
    194500   1525.1946      250.39255      1274.802       305.46005      336.12174      1.0177122      4455.7805      0              0              0              0              0             -231.16963    
    194750   1513.8395      243.56802      1270.2715      297.13463     -6471.9433      1.0177122      4455.7805      0              0              0              0              0             -232.38296    
    195000   1552.8489      267.25762      1285.5913      326.03416      859.00466      1.0177122      4455.7805      0              0              0              0              0             -232.22032    
    195250   1514.9571      255.89471      1259.0624      312.17226      1914.7569      1.0177122      4455.7805      0              0              0              0              0             -232.82863    
    195500   1525.5925      258.03525      1267.5572      314.78356     -652.62461      1.0177122      4455.7805      0              0              0              0              0             -232.3242     
    195750   1531.5233      250.96474      1280.5586      306.15807     -1856.1449      1.0177122      4455.7805      0              0              0              0              0             -230.58342    
    196000   1525.5597      257.49772      1268.062       314.12782      653.14217      1.0177122      4455.7805      0              0              0              0              0             -233.3504     
    196250   1538.8933      267.76018      1271.1331      326.64725     -454.04734      1.0177122      4455.7805      0              0              0              0              0             -231.80965    
    196500   1525.49        244.95781      1280.5322      298.83007      1725.8332      1.0177122      4455.7805      0              0              0              0              0             -232.12081    
    196750   1520.4394      237.54672      1282.8927      289.7891      -1972.9021      1.0177122      4455.7805      0              0              0              0              0             -231.25485    
    197000   1539.1005      240.66738      1298.4331      293.59607     -4989.8105      1.0177122      4455.7805      0              0              0              0              0             -231.78106    
    197250   1556.336       257.79491      1298.5411      314.49037      424.79578      1.0177122      4455.7805      0              0              0              0              0             -231.42706    
    197500   1522.2992      238.1191       1284.1801      290.48736     -3093.5835      1.0177122      4455.7805      0              0              0              0              0             -230.22036    
    197750   1518.2905      241.92042      1276.3701      295.12469     -874.70306      1.0177122      4455.7805      0              0              0              0              0             -231.02424    
    198000   1523.615       248.94381      1274.6712      303.69269     -2617.4418      1.0177122      4455.7805      0              0              0              0              0             -232.25495    
    198250   1531.4693      250.0555       1281.4138      305.04887     -4883.1921      1.0177122      4455.7805      0              0              0              0              0             -231.76156    
    198500   1565.8642      268.35309      1297.5111      327.37055      3979.7946      1.0177122      4455.7805      0              0              0              0              0             -234.13248    
    198750   1524.9615      240.10806      1284.8534      292.91374     -4908.348       1.0177122      4455.7805      0              0              0              0              0             -230.02625    
    199000   1529.8157      237.74862      1292.0671      290.0354      -3758.544       1.0177122      4455.7805      0              0              0              0              0             -231.82567    
    199250   1525.5433      262.71808      1262.8252      320.49626     -1629.1517      1.0177122      4455.7805      0              0              0              0              0             -229.63601    
    199500   1494.1009      235.792        1258.3089      287.64848     -6470.152       1.0177122      4455.7805      0              0              0              0              0             -230.32793    
    199750   1542.4314      280.3318       1262.0996      341.98368     -1860.3626      1.0177122      4455.7805      0              0              0              0              0             -230.9551     
    200000   1512.9881      239.20471      1273.7834      291.81172     -4246.2436      1.0177122      4455.7805      0              0              0              0              0             -233.20412    
    200250   1497.0158      234.34407      1262.6717      285.88211      1561.6407      1.0177122      4455.7805      0              0              0              0              0             -232.58278    
    200500   1563.1162      276.26927      1286.8469      337.02769     -1895.8512      1.0177122      4455.7805      0              0              0              0              0             -230.90563    
    200750   1541.609       262.12311      1279.4859      319.77044     -346.93775      1.0177122      4455.7805      0              0              0              0              0             -231.75289    
    201000   1526.8391      245.44445      1281.3946      299.42373     -1419.3107      1.0177122      4455.7805      0              0              0              0              0             -231.64337    
    201250   1566.0865      276.08349      1290.003       336.80105     -4194.0248      1.0177122      4455.7805      0              0              0              0              0             -231.6927     
    201500   1529.6701      260.64347      1269.0266      317.96539     -6714.6173      1.0177122      4455.7805      0              0              0              0              0             -230.07371    
    201750   1515.8901      241.5306       1274.3595      294.64913     -1549.4279      1.0177122      4455.7805      0              0              0              0              0             -229.72092    
    202000   1527.6209      243.93932      1283.6816      297.58758     -1298.169       1.0177122      4455.7805      0              0              0              0              0             -232.41205    
    202250   1534.4045      258.47724      1275.9273      315.32275     -5090.9656      1.0177122      4455.7805      0              0              0              0              0             -231.9612     
    202500   1505.8515      226.87564      1278.9758      276.77118     -68.541211      1.0177122      4455.7805      0              0              0              0              0             -232.8555     
    202750   1512.1998      239.86341      1272.3364      292.61529     -1797.2757      1.0177122      4455.7805      0              0              0              0              0             -232.5231     
    203000   1493.567       214.23246      1279.3345      261.34745     -821.54521      1.0177122      4455.7805      0              0              0              0              0             -231.64634    
    203250   1541.4592      248.95928      1292.4999      303.71156      644.67348      1.0177122      4455.7805      0              0              0              0              0             -231.17235    
    203500   1519.884       256.33001      1263.554       312.70329     -3856.7909      1.0177122      4455.7805      0              0              0              0              0             -231.48752    
    203750   1541.3199      247.3133       1294.0066      301.70359     -1649.6906      1.0177122      4455.7805      0              0              0              0              0             -233.29708    
    204000   1528.4176      243.50744      1284.9102      297.06073      403.5953       1.0177122      4455.7805      0              0              0              0              0             -233.47695    
    204250   1538.593       252.04373      1286.5492      307.47436     -5430.1883      1.0177122      4455.7805      0              0              0              0              0             -231.41052    
    204500   1522.6833      267.06913      1255.6142      325.80422     -647.65271      1.0177122      4455.7805      0              0              0              0              0             -232.24138    
    204750   1522.9895      255.08394      1267.9055      311.18318      2289.1251      1.0177122      4455.7805      0              0              0              0              0             -232.7715     
    205000   1533.2696      253.30516      1279.9644      309.01321     -2426.1588      1.0177122      4455.7805      0              0              0              0              0             -231.69597    
    205250   1504.6636      237.57209      1267.0916      289.82005     -3177.9253      1.0177122      4455.7805      0              0              0              0              0             -232.25028    
    205500   1546.9173      237.12347      1309.7939      289.27276     -7907.1383      1.0177122      4455.7805      0              0              0              0              0             -230.82848    
    205750   1517.9618      249.27759      1268.6842      304.09988     -939.86674      1.0177122      4455.7805      0              0              0              0              0             -232.04237    
    206000   1506.3895      245.41034      1260.9792      299.38212     -278.02521      1.0177122      4455.7805      0              0              0              0              0             -230.6715     
    206250   1525.3831      240.02564      1285.3575      292.8132      -3189.3147      1.0177122      4455.7805      0              0              0              0              0             -231.65162    
    206500   1547.9328      253.15745      1294.7753      308.83302     -5459.8389      1.0177122      4455.7805      0              0              0              0              0             -230.01243    
    206750   1528.8548      248.61019      1280.2446      303.2857       95.242455      1.0177122      4455.7805      0              0              0              0              0             -231.79502    
    207000   1545.5545      280.05217      1265.5024      341.64254     -397.04918      1.0177122      4455.7805      0              0              0              0              0             -231.34401    
    207250   1543.6954      252.9144       1290.781       308.53652     -4590.9414      1.0177122      4455.7805      0              0              0              0              0             -232.54199    
    207500   1531.4235      234.9656       1296.4579      286.64033      1859.6668      1.0177122      4455.7805      0              0              0              0              0             -231.80708    
    207750   1544.1983      251.96695      1292.2313      307.38069     -4558.7813      1.0177122      4455.7805      0              0              0              0              0             -231.76748    
    208000   1529.7766      249.46732      1280.3093      304.33133     -4803.7652      1.0177122      4455.7805      0              0              0              0              0             -232.32583    
    208250   1507.795       239.03543      1268.7595      291.60521     -194.41678      1.0177122      4455.7805      0              0              0              0              0             -232.12648    
    208500   1524.8397      241.49093      1283.3488      294.60073     -4045.7323      1.0177122      4455.7805      0              0              0              0              0             -230.47956    
    208750   1511.7497      233.33077      1278.419       284.64596      3241.5856      1.0177122      4455.7805      0              0              0              0              0             -231.8771     
    209000   1529.5282      254.67045      1274.8578      310.67876     -686.66202      1.0177122      4455.7805      0              0              0              0              0             -231.11166    
    209250   1527.4305      234.20177      1293.2287      285.70851     -872.82703      1.0177122      4455.7805      0              0              0              0              0             -232.07298    
    209500   1550.6297      260.30281      1290.3268      317.54982     -1476.2187      1.0177122      4455.7805      0              0              0              0              0             -231.64366    
    209750   1528.6005      243.64181      1284.9587      297.22464     -4421.3082      1.0177122      4455.7805      0              0              0              0              0             -230.86978    
    210000   1528.1005      252.17935      1275.9211      307.6398      -1272.8818      1.0177122      4455.7805      0              0              0              0              0             -231.97012    
    210250   1548.2592      252.12759      1296.1316      307.57666     -32.919601      1.0177122      4455.7805      0              0              0              0              0             -232.30145    
    210500   1531.4295      244.89284      1286.5366      298.75081     -5772.7812      1.0177122      4455.7805      0              0              0              0              0             -231.15768    
    210750   1531.8595      259.01259      1272.8469      315.97585     -4270.5058      1.0177122      4455.7805      0              0              0              0              0             -232.55473    
    211000   1513.2767      236.59915      1276.6775      288.63313      2123.2304      1.0177122      4455.7805      0              0              0              0              0             -232.90919    
    211250   1555.7805      254.58543      1301.1951      310.57504     -6148.6905      1.0177122      4455.7805      0              0              0              0              0             -231.56828    
    211500   1541.0516      259.37325      1281.6783      316.41582     -4555.5373      1.0177122      4455.7805      0              0              0              0              0             -231.79054    
    211750   1531.743       248.17799      1283.5651      302.75844     -2428.6241      1.0177122      4455.7805      0              0              0              0              0             -231.61115    
    212000   1515.7803      247.67125      1268.109       302.14026      1618.1321      1.0177122      4455.7805      0              0              0              0              0             -231.72903    
    212250   1528.6951      261.74435      1266.9508      319.30838     -513.82939      1.0177122      4455.7805      0              0              0              0              0             -232.02857    
    212500   1537.9137      265.2895       1272.6242      323.6332       2499.5352      1.0177122      4455.7805      0              0              0              0              0             -232.23245    
    212750   1526.6714      250.08914      1276.5822      305.0899      -3876.5342      1.0177122      4455.7805      0              0              0              0              0             -230.51236    
    213000   1529.0729      245.50827      1283.5647      299.50159     -2649.5283      1.0177122      4455.7805      0              0              0              0              0             -233.43579    
    213250   1546.632       259.67903      1286.953       316.78885      441.22517      1.0177122      4455.7805      0              0              0              0              0             -231.70569    
    213500   1500.269       244.84729      1255.4217      298.69525      899.86233      1.0177122      4455.7805      0              0              0              0              0             -232.25342    
    213750   1523.7263      253.09846      1270.6279      308.76105      243.81526      1.0177122      4455.7805      0              0              0              0              0             -231.52115    
    214000   1533.2572      250.27196      1282.9853      305.31294     -1726.6367      1.0177122      4455.7805      0              0              0              0              0             -232.84729    
    214250   1504.7327      236.71223      1268.0205      288.77108     -1198.6637      1.0177122      4455.7805      0              0              0              0              0             -230.57705    
    214500   1525.8111      243.66557      1282.1455      297.25363     -3588.3115      1.0177122      4455.7805      0              0              0              0              0             -232.53694    
    214750   1515.775       238.51839      1277.2566      290.97446      1354.1118      1.0177122      4455.7805      0              0              0              0              0             -231.44777    
    215000   1530.8788      249.03872      1281.8401      303.80847     -3171.159       1.0177122      4455.7805      0              0              0              0              0             -232.06846    
    215250   1518.0883      238.42552      1279.6628      290.86117      3201.6536      1.0177122      4455.7805      0              0              0              0              0             -231.703      
    215500   1505.6963      243.23538      1262.4609      296.72883     -3962.7079      1.0177122      4455.7805      0              0              0              0              0             -231.67827    
    215750   1510.0077      254.25564      1255.7521      310.17272      10.362928      1.0177122      4455.7805      0              0              0              0              0             -233.17108    
    216000   1516.8662      247.3214       1269.5448      301.71346     -3275.1813      1.0177122      4455.7805      0              0              0              0              0             -232.08849    
    216250   1497.7587      233.71493      1264.0437      285.1146      -996.49705      1.0177122      4455.7805      0              0              0              0              0             -233.86373    
    216500   1524.6545      248.35167      1276.3029      302.97032     -1092.6522      1.0177122      4455.7805      0              0              0              0              0             -232.9621     
    216750   1538.266       247.42602      1290.84        301.84109     -1430.9214      1.0177122      4455.7805      0              0              0              0              0             -232.60661    
    217000   1515.5369      246.82         1268.7169      301.10181     -310.04813      1.0177122      4455.7805      0              0              0              0              0             -231.2946     
    217250   1549.7048      251.24209      1298.4627      306.49642      270.10353      1.0177122      4455.7805      0              0              0              0              0             -231.02822    
    217500   1534.3127      252.23566      1282.0771      307.70849     -4521.7216      1.0177122      4455.7805      0              0              0              0              0             -232.39117    
    217750   1538.4481      259.17214      1279.276       316.17048     -1154.3326      1.0177122      4455.7805      0              0              0              0              0             -232.83243    
    218000   1538.9379      255.60228      1283.3356      311.81552      2931.6153      1.0177122      4455.7805      0              0              0              0              0             -231.34004    
    218250   1541.5398      267.70951      1273.8303      326.58543     -1883.301       1.0177122      4455.7805      0              0              0              0              0             -232.34864    
    218500   1531.9981      241.31078      1290.6873      294.38097     -1579.2335      1.0177122      4455.7805      0              0              0              0              0             -231.25046    
    218750   1517.1909      232.27208      1284.9189      283.35443     -1645.6973      1.0177122      4455.7805      0              0              0              0              0             -234.07932    
    219000   1557.2231      272.72568      1284.4975      332.70478      576.52736      1.0177122      4455.7805      0              0              0              0              0             -232.17747    
    219250   1540.4093      253.23346      1287.1758      308.92574     -5449.7116      1.0177122      4455.7805      0              0              0              0              0             -231.92211    
    219500   1513.1639      232.03376      1281.1301      283.0637      -1241.8987      1.0177122      4455.7805      0              0              0              0              0             -231.20804    
    219750   1556.1112      282.9144       1273.1967      345.13425     -6346.7987      1.0177122      4455.7805      0              0              0              0              0             -231.32315    
    220000   1520.838       231.19519      1289.6428      282.04071      2180.2766      1.0177122      4455.7805      0              0              0              0              0             -232.41163    
    220250   1581.5074      262.86761      1318.6398      320.67868     -781.03104      1.0177122      4455.7805      0              0              0              0              0             -231.19784    
    220500   1534.1445      249.93927      1284.2052      304.90707      176.60558      1.0177122      4455.7805      0              0              0              0              0             -232.36427    
    220750   1547.0808      238.36132      1308.7195      290.78284     -643.00476      1.0177122      4455.7805      0              0              0              0              0             -231.64218    
    221000   1526.8631      254.11357      1272.7495      309.99941      218.0002       1.0177122      4455.7805      0              0              0              0              0             -230.71961    
    221250   1510.1714      229.68939      1280.482       280.20374     -1277.3708      1.0177122      4455.7805      0              0              0              0              0             -230.54754    
    221500   1515.5584      247.60861      1267.9497      302.06384     -2089.9246      1.0177122      4455.7805      0              0              0              0              0             -232.92169    
    221750   1566.7331      268.61222      1298.1209      327.68667      1737.453       1.0177122      4455.7805      0              0              0              0              0             -233.16671    
    222000   1556.9878      276.68013      1280.3077      337.52891     -1590.8927      1.0177122      4455.7805      0              0              0              0              0             -233.37696    
    222250   1537.6809      256.35612      1281.3248      312.73515     -1910.1192      1.0177122      4455.7805      0              0              0              0              0             -231.94599    
    222500   1536.6013      245.81483      1290.7864      299.87556      3062.5113      1.0177122      4455.7805      0              0              0              0              0             -231.96857    
    222750   1514.4012      242.74055      1271.6606      296.12518     -1082.6399      1.0177122      4455.7805      0              0              0              0              0             -230.9006     
    223000   1534.2346      257.76544      1276.4692      314.45442     -1547.6547      1.0177122      4455.7805      0              0              0              0              0             -231.86557    
    223250   1542.4738      258.17629      1284.2975      314.95562     -4189.3214      1.0177122      4455.7805      0              0              0              0              0             -231.67056    
    223500   1533.1785      252.44851      1280.73        307.96816      1341.4315      1.0177122      4455.7805      0              0              0              0              0             -234.00735    
    223750   1519.3568      238.3824       1280.9744      290.80857      2282.1267      1.0177122      4455.7805      0              0              0              0              0             -230.83228    
    224000   1521.1592      244.11875      1277.0405      297.80648     -3887.6625      1.0177122      4455.7805      0              0              0              0              0             -232.24825    
    224250   1543.6885      258.5488       1285.1397      315.41005     -4558.8884      1.0177122      4455.7805      0              0              0              0              0             -231.15381    
    224500   1511.0216      220.6102       1290.4114      269.12782     -3250.1826      1.0177122      4455.7805      0              0              0              0              0             -231.48351    
    224750   1523.2347      248.17767      1275.057       302.75806     -5315.7768      1.0177122      4455.7805      0              0              0              0              0             -231.77477    
    225000   1530.0302      232.44688      1297.5833      283.56768     -4770.8653      1.0177122      4455.7805      0              0              0              0              0             -231.26298    
    225250   1565.2645      278.0742       1287.1903      339.22956     -1625.7662      1.0177122      4455.7805      0              0              0              0              0             -230.76578    
    225500   1516.739       257.92964      1258.8093      314.65473     -877.36265      1.0177122      4455.7805      0              0              0              0              0             -231.39479    
    225750   1527.5162      265.91321      1261.603       324.39407      3049.6508      1.0177122      4455.7805      0              0              0              0              0             -233.60737    
    226000   1556.6164      259.68434      1296.9321      316.79533     -1327.8153      1.0177122      4455.7805      0              0              0              0              0             -231.81715    
    226250   1556.1104      289.10869      1267.0017      352.69082     -1731.062       1.0177122      4455.7805      0              0              0              0              0             -232.04461    
    226500   1511.3781      257.60619      1253.7719      314.26014      154.54382      1.0177122      4455.7805      0              0              0              0              0             -230.24066    
    226750   1528.8085      254.65147      1274.157       310.6556      -1711.1343      1.0177122      4455.7805      0              0              0              0              0             -232.12299    
    227000   1526.2456      260.04156      1266.204       317.23111     -1470.3905      1.0177122      4455.7805      0              0              0              0              0             -231.22499    
    227250   1518.272       242.93484      1275.3371      296.3622      -3146.3056      1.0177122      4455.7805      0              0              0              0              0             -231.85585    
    227500   1563.0351      261.31266      1301.7225      318.78175     -5875.4165      1.0177122      4455.7805      0              0              0              0              0             -232.13564    
    227750   1550.7252      261.49469      1289.2305      319.00381     -4133.5169      1.0177122      4455.7805      0              0              0              0              0             -233.8749     
    228000   1555.243       260.36877      1294.8742      317.63027      1111.6299      1.0177122      4455.7805      0              0              0              0              0             -230.86235    
    228250   1538.8004      269.35348      1269.447       328.59095      1769.3978      1.0177122      4455.7805      0              0              0              0              0             -233.56094    
    228500   1558.3877      275.93695      1282.4508      336.62229     -1509.8886      1.0177122      4455.7805      0              0              0              0              0             -231.0191     
    228750   1549.6949      258.97196      1290.723       315.92628     -3122.7087      1.0177122      4455.7805      0              0              0              0              0             -232.53939    
    229000   1549.7885      246.51106      1303.2774      300.72492     -1766.4362      1.0177122      4455.7805      0              0              0              0              0             -232.57766    
    229250   1560.9662      256.77924      1304.187       313.25133      488.15148      1.0177122      4455.7805      0              0              0              0              0             -231.10567    
    229500   1517.6647      243.13403      1274.5307      296.60519     -2588.0522      1.0177122      4455.7805      0              0              0              0              0             -232.28447    
    229750   1526.9758      227.56697      1299.4088      277.61455     -1404.9948      1.0177122      4455.7805      0              0              0              0              0             -233.37246    
    230000   1545.0808      252.05846      1293.0223      307.49233     -2168.0321      1.0177122      4455.7805      0              0              0              0              0             -233.16513    
    230250   1488.4962      227.63683      1260.8594      277.69977     -2991.2739      1.0177122      4455.7805      0              0              0              0              0             -232.71782    
    230500   1532.8635      237.39154      1295.472       289.59979     -1797.6269      1.0177122      4455.7805      0              0              0              0              0             -230.91822    
    230750   1562.0242      275.41298      1286.6112      335.98308     -3744.2438      1.0177122      4455.7805      0              0              0              0              0             -231.93658    
    231000   1511.8994      249.13709      1262.7623      303.92848     -1998.1257      1.0177122      4455.7805      0              0              0              0              0             -230.70426    
    231250   1539.6121      261.78471      1277.8274      319.35762      2247.9166      1.0177122      4455.7805      0              0              0              0              0             -231.47037    
    231500   1533.245       246.43304      1286.812       300.62974     -755.2453       1.0177122      4455.7805      0              0              0              0              0             -230.39464    
    231750   1548.5853      259.19715      1289.3881      316.20099     -2158.5182      1.0177122      4455.7805      0              0              0              0              0             -232.11316    
    232000   1527.5346      243.1759       1284.3587      296.65628     -1422.1292      1.0177122      4455.7805      0              0              0              0              0             -232.90227    
    232250   1568.0333      272.29308      1295.7402      332.17703     -554.84519      1.0177122      4455.7805      0              0              0              0              0             -232.29417    
    232500   1533.1612      265.26629      1267.8949      323.60488     -871.19469      1.0177122      4455.7805      0              0              0              0              0             -231.46864    
    232750   1531.9577      262.73099      1269.2267      320.512        1690.3478      1.0177122      4455.7805      0              0              0              0              0             -232.45977    
    233000   1510.3848      240.83061      1269.5542      293.7952      -1037.0102      1.0177122      4455.7805      0              0              0              0              0             -232.30505    
    233250   1511.6464      226.12816      1285.5183      275.85931     -276.92868      1.0177122      4455.7805      0              0              0              0              0             -231.72146    
    233500   1538.3864      256.6163       1281.7701      313.05255     -5271.1907      1.0177122      4455.7805      0              0              0              0              0             -230.61927    
    233750   1540.5886      250.80932      1289.7793      305.96847     -257.10224      1.0177122      4455.7805      0              0              0              0              0             -232.41814    
    234000   1550.6808      274.68387      1275.9969      335.09362      3005.0399      1.0177122      4455.7805      0              0              0              0              0             -229.44163    
    234250   1537.1904      242.75837      1294.432       296.14691     -1847.5199      1.0177122      4455.7805      0              0              0              0              0             -230.6806     
    234500   1514.872       232.78459      1282.0874      283.97966     -4902.2684      1.0177122      4455.7805      0              0              0              0              0             -233.11847    
    234750   1509.124       238.03839      1271.0856      290.3889      -1482.1436      1.0177122      4455.7805      0              0              0              0              0             -232.68952    
    235000   1544.7847      244.85351      1299.9312      298.70283     -1190.3555      1.0177122      4455.7805      0              0              0              0              0             -232.61046    
    235250   1520.514       241.10808      1279.406       294.13369      412.91624      1.0177122      4455.7805      0              0              0              0              0             -231.47305    
    235500   1545.8786      243.85514      1302.0235      297.4849      -4797.0165      1.0177122      4455.7805      0              0              0              0              0             -230.34324    
    235750   1513.4807      233.71899      1279.7617      285.11955      241.89096      1.0177122      4455.7805      0              0              0              0              0             -232.18266    
    236000   1549.7489      268.2468       1281.5021      327.24088     -6301.0845      1.0177122      4455.7805      0              0              0              0              0             -231.50304    
    236250   1543.4345      260.80202      1282.6325      318.15881     -1839.9545      1.0177122      4455.7805      0              0              0              0              0             -233.43355    
    236500   1540.2301      261.4496       1278.7805      318.94882     -3991.9629      1.0177122      4455.7805      0              0              0              0              0             -231.95735    
    236750   1520.0824      251.13227      1268.9501      306.36244      2389.7809      1.0177122      4455.7805      0              0              0              0              0             -232.71978    
    237000   1522.2973      247.8801       1274.4172      302.39504     -112.73435      1.0177122      4455.7805      0              0              0              0              0             -231.14542    
    237250   1527.3733      246.729        1280.6443      300.99079      1504.2464      1.0177122      4455.7805      0              0              0              0              0             -229.21801    
    237500   1534.4345      237.38219      1297.0524      289.58838     -2032.9586      1.0177122      4455.7805      0              0              0              0              0             -230.60777    
    237750   1545.0822      265.2631       1279.8191      323.601       -439.77535      1.0177122      4455.7805      0              0              0              0              0             -232.18183    
    238000   1550.2088      255.31118      1294.8976      311.4604      -2350.707       1.0177122      4455.7805      0              0              0              0              0             -230.78492    
    238250   1524.1728      249.30306      1274.8697      304.13094      3689.0276      1.0177122      4455.7805      0              0              0              0              0             -232.48324    
    238500   1532.2303      248.68176      1283.5485      303.373       -3042.479       1.0177122      4455.7805      0              0              0              0              0             -230.61837    
    238750   1531.5269      247.10219      1284.4247      301.44605     -2735.5684      1.0177122      4455.7805      0              0              0              0              0             -230.88758    
    239000   1542.1836      247.57991      1294.6037      302.02883      1242.2672      1.0177122      4455.7805      0              0              0              0              0             -233.56946    
    239250   1556.9491      271.17335      1285.7758      330.81105     -1001.6559      1.0177122      4455.7805      0              0              0              0              0             -231.49262    
    239500   1526.1834      251.75732      1274.426       307.12495     -3763.3523      1.0177122      4455.7805      0              0              0              0              0             -231.75776    
    239750   1534.2312      250.23354      1283.9977      305.26606     -2423.9481      1.0177122      4455.7805      0              0              0              0              0             -231.71989    
    240000   1516.8822      248.23013      1268.652       302.82206      955.39807      1.0177122      4455.7805      0              0              0              0              0             -232.55455    
    240250   1514.6155      248.36912      1266.2463      302.99161     -5043.6496      1.0177122      4455.7805      0              0              0              0              0             -232.66642    
    240500   1532.2363      259.05202      1273.1843      316.02394     -911.28032      1.0177122      4455.7805      0              0              0              0              0             -230.96551    
    240750   1514.8101      233.25674      1281.5533      284.55564     -1313.2754      1.0177122      4455.7805      0              0              0              0              0             -234.53698    
    241000   1533.0303      243.67228      1289.358       297.26182     -5531.7497      1.0177122      4455.7805      0              0              0              0              0             -231.53713    
    241250   1518.8574      250.30695      1268.5504      305.35561     -4438.3826      1.0177122      4455.7805      0              0              0              0              0             -233.55254    
    241500   1519.7154      238.31885      1281.3966      290.73104      1067.4322      1.0177122      4455.7805      0              0              0              0              0             -232.14397    
    241750   1530.2025      255.98819      1274.2144      312.2863      -942.33668      1.0177122      4455.7805      0              0              0              0              0             -233.38783    
    242000   1526.9665      254.71792      1272.2486      310.73667      228.05024      1.0177122      4455.7805      0              0              0              0              0             -232.6407     
    242250   1554.6898      271.66603      1283.0238      331.41208     -1031.9876      1.0177122      4455.7805      0              0              0              0              0             -232.13985    
    242500   1526.6661      238.30375      1288.3623      290.71262     -5155.7162      1.0177122      4455.7805      0              0              0              0              0             -230.33046    
    242750   1517.6977      248.82687      1268.8709      303.55003      443.61206      1.0177122      4455.7805      0              0              0              0              0             -231.46015    
    243000   1555.4738      259.0763       1296.3975      316.05356      341.60367      1.0177122      4455.7805      0              0              0              0              0             -232.02357    
    243250   1535.7183      260.4896       1275.2287      317.77768     -1980.2086      1.0177122      4455.7805      0              0              0              0              0             -233.17084    
    243500   1513.7683      236.36489      1277.4034      288.34735     -5515.7579      1.0177122      4455.7805      0              0              0              0              0             -229.50522    
    243750   1485.5399      236.38561      1249.1543      288.37264     -2202.074       1.0177122      4455.7805      0              0              0              0              0             -230.66081    
    244000   1547.6279      264.679        1282.9489      322.88843     -2819.7638      1.0177122      4455.7805      0              0              0              0              0             -230.72789    
    244250   1549.7651      267.1892       1282.5759      325.95068      1696.079       1.0177122      4455.7805      0              0              0              0              0             -232.22326    
    244500   1496.2816      235.74529      1260.5363      287.59149      841.97213      1.0177122      4455.7805      0              0              0              0              0             -230.98264    
    244750   1548.413       267.97593      1280.4371      326.91044     -2614.9901      1.0177122      4455.7805      0              0              0              0              0             -233.13376    
    245000   1511.8368      240.16656      1271.6702      292.98511     -4339.4307      1.0177122      4455.7805      0              0              0              0              0             -232.09189    
    245250   1528.8882      250.36768      1278.5205      305.42971     -815.7435       1.0177122      4455.7805      0              0              0              0              0             -232.06816    
    245500   1547.3316      247.52049      1299.8111      301.95634     -4227.2817      1.0177122      4455.7805      0              0              0              0              0             -230.43878    
    245750   1537.0317      258.61455      1278.4172      315.49027      611.89119      1.0177122      4455.7805      0              0              0              0              0             -231.99672    
    246000   1534.9879      260.00778      1274.9801      317.1899      -877.09187      1.0177122      4455.7805      0              0              0              0              0             -232.14686    
    246250   1507.8409      253.55958      1254.2813      309.32359     -2351.9853      1.0177122      4455.7805      0              0              0              0              0             -231.58708    
    246500   1517.3225      218.6172       1298.7053      266.69651     -2272.1834      1.0177122      4455.7805      0              0              0              0              0             -231.13773    
    246750   1509.0718      244.40979      1264.662       298.16153     -3188.9537      1.0177122      4455.7805      0              0              0              0              0             -231.1436     
    247000   1503.7124      236.66743      1267.045       288.71643     -2303.3249      1.0177122      4455.7805      0              0              0              0              0             -232.07702    
    247250   1537.6309      253.3333       1284.2976      309.04754      921.19738      1.0177122      4455.7805      0              0              0              0              0             -231.60146    
    247500   1528.0108      267.67716      1260.3336      326.54597      1859.1071      1.0177122      4455.7805      0              0              0              0              0             -231.92618    
    247750   1548.6842      275.91042      1272.7737      336.58992     -1412.2544      1.0177122      4455.7805      0              0              0              0              0             -231.89759    
    248000   1551.1513      265.55954      1285.5917      323.96263     -1892.1767      1.0177122      4455.7805      0              0              0              0              0             -231.27038    
    248250   1532.8871      261.88688      1271.0003      319.48226     -6200.0707      1.0177122      4455.7805      0              0              0              0              0             -231.03454    
    248500   1538.5662      257.20205      1281.3642      313.76712     -2564.2313      1.0177122      4455.7805      0              0              0              0              0             -232.64835    
    248750   1538.5312      241.71426      1296.8169      294.87318     -2813.8897      1.0177122      4455.7805      0              0              0              0              0             -232.31315    
    249000   1537.5534      251.56399      1285.9894      306.88911     -3576.1771      1.0177122      4455.7805      0              0              0              0              0             -232.60304    
    249250   1512.2369      244.52536      1267.7115      298.30251      1986.9414      1.0177122      4455.7805      0              0              0              0              0             -232.06096    
    249500   1523.4685      249.82697      1273.6415      304.77007     -1736.507       1.0177122      4455.7805      0              0              0              0              0             -232.17487    
    249750   1561.2505      266.82627      1294.4242      325.50794      2157.2064      1.0177122      4455.7805      0              0              0              0              0             -233.36466    
    250000   1526.7533      234.10954      1292.6437      285.596        2459.4441      1.0177122      4455.7805      0              0              0              0              0             -232.43415    
    250250   1498.4989      243.52025      1254.9787      297.07635     -809.82673      1.0177122      4455.7805      0              0              0              0              0             -230.59021    
    250500   1533.7374      253.88065      1279.8567      309.71526      406.48065      1.0177122      4455.7805      0              0              0              0              0             -232.10886    
    250750   1541.8987      247.46         1294.4387      301.88255     -2732.7174      1.0177122      4455.7805      0              0              0              0              0             -231.93946    
    251000   1509.3215      240.22027      1269.1012      293.05063      225.6957       1.0177122      4455.7805      0              0              0              0              0             -230.91591    
    251250   1529.8008      248.51126      1281.2895      303.16502     -2339.1819      1.0177122      4455.7805      0              0              0              0              0             -231.18405    
    251500   1542.5267      264.24154      1278.2852      322.35476     -8592.3811      1.0177122      4455.7805      0              0              0              0              0             -230.96817    
    251750   1545.909       256.17809      1289.7309      312.51797     -4093.5476      1.0177122      4455.7805      0              0              0              0              0             -232.66113    
    252000   1514.7808      236.43791      1278.3429      288.43644     -6689.9413      1.0177122      4455.7805      0              0              0              0              0             -232.4576     
    252250   1540.4618      256.24333      1284.2184      312.59756     -3618.2497      1.0177122      4455.7805      0              0              0              0              0             -232.97821    
    252500   1523.8162      243.75291      1280.0633      297.36018      2031.9577      1.0177122      4455.7805      0              0              0              0              0             -231.23555    
    252750   1532.3723      252.21434      1280.158       307.68249     -1735.1404      1.0177122      4455.7805      0              0              0              0              0             -232.47957    
    253000   1539.2981      252.35285      1286.9452      307.85146      1919.1642      1.0177122      4455.7805      0              0              0              0              0             -233.93624    
    253250   1527.8869      251.82718      1276.0597      307.21018     -2167.0211      1.0177122      4455.7805      0              0              0              0              0             -232.00303    
    253500   1487.1644      233.40024      1253.7642      284.7307      -1767.0234      1.0177122      4455.7805      0              0              0              0              0             -231.37272    
    253750   1510.4782      240.70414      1269.7741      293.64091      810.45403      1.0177122      4455.7805      0              0              0              0              0             -230.58111    
    254000   1510.5767      241.71738      1268.8593      294.87699     -312.35794      1.0177122      4455.7805      0              0              0              0              0             -232.46782    
    254250   1532.0087      241.27106      1290.7376      294.33252     -3315.5535      1.0177122      4455.7805      0              0              0              0              0             -230.7836     
    254500   1535.9142      255.54852      1280.3657      311.74993      323.16335      1.0177122      4455.7805      0              0              0              0              0             -229.89025    
    254750   1525.7295      243.2122       1282.5173      296.70056     -3822.0859      1.0177122      4455.7805      0              0              0              0              0             -232.38568    
    255000   1512.2221      230.37661      1281.8455      281.04211     -1997.4275      1.0177122      4455.7805      0              0              0              0              0             -232.32618    
    255250   1510.5309      231.63953      1278.8914      282.58277     -1504.7824      1.0177122      4455.7805      0              0              0              0              0             -233.19198    
    255500   1529.9202      250.43627      1279.4839      305.51338      2676.0562      1.0177122      4455.7805      0              0              0              0              0             -231.52834    
    255750   1572.651       257.67949      1314.9716      314.34957     -3241.2699      1.0177122      4455.7805      0              0              0              0              0             -231.97965    
    256000   1507.1298      229.56051      1277.5693      280.04652     -1830.9901      1.0177122      4455.7805      0              0              0              0              0             -232.19888    
    256250   1542.9491      255.35334      1287.5957      311.51183     -788.10746      1.0177122      4455.7805      0              0              0              0              0             -231.65277    
    256500   1533.9566      250.06034      1283.8963      305.05477     -966.81967      1.0177122      4455.7805      0              0              0              0              0             -232.87188    
    256750   1535.8068      251.23306      1284.5737      306.4854      -2571.0618      1.0177122      4455.7805      0              0              0              0              0             -230.94621    
    257000   1539.1047      261.54421      1277.5605      319.06423      3949.664       1.0177122      4455.7805      0              0              0              0              0             -232.8504     
    257250   1513.0996      243.83877      1269.2609      297.46493     -8322.7048      1.0177122      4455.7805      0              0              0              0              0             -231.48867    
    257500   1525.7275      244.16987      1281.5576      297.86884     -558.24664      1.0177122      4455.7805      0              0              0              0              0             -232.54288    
    257750   1541.5459      248.73743      1292.8085      303.44093      936.69002      1.0177122      4455.7805      0              0              0              0              0             -232.91502    
    258000   1538.148       259.60452      1278.5435      316.69795      2022.5193      1.0177122      4455.7805      0              0              0              0              0             -232.70906    
    258250   1553.1839      251.28067      1301.9032      306.54348     -4347.0981      1.0177122      4455.7805      0              0              0              0              0             -231.84054    
    258500   1551.4382      266.80562      1284.6326      325.48276     -951.67691      1.0177122      4455.7805      0              0              0              0              0             -231.09102    
    258750   1534.9716      252.35325      1282.6183      307.85195     -809.67314      1.0177122      4455.7805      0              0              0              0              0             -232.68059    
    259000   1535.267       245.70552      1289.5615      299.74221      261.48402      1.0177122      4455.7805      0              0              0              0              0             -231.33364    
    259250   1547.8307      248.95268      1298.878       303.70351     -5539.8636      1.0177122      4455.7805      0              0              0              0              0             -232.78118    
    259500   1549.8131      270.78798      1279.0252      330.34092     -3358.0542      1.0177122      4455.7805      0              0              0              0              0             -231.47444    
    259750   1525.8924      249.56034      1276.332       304.4448      -654.23358      1.0177122      4455.7805      0              0              0              0              0             -232.0908     
    260000   1547.1882      262.71343      1284.4748      320.49059     -1944.4624      1.0177122      4455.7805      0              0              0              0              0             -233.13758    
    260250   1516.6023      236.14917      1280.4531      288.08419     -2222.5851      1.0177122      4455.7805      0              0              0              0              0             -232.93445    
    260500   1515.9112      237.97688      1277.9343      290.31386     -4640.0486      1.0177122      4455.7805      0              0              0              0              0             -231.32008    
    260750   1526.544       271.29657      1255.2475      330.96137     -2619.7725      1.0177122      4455.7805      0              0              0              0              0             -231.56945    
    261000   1533.4395      258.34595      1275.0936      315.16259      1545.724       1.0177122      4455.7805      0              0              0              0              0             -230.9994     
    261250   1528.8994      242.48788      1286.4115      295.81694      1330.5076      1.0177122      4455.7805      0              0              0              0              0             -233.48941    
    261500   1540.4934      267.42908      1273.0643      326.24332      1866.9973      1.0177122      4455.7805      0              0              0              0              0             -232.34499    
    261750   1536.4824      255.91733      1280.565       312.19986     -2238.7324      1.0177122      4455.7805      0              0              0              0              0             -232.69108    
    262000   1545.3105      246.03559      1299.275       300.14487     -3248.6996      1.0177122      4455.7805      0              0              0              0              0             -231.08569    
    262250   1512.5026      242.76292      1269.7397      296.15247     -1222.6159      1.0177122      4455.7805      0              0              0              0              0             -231.72196    
    262500   1519.4514      253.47692      1265.9745      309.22275     -6384.2153      1.0177122      4455.7805      0              0              0              0              0             -230.50301    
    262750   1544.4226      260.13244      1284.2902      317.34198     -4121.1058      1.0177122      4455.7805      0              0              0              0              0             -232.0048     
    263000   1502.002       230.54529      1271.4567      281.24788      1813.8476      1.0177122      4455.7805      0              0              0              0              0             -232.91143    
    263250   1540.1241      277.48066      1262.6435      338.5055      -3532.0852      1.0177122      4455.7805      0              0              0              0              0             -232.29997    
    263500   1540.9695      252.19725      1288.7723      307.66165     -1416.5419      1.0177122      4455.7805      0              0              0              0              0             -233.16307    
    263750   1524.7809      238.32607      1286.4548      290.73984     -733.07382      1.0177122      4455.7805      0              0              0              0              0             -232.43125    
    264000   1512.8729      236.59254      1276.2804      288.62507      1022.4928      1.0177122      4455.7805      0              0              0              0              0             -232.12747    
    264250   1516.6968      258.67483      1258.022       315.5638      -2926.6012      1.0177122      4455.7805      0              0              0              0              0             -231.68352    
    264500   1523.9621      253.01378      1270.9483      308.65775     -2778.0305      1.0177122      4455.7805      0              0              0              0              0             -231.62196    
    264750   1518.7506      239.28488      1279.4657      291.90952     -1726.0702      1.0177122      4455.7805      0              0              0              0              0             -232.91289    
    265000   1514.8533      259.36195      1255.4913      316.40204     -4672.2686      1.0177122      4455.7805      0              0              0              0              0             -230.34731    
    265250   1527.2247      247.27099      1279.9537      301.65197     -1306.0347      1.0177122      4455.7805      0              0              0              0              0             -231.89214    
    265500   1555.5748      267.80533      1287.7695      326.70232     -2572.4653      1.0177122      4455.7805      0              0              0              0              0             -231.50618    
    265750   1525.3643      235.27278      1290.0915      287.01506      796.75169      1.0177122      4455.7805      0              0              0              0              0             -233.71224    
    266000   1511.1026      232.11324      1278.9893      283.16066     -6861.0869      1.0177122      4455.7805      0              0              0              0              0             -231.45029    
    266250   1525.0969      252.58897      1272.5079      308.13951     -341.38844      1.0177122      4455.7805      0              0              0              0              0             -232.24223    
    266500   1556.0471      274.76031      1281.2868      335.18687     -2784.2432      1.0177122      4455.7805      0              0              0              0              0             -230.86311    
    266750   1520.3676      249.78567      1270.5819      304.7197      -1942.9915      1.0177122      4455.7805      0              0              0              0              0             -231.65421    
    267000   1507.9234      251.0409       1256.8825      306.25098     -2387.1412      1.0177122      4455.7805      0              0              0              0              0             -230.99166    
    267250   1515.2399      250.06682      1265.1731      305.06268     -144.76704      1.0177122      4455.7805      0              0              0              0              0             -232.93542    
    267500   1572.184       270.17702      1302.0069      329.59561     -235.36833      1.0177122      4455.7805      0              0              0              0              0             -231.97561    
    267750   1524.8007      243.43759      1281.3631      296.97552     -1185.0927      1.0177122      4455.7805      0              0              0              0              0             -231.39553    
    268000   1504.6571      243.09699      1261.5601      296.56001      2272.2702      1.0177122      4455.7805      0              0              0              0              0             -231.89893    
    268250   1501.2567      225.5202       1275.7365      275.11765     -3502.9292      1.0177122      4455.7805      0              0              0              0              0             -229.356      
    268500   1525.6394      257.87919      1267.7602      314.59317     -2694.7917      1.0177122      4455.7805      0              0              0              0              0             -231.59026    
    268750   1555.2623      268.75085      1286.5115      327.85579     -3448.0545      1.0177122      4455.7805      0              0              0              0              0             -231.35428    
    269000   1558.9034      244.34849      1314.5549      298.08674      3041.1491      1.0177122      4455.7805      0              0              0              0              0             -232.44798    
    269250   1523.2641      230.27454      1292.9895      280.91758     -840.9416       1.0177122      4455.7805      0              0              0              0              0             -231.78282    
    269500   1554.4243      263.1034       1291.3209      320.96632      2213.0479      1.0177122      4455.7805      0              0              0              0              0             -233.02365    
    269750   1548.1764      259.65604      1288.5204      316.7608       958.14919      1.0177122      4455.7805      0              0              0              0              0             -231.68624    
    270000   1519.1618      245.39248      1273.7694      299.36033     -2068.3398      1.0177122      4455.7805      0              0              0              0              0             -231.43238    
    270250   1520.0369      238.96678      1281.0701      291.52147      3672.2976      1.0177122      4455.7805      0              0              0              0              0             -231.61703    
    270500   1554.0662      259.82476      1294.2414      316.96662     -4405.83        1.0177122      4455.7805      0              0              0              0              0             -232.89931    
    270750   1514.0219      238.98618      1275.0357      291.54513     -3519.7393      1.0177122      4455.7805      0              0              0              0              0             -231.77109    
    271000   1497.8721      225.89409      1271.978       275.57377     -3781.2967      1.0177122      4455.7805      0              0              0              0              0             -231.6666     
    271250   1557.83        266.57076      1291.2592      325.19624     -4989.144       1.0177122      4455.7805      0              0              0              0              0             -231.41401    
    271500   1495.0791      214.05479      1281.0243      261.13072      784.14867      1.0177122      4455.7805      0              0              0              0              0             -232.85707    
    271750   1554.4931      257.88879      1296.6043      314.60489     -1005.6052      1.0177122      4455.7805      0              0              0              0              0             -232.79075    
    272000   1536.8695      254.68596      1282.1835      310.69768     -629.11543      1.0177122      4455.7805      0              0              0              0              0             -233.55275    
    272250   1534.4998      256.10588      1278.394       312.42987     -1651.8855      1.0177122      4455.7805      0              0              0              0              0             -231.60902    
    272500   1534.3237      246.94843      1287.3752      301.25847     -3749.9755      1.0177122      4455.7805      0              0              0              0              0             -232.61054    
    272750   1539.3246      250.69181      1288.6328      305.82511     -2848.2601      1.0177122      4455.7805      0              0              0              0              0             -232.21203    
    273000   1502.9761      231.51063      1271.4655      282.42552      2863.5083      1.0177122      4455.7805      0              0              0              0              0             -233.26421    
    273250   1535.3022      251.35423      1283.948       306.63323     -5170.4793      1.0177122      4455.7805      0              0              0              0              0             -231.24928    
    273500   1510.6455      237.86517      1272.7804      290.17759     -4394.777       1.0177122      4455.7805      0              0              0              0              0             -231.2206     
    273750   1548.3346      268.68862      1279.646       327.77987     -2891.2082      1.0177122      4455.7805      0              0              0              0              0             -231.84842    
    274000   1540.4852      257.01104      1283.4742      313.5341      -3888.1458      1.0177122      4455.7805      0              0              0              0              0             -230.71119    
    274250   1531.73        263.86238      1267.8676      321.89222     -2913.7485      1.0177122      4455.7805      0              0              0              0              0             -232.57362    
    274500   1523.6183      233.03583      1290.5825      284.28615     -862.73424      1.0177122      4455.7805      0              0              0              0              0             -233.15973    
    274750   1527.5395      255.49214      1272.0473      311.68116     -2528.302       1.0177122      4455.7805      0              0              0              0              0             -232.9701     
    275000   1515.0457      227.05913      1287.9866      276.99502      1053.3302      1.0177122      4455.7805      0              0              0              0              0             -231.99019    
    275250   1522.2613      243.2032       1279.0581      296.68958     -5358.5571      1.0177122      4455.7805      0              0              0              0              0             -232.88043    
    275500   1497.4916      232.17492      1265.3167      283.23591     -1561.6678      1.0177122      4455.7805      0              0              0              0              0             -232.9512     
    275750   1535.9555      251.33065      1284.6248      306.60445     -2885.2605      1.0177122      4455.7805      0              0              0              0              0             -230.67096    
    276000   1539.9015      258.2523       1281.6492      315.04834      953.82987      1.0177122      4455.7805      0              0              0              0              0             -231.1397     
    276250   1503.4013      246.49583      1256.9054      300.70634      2619.01        1.0177122      4455.7805      0              0              0              0              0             -232.12759    
    276500   1541.5561      261.82457      1279.7316      319.40625     -4743.4865      1.0177122      4455.7805      0              0              0              0              0             -231.23029    
    276750   1543.8617      258.1314       1285.7303      314.90085     -1005.1415      1.0177122      4455.7805      0              0              0              0              0             -231.67022    
    277000   1534.8222      247.8145       1287.0078      302.31501      491.1815       1.0177122      4455.7805      0              0              0              0              0             -232.57505    
    277250   1519.779       244.76268      1275.0163      298.59202     -1589.838       1.0177122      4455.7805      0              0              0              0              0             -230.78965    
    277500   1533.6551      246.9281       1286.727       301.23368     -3511.6172      1.0177122      4455.7805      0              0              0              0              0             -230.60609    
    277750   1529.3997      248.79367      1280.606       303.50953     -4293.3208      1.0177122      4455.7805      0              0              0              0              0             -232.52618    
    278000   1491.7873      216.50261      1275.2847      264.11686     -153.70493      1.0177122      4455.7805      0              0              0              0              0             -233.3854     
    278250   1507.8173      243.73431      1264.083       297.33749     -1122.999       1.0177122      4455.7805      0              0              0              0              0             -232.05428    
    278500   1511.3009      243.87829      1267.4226      297.51313     -2058.6505      1.0177122      4455.7805      0              0              0              0              0             -232.61314    
    278750   1507.2851      238.6665       1268.6186      291.15515     -499.4761       1.0177122      4455.7805      0              0              0              0              0             -231.95       
    279000   1537.6932      258.58406      1279.1091      315.45306     -1695.4786      1.0177122      4455.7805      0              0              0              0              0             -231.12707    
    279250   1529.2966      257.98356      1271.3131      314.7205      -2052.6988      1.0177122      4455.7805      0              0              0              0              0             -230.04       
    279500   1542.936       259.7978       1283.1382      316.93374      1029.7938      1.0177122      4455.7805      0              0              0              0              0             -233.47516    
    279750   1513.7623      248.60465      1265.1577      303.27893      513.2336       1.0177122      4455.7805      0              0              0              0              0             -231.50533    
    280000   1521.2419      246.50322      1274.7387      300.71536     -2399.3595      1.0177122      4455.7805      0              0              0              0              0             -231.87957    
    280250   1532.3462      258.51195      1273.8343      315.3651      -914.42082      1.0177122      4455.7805      0              0              0              0              0             -230.86131    
    280500   1537.8959      253.86468      1284.0312      309.69578     -2362.9309      1.0177122      4455.7805      0              0              0              0              0             -231.34068    
    280750   1548.049       249.67477      1298.3743      304.58441     -2094.7552      1.0177122      4455.7805      0              0              0              0              0             -233.23991    
    281000   1524.3421      243.87816      1280.464       297.51298     -1236.4094      1.0177122      4455.7805      0              0              0              0              0             -230.58766    
    281250   1531.1416      272.05821      1259.0834      331.89052     -1183.9612      1.0177122      4455.7805      0              0              0              0              0             -231.21026    
    281500   1536.667       249.70475      1286.9622      304.62098      679.77373      1.0177122      4455.7805      0              0              0              0              0             -232.37714    
    281750   1509.1691      254.62181      1254.5473      310.61942     -1951.4459      1.0177122      4455.7805      0              0              0              0              0             -232.3246     
    282000   1550.5057      262.37753      1288.1281      320.08081     -826.98427      1.0177122      4455.7805      0              0              0              0              0             -232.32528    
    282250   1537.5312      267.72976      1269.8015      326.61013     -1407.0683      1.0177122      4455.7805      0              0              0              0              0             -231.42592    
    282500   1509.3827      229.74257      1279.6401      280.26863     -2063.889       1.0177122      4455.7805      0              0              0              0              0             -231.14253    
    282750   1552.2634      272.37655      1279.8869      332.27886      2165.3093      1.0177122      4455.7805      0              0              0              0              0             -232.28912    
    283000   1524.7718      248.43954      1276.3323      303.07752      1105.3689      1.0177122      4455.7805      0              0              0              0              0             -232.13687    
    283250   1546.1122      250.20841      1295.9038      305.2354       3415.4928      1.0177122      4455.7805      0              0              0              0              0             -231.23375    
    283500   1531.4548      249.14593      1282.3089      303.93926     -4558.1781      1.0177122      4455.7805      0              0              0              0              0             -233.63673    
    283750   1541.4117      262.76674      1278.6449      320.55563      1300.1755      1.0177122      4455.7805      0              0              0              0              0             -230.41793    
    284000   1535.6078      253.7328       1281.875       309.5349      -6635.2868      1.0177122      4455.7805      0              0              0              0              0             -231.43634    
    284250   1540.1927      269.10586      1271.0869      328.28886      3369.0234      1.0177122      4455.7805      0              0              0              0              0             -232.26285    
    284500   1518.5929      234.26713      1284.3258      285.78824     -1118.985       1.0177122      4455.7805      0              0              0              0              0             -232.84187    
    284750   1545.101       272.52327      1272.5777      332.45785     -701.63697      1.0177122      4455.7805      0              0              0              0              0             -232.92576    
    285000   1524.349       233.65899      1290.69        285.04636     -226.12444      1.0177122      4455.7805      0              0              0              0              0             -232.90532    
    285250   1526.8051      253.17652      1273.6285      308.85627      1960.3552      1.0177122      4455.7805      0              0              0              0              0             -233.2877     
    285500   1529.2342      257.2232       1272.011       313.79292      4796.7511      1.0177122      4455.7805      0              0              0              0              0             -232.76427    
    285750   1528.7465      248.68026      1280.0662      303.37118     -1461.4406      1.0177122      4455.7805      0              0              0              0              0             -233.17557    
    286000   1534.9313      258.21055      1276.7207      314.99742     -3669.1263      1.0177122      4455.7805      0              0              0              0              0             -233.52503    
    286250   1542.6659      262.63886      1280.027       320.39962     -2440.4203      1.0177122      4455.7805      0              0              0              0              0             -231.91893    
    286500   1531.5404      246.61647      1284.924       300.85351     -3380.8003      1.0177122      4455.7805      0              0              0              0              0             -232.19179    
    286750   1526.6995      246.14149      1280.558       300.27407     -3042.9651      1.0177122      4455.7805      0              0              0              0              0             -231.40097    
    287000   1520.8511      255.28968      1265.5614      311.43417      4349.104       1.0177122      4455.7805      0              0              0              0              0             -231.82671    
    287250   1534.8034      256.28032      1278.5231      312.64267     -3125.76        1.0177122      4455.7805      0              0              0              0              0             -231.43378    
    287500   1593.0487      281.09304      1311.9557      342.91233     -336.42792      1.0177122      4455.7805      0              0              0              0              0             -231.46919    
    287750   1555.4936      254.8787       1300.6149      310.93281     -3497.8851      1.0177122      4455.7805      0              0              0              0              0             -231.42774    
    288000   1534.8855      255.48616      1279.3994      311.67386     -2382.1623      1.0177122      4455.7805      0              0              0              0              0             -232.19288    
    288250   1534.2183      270.45037      1263.7679      329.92907      695.16828      1.0177122      4455.7805      0              0              0              0              0             -233.31105    
    288500   1557.0376      263.88575      1293.1518      321.92073     -4256.9721      1.0177122      4455.7805      0              0              0              0              0             -232.80864    
    288750   1555.5898      265.34419      1290.2456      323.69991     -7699.6854      1.0177122      4455.7805      0              0              0              0              0             -231.48824    
    289000   1527.7755      257.54265      1270.2329      314.18263      1729.2359      1.0177122      4455.7805      0              0              0              0              0             -232.30927    
    289250   1559.3151      265.62563      1293.6894      324.04326     -50.095385      1.0177122      4455.7805      0              0              0              0              0             -232.40372    
    289500   1542.8254      264.98283      1277.8425      323.25909     -3405.7012      1.0177122      4455.7805      0              0              0              0              0             -231.85803    
    289750   1550.2003      270.49964      1279.7007      329.98917     -52.244417      1.0177122      4455.7805      0              0              0              0              0             -233.05814    
    290000   1534.4143      243.36348      1291.0508      296.88511     -759.06621      1.0177122      4455.7805      0              0              0              0              0             -231.56195    
    290250   1527.6155      241.77668      1285.8389      294.94933     -870.35663      1.0177122      4455.7805      0              0              0              0              0             -232.67861    
    290500   1535.4685      242.61933      1292.8492      295.9773      -6144.5904      1.0177122      4455.7805      0              0              0              0              0             -230.68735    
    290750   1555.4294      280.28445      1275.145       341.92591     -3355.3816      1.0177122      4455.7805      0              0              0              0              0             -231.25676    
    291000   1543.622       268.77399      1274.848       327.88401      3043.8649      1.0177122      4455.7805      0              0              0              0              0             -232.43685    
    291250   1527.3135      253.43209      1273.8814      309.16805     -1723.7668      1.0177122      4455.7805      0              0              0              0              0             -231.12357    
    291500   1527.2818      258.65668      1268.6251      315.54166      2234.4937      1.0177122      4455.7805      0              0              0              0              0             -231.9875     
    291750   1560.9784      268.39942      1292.5789      327.42707     -3363.4052      1.0177122      4455.7805      0              0              0              0              0             -231.21159    
    292000   1536.7844      247.10189      1289.6826      301.44569     -1101.361       1.0177122      4455.7805      0              0              0              0              0             -232.30768    
    292250   1515.5458      238.67739      1276.8684      291.16843     -626.47561      1.0177122      4455.7805      0              0              0              0              0             -232.53987    
    292500   1521.2819      237.61654      1283.6654      289.87427      302.06785      1.0177122      4455.7805      0              0              0              0              0             -232.04237    
    292750   1541.6588      261.23455      1280.4242      318.68646     -2712.7777      1.0177122      4455.7805      0              0              0              0              0             -231.8763     
    293000   1515.1678      236.05324      1279.1146      287.96716      784.24029      1.0177122      4455.7805      0              0              0              0              0             -231.33983    
    293250   1509.5611      248.20647      1261.3546      302.79319      3118.5038      1.0177122      4455.7805      0              0              0              0              0             -232.11199    
    293500   1530.9492      254.70714      1276.2421      310.72352     -2341.2         1.0177122      4455.7805      0              0              0              0              0             -232.29077    
    293750   1533.9191      243.79096      1290.1282      297.4066      -2012.0299      1.0177122      4455.7805      0              0              0              0              0             -231.20766    
    294000   1507.2981      239.03061      1268.2675      291.59933     -2342.0461      1.0177122      4455.7805      0              0              0              0              0             -232.22667    
    294250   1515.9446      245.67626      1270.2684      299.70652     -3391.5744      1.0177122      4455.7805      0              0              0              0              0             -231.62919    
    294500   1549.0512      272.45063      1276.6005      332.36924      1943.7068      1.0177122      4455.7805      0              0              0              0              0             -232.57202    
    294750   1552.2229      240.5012       1311.7217      293.39334     -1302.7944      1.0177122      4455.7805      0              0              0              0              0             -232.63527    
    295000   1550.3832      271.59004      1278.7931      331.31938      1512.4686      1.0177122      4455.7805      0              0              0              0              0             -232.10583    
    295250   1560.6355      255.10639      1305.5291      311.21058     -1115.2885      1.0177122      4455.7805      0              0              0              0              0             -233.21566    
    295500   1537.031       257.78725      1279.2437      314.48102     -2089.4077      1.0177122      4455.7805      0              0              0              0              0             -233.5688     
    295750   1524.1566      239.10179      1285.0548      291.68616     -2000.7903      1.0177122      4455.7805      0              0              0              0              0             -232.42185    
    296000   1522.9391      239.3663       1283.5728      292.00885     -3757.6013      1.0177122      4455.7805      0              0              0              0              0             -231.47025    
    296250   1491.9917      227.57203      1264.4197      277.62072     -1748.1602      1.0177122      4455.7805      0              0              0              0              0             -231.98074    
    296500   1530.2975      260.24476      1270.0527      317.479        812.34003      1.0177122      4455.7805      0              0              0              0              0             -232.6114     
    296750   1534.8802      234.45504      1300.4252      286.01748     -7307.1334      1.0177122      4455.7805      0              0              0              0              0             -230.80253    
    297000   1537.0111      254.82522      1282.1859      310.86757     -2813.5411      1.0177122      4455.7805      0              0              0              0              0             -231.37169    
    297250   1538.4559      252.54678      1285.9091      308.08804     -2077.3727      1.0177122      4455.7805      0              0              0              0              0             -232.47363    
    297500   1547.2386      251.86142      1295.3772      307.25196     -1117.469       1.0177122      4455.7805      0              0              0              0              0             -232.66581    
    297750   1534.8246      255.158        1279.6666      311.27353     -3907.1685      1.0177122      4455.7805      0              0              0              0              0             -230.42951    
    298000   1536.1084      253.72045      1282.3879      309.51983     -3958.9258      1.0177122      4455.7805      0              0              0              0              0             -232.80189    
    298250   1519.3653      234.06174      1285.3036      285.53768     -2188.6784      1.0177122      4455.7805      0              0              0              0              0             -231.91062    
    298500   1544.2839      251.48121      1292.8027      306.78812     -1170.8688      1.0177122      4455.7805      0              0              0              0              0             -232.59367    
    298750   1513.021       240.24499      1272.776       293.08079     -2014.9861      1.0177122      4455.7805      0              0              0              0              0             -231.84196    
    299000   1545.3548      252.16725      1293.1875      307.62504     -396.3912       1.0177122      4455.7805      0              0              0              0              0             -233.2531     
    299250   1523.8263      235.62666      1288.1996      287.44677     -1779.8359      1.0177122      4455.7805      0              0              0              0              0             -233.00496    
    299500   1525.7684      256.1632       1269.6052      312.49979      1225.2116      1.0177122      4455.7805      0              0              0              0              0             -233.50986    
    299750   1512.8         251.47091      1261.3291      306.77557     -3438.4963      1.0177122      4455.7805      0              0              0              0              0             -232.7759     
    300000   1538.9675      254.6265       1284.341       310.62515      85.111908      1.0177122      4455.7805      0              0              0              0              0             -231.60232    
    300250   1528.133       253.59817      1274.5348      309.37065     -4830.2922      1.0177122      4455.7805      0              0              0              0              0             -231.405      
    300500   1569.9239      273.49177      1296.4321      333.63935     -3275.2049      1.0177122      4455.7805      0              0              0              0              0             -231.84266    
    300750   1524.1102      242.75764      1281.3526      296.14603      492.6256       1.0177122      4455.7805      0              0              0              0              0             -231.87886    
    301000   1531.6005      260.38493      1271.2156      317.64999     -4211.5088      1.0177122      4455.7805      0              0              0              0              0             -231.41578    
    301250   1526.2025      253.81356      1272.389       309.63342     -2177.8164      1.0177122      4455.7805      0              0              0              0              0             -230.66514    
    301500   1540.542       264.24221      1276.2998      322.35559     -3639.5357      1.0177122      4455.7805      0              0              0              0              0             -231.54092    
    301750   1539.7259      255.8463       1283.8796      312.1132      -3549.8454      1.0177122      4455.7805      0              0              0              0              0             -231.32689    
    302000   1512.3778      244.4385       1267.9393      298.19655     -927.0915       1.0177122      4455.7805      0              0              0              0              0             -231.66786    
    302250   1548.7367      261.17253      1287.5641      318.61081     -682.32892      1.0177122      4455.7805      0              0              0              0              0             -232.48281    
    302500   1550.7559      258.51281      1292.2431      315.36614      607.07799      1.0177122      4455.7805      0              0              0              0              0             -233.30365    
    302750   1547.7104      257.1191       1290.5913      313.66593      127.26778      1.0177122      4455.7805      0              0              0              0              0             -232.65509    
    303000   1542.2411      255.8822       1286.3589      312.157       -1493.4249      1.0177122      4455.7805      0              0              0              0              0             -231.8033     
    303250   1541.2528      258.42044      1282.8323      315.25347     -3417.7722      1.0177122      4455.7805      0              0              0              0              0             -231.75335    
    303500   1553.4048      259.06141      1294.3434      316.0354      -5559.5367      1.0177122      4455.7805      0              0              0              0              0             -231.53785    
    303750   1526.9494      253.35564      1273.5938      309.07479     -2689.0864      1.0177122      4455.7805      0              0              0              0              0             -231.22359    
    304000   1525.1781      248.50742      1276.6706      303.16033     -4018.9697      1.0177122      4455.7805      0              0              0              0              0             -231.81982    
    304250   1520.9382      252.33565      1268.6025      307.83048      2357.6583      1.0177122      4455.7805      0              0              0              0              0             -230.06133    
    304500   1498.3766      221.02993      1277.3467      269.63985     -4834.7684      1.0177122      4455.7805      0              0              0              0              0             -231.84426    
    304750   1521.4016      243.40197      1277.9996      296.93206     -6167.3984      1.0177122      4455.7805      0              0              0              0              0             -232.7517     
    305000   1527.289       248.95835      1278.3306      303.71043     -2538.8254      1.0177122      4455.7805      0              0              0              0              0             -233.89549    
    305250   1505.1028      235.98529      1269.1175      287.88427     -164.61148      1.0177122      4455.7805      0              0              0              0              0             -230.93469    
    305500   1524.5151      254.67501      1269.8401      310.68432     -2410.6445      1.0177122      4455.7805      0              0              0              0              0             -232.02246    
    305750   1534.3849      251.76484      1282.62        307.13413     -858.59375      1.0177122      4455.7805      0              0              0              0              0             -230.92219    
    306000   1539.4549      244.98986      1294.465       298.86916     -1479.4819      1.0177122      4455.7805      0              0              0              0              0             -231.63554    
    306250   1550.4396      259.46329      1290.9763      316.52567     -2294.5642      1.0177122      4455.7805      0              0              0              0              0             -233.36118    
    306500   1532.9567      253.26868      1279.688       308.9687       477.36578      1.0177122      4455.7805      0              0              0              0              0             -231.97655    
    306750   1522.8103      259.5142       1263.2961      316.58777     -1962.0467      1.0177122      4455.7805      0              0              0              0              0             -231.78614    
    307000   1528.6197      257.99481      1270.6249      314.73423     -2955.321       1.0177122      4455.7805      0              0              0              0              0             -232.23548    
    307250   1525.9949      246.33086      1279.664       300.50509     -3216.4056      1.0177122      4455.7805      0              0              0              0              0             -232.18364    
    307500   1517.5039      241.6456       1275.8583      294.78943      921.6338       1.0177122      4455.7805      0              0              0              0              0             -231.13667    
    307750   1526.625       234.79094      1291.8341      286.42725     -215.10876      1.0177122      4455.7805      0              0              0              0              0             -232.59877    
    308000   1560.502       257.94987      1302.5521      314.67941     -210.12022      1.0177122      4455.7805      0              0              0              0              0             -232.34721    
    308250   1565.3141      274.42959      1290.8845      334.78343     -291.6968       1.0177122      4455.7805      0              0              0              0              0             -232.43583    
    308500   1561.3087      266.96676      1294.342       325.67933     -1109.2314      1.0177122      4455.7805      0              0              0              0              0             -231.47768    
    308750   1526.5998      239.16177      1287.438       291.75934     -2827.4388      1.0177122      4455.7805      0              0              0              0              0             -230.77986    
    309000   1526.857       237.53761      1289.3194      289.77799      1553.4718      1.0177122      4455.7805      0              0              0              0              0             -231.7964     
    309250   1532.7576      253.86357      1278.894       309.69443     -2877.7319      1.0177122      4455.7805      0              0              0              0              0             -231.64995    
    309500   1534.5977      253.07745      1281.5202      308.73542     -1510.6566      1.0177122      4455.7805      0              0              0              0              0             -233.77565    
    309750   1509.0847      242.12081      1266.9639      295.36914      2397.1826      1.0177122      4455.7805      0              0              0              0              0             -231.87539    
    310000   1544.9906      261.80194      1283.1886      319.37863      3294.7132      1.0177122      4455.7805      0              0              0              0              0             -232.17204    
    310250   1540.5205      272.94343      1267.577       332.97041      933.35651      1.0177122      4455.7805      0              0              0              0              0             -231.94765    
    310500   1491.8806      223.90691      1267.9737      273.14956     -3862.1173      1.0177122      4455.7805      0              0              0              0              0             -231.8177     
    310750   1486.0876      221.53545      1264.5521      270.25655      2059.1805      1.0177122      4455.7805      0              0              0              0              0             -232.55814    
    311000   1538.3563      255.92572      1282.4306      312.21009     -4079.4265      1.0177122      4455.7805      0              0              0              0              0             -232.65984    
    311250   1529.1432      268.35754      1260.7857      327.37597     -1403.9873      1.0177122      4455.7805      0              0              0              0              0             -230.9404     
    311500   1556.8453      247.78269      1309.0626      302.27621      1741.5062      1.0177122      4455.7805      0              0              0              0              0             -232.0139     
    311750   1546.8539      258.07339      1288.7805      314.83009     -579.8103       1.0177122      4455.7805      0              0              0              0              0             -231.44861    
    312000   1539.0859      243.89691      1295.1889      297.53585     -8082.1886      1.0177122      4455.7805      0              0              0              0              0             -231.09625    
    312250   1540.3278      261.46519      1278.8627      318.96783      919.35991      1.0177122      4455.7805      0              0              0              0              0             -233.27838    
    312500   1544.1194      241.18332      1302.9361      294.22547      39.14649       1.0177122      4455.7805      0              0              0              0              0             -231.97071    
    312750   1526.0799      239.71584      1286.364       292.43526     -13.806465      1.0177122      4455.7805      0              0              0              0              0             -230.49655    
    313000   1535.3358      247.51425      1287.8215      301.94874     -2450.0457      1.0177122      4455.7805      0              0              0              0              0             -231.45743    
    313250   1520.3324      244.04554      1276.2869      297.71717     -418.30849      1.0177122      4455.7805      0              0              0              0              0             -232.3568     
    313500   1516.9935      229.29807      1287.6954      279.72637      2829.4592      1.0177122      4455.7805      0              0              0              0              0             -231.75285    
    313750   1525.8925      242.14909      1283.7434      295.40365      1015.7527      1.0177122      4455.7805      0              0              0              0              0             -231.99381    
    314000   1500.0227      225.00587      1275.0168      274.49021      2027.4346      1.0177122      4455.7805      0              0              0              0              0             -231.17335    
    314250   1520.1376      235.23226      1284.9053      286.96563     -6757.9348      1.0177122      4455.7805      0              0              0              0              0             -231.93596    
    314500   1532.3057      255.97634      1276.3294      312.27184      817.86126      1.0177122      4455.7805      0              0              0              0              0             -229.63324    
    314750   1511.104       220.18423      1290.9198      268.60817     -1140.4738      1.0177122      4455.7805      0              0              0              0              0             -232.56553    
    315000   1533.8151      247.32418      1286.491       301.71686      2753.1969      1.0177122      4455.7805      0              0              0              0              0             -232.85337    
    315250   1529.5071      263.58424      1265.9229      321.55291     -3020.9185      1.0177122      4455.7805      0              0              0              0              0             -232.03033    
    315500   1545.5475      273.75748      1271.79        333.9635      -306.42853      1.0177122      4455.7805      0              0              0              0              0             -231.87877    
    315750   1540.5851      257.45145      1283.1336      314.07136     -4897.0849      1.0177122      4455.7805      0              0              0              0              0             -229.84571    
    316000   1535.159       247.85254      1287.3064      302.36142      1861.5042      1.0177122      4455.7805      0              0              0              0              0             -232.07009    
    316250   1526.4911      258.06915      1268.4219      314.82492     -2231.3498      1.0177122      4455.7805      0              0              0              0              0             -231.88551    
    316500   1520.0493      230.79368      1289.2556      281.5509      -334.51555      1.0177122      4455.7805      0              0              0              0              0             -232.39423    
    316750   1552.4095      258.6918       1293.7177      315.58451     -5057.4567      1.0177122      4455.7805      0              0              0              0              0             -230.79359    
    317000   1515.8337      235.5385       1280.2952      287.33922      387.49336      1.0177122      4455.7805      0              0              0              0              0             -231.86725    
    317250   1508.8024      239.19353      1269.6089      291.79808     -756.41091      1.0177122      4455.7805      0              0              0              0              0             -232.52757    
    317500   1526.303       259.46139      1266.8417      316.52334     -717.02732      1.0177122      4455.7805      0              0              0              0              0             -232.34951    
    317750   1522.2299      241.9262       1280.3037      295.13173     -2106.6329      1.0177122      4455.7805      0              0              0              0              0             -232.81502    
    318000   1504.6858      253.57343      1251.1124      309.34047     -3619.6877      1.0177122      4455.7805      0              0              0              0              0             -231.61751    
    318250   1528.0968      241.1801       1286.9167      294.22155      3107.8702      1.0177122      4455.7805      0              0              0              0              0             -233.54073    
    318500   1529.0299      260.17902      1268.8509      317.3988       1244.0474      1.0177122      4455.7805      0              0              0              0              0             -231.85497    
    318750   1517.0232      238.43473      1278.5884      290.8724      -2917.5372      1.0177122      4455.7805      0              0              0              0              0             -230.94324    
    319000   1540.8407      255.80125      1285.0394      312.05824     -2633.4086      1.0177122      4455.7805      0              0              0              0              0             -232.15601    
    319250   1541.914       236.60489      1305.3091      288.64014      706.84311      1.0177122      4455.7805      0              0              0              0              0             -232.22351    
    319500   1520.9866      242.80396      1278.1826      296.20253     -6143.3114      1.0177122      4455.7805      0              0              0              0              0             -231.2985     
    319750   1548.7035      266.81792      1281.8856      325.49775     -2131.1353      1.0177122      4455.7805      0              0              0              0              0             -232.50629    
    320000   1523.0594      242.55571      1280.5037      295.89969      2811.5695      1.0177122      4455.7805      0              0              0              0              0             -234.14691    
    320250   1544.979       250.30957      1294.6694      305.35882     -4756.7912      1.0177122      4455.7805      0              0              0              0              0             -230.8156     
    320500   1553.119       270.2231       1282.8959      329.65182     -139.65177      1.0177122      4455.7805      0              0              0              0              0             -232.11478    
    320750   1522.5525      243.12728      1279.4252      296.59696      1407.6629      1.0177122      4455.7805      0              0              0              0              0             -231.76042    
    321000   1511.7733      239.92366      1271.8497      292.68878      2736.6346      1.0177122      4455.7805      0              0              0              0              0             -231.4339     
    321250   1508.9431      246.72527      1262.2178      300.98624     -4029.6654      1.0177122      4455.7805      0              0              0              0              0             -232.8674     
    321500   1499.2745      234.69172      1264.5828      286.30622     -4574.7142      1.0177122      4455.7805      0              0              0              0              0             -230.54672    
    321750   1536.0603      255.14792      1280.9124      311.26124      2317.2967      1.0177122      4455.7805      0              0              0              0              0             -232.01095    
    322000   1552.814       273.56708      1279.247       333.73122     -1268.1341      1.0177122      4455.7805      0              0              0              0              0             -233.81689    
    322250   1513.4052      243.90003      1269.5051      297.53965      1349.7395      1.0177122      4455.7805      0              0              0              0              0             -231.30734    
    322500   1553.4311      251.70102      1301.7301      307.05628     -5108.8168      1.0177122      4455.7805      0              0              0              0              0             -233.26664    
    322750   1537.1174      267.03275      1270.0847      325.75983      736.61903      1.0177122      4455.7805      0              0              0              0              0             -231.12302    
    323000   1532.6384      251.7298       1280.9086      307.09139      2612.4163      1.0177122      4455.7805      0              0              0              0              0             -231.72994    
    323250   1511.0786      253.10607      1257.9726      308.77033     -350.81         1.0177122      4455.7805      0              0              0              0              0             -232.40609    
    323500   1519.3973      239.61941      1279.7779      292.31763     -2675.011       1.0177122      4455.7805      0              0              0              0              0             -230.99374    
    323750   1531.1294      251.81397      1279.3154      307.19406      2049.68        1.0177122      4455.7805      0              0              0              0              0             -233.28666    
    324000   1526.4851      248.83472      1277.6504      303.55961     -4051.4269      1.0177122      4455.7805      0              0              0              0              0             -231.78948    
    324250   1551.8011      266.02366      1285.7774      324.52882     -984.54783      1.0177122      4455.7805      0              0              0              0              0             -232.23851    
    324500   1500.6899      235.96672      1264.7232      287.86162      884.62796      1.0177122      4455.7805      0              0              0              0              0             -231.40164    
    324750   1525.8324      237.25926      1288.5732      289.43841     -3670.997       1.0177122      4455.7805      0              0              0              0              0             -232.83477    
    325000   1492.8975      235.66858      1257.229       287.49791     -3436.5797      1.0177122      4455.7805      0              0              0              0              0             -232.7122     
    325250   1529.5278      246.23949      1283.2883      300.39362      199.20506      1.0177122      4455.7805      0              0              0              0              0             -232.03693    
    325500   1530.1408      257.61312      1272.5277      314.26859      99.032443      1.0177122      4455.7805      0              0              0              0              0             -231.45283    
    325750   1535.3028      248.88931      1286.4135      303.62621     -3480.5823      1.0177122      4455.7805      0              0              0              0              0             -230.82388    
    326000   1532.4865      250.94909      1281.5374      306.13898     -654.15107      1.0177122      4455.7805      0              0              0              0              0             -231.54064    
    326250   1526.9827      250.34635      1276.6363      305.40368     -2401.0531      1.0177122      4455.7805      0              0              0              0              0             -230.86865    
    326500   1526.3544      253.20581      1273.1486      308.89201     -1780.1089      1.0177122      4455.7805      0              0              0              0              0             -232.34205    
    326750   1527.272       260.62595      1266.646       317.94402     -1352.7268      1.0177122      4455.7805      0              0              0              0              0             -231.98693    
    327000   1532.1807      274.33562      1257.8451      334.66878     -1608.7099      1.0177122      4455.7805      0              0              0              0              0             -232.09928    
    327250   1516.1214      237.50131      1278.6201      289.7337       2193.279       1.0177122      4455.7805      0              0              0              0              0             -231.94761    
    327500   1535.9602      252.2497       1283.7105      307.72562      54.655923      1.0177122      4455.7805      0              0              0              0              0             -231.25281    
    327750   1554.6475      259.08685      1295.5606      316.06643     -3136.0507      1.0177122      4455.7805      0              0              0              0              0             -230.84187    
    328000   1538.6085      256.29369      1282.3148      312.65898      4133.3596      1.0177122      4455.7805      0              0              0              0              0             -231.95816    
    328250   1547.2969      252.54597      1294.751       308.08705     -1031.3582      1.0177122      4455.7805      0              0              0              0              0             -231.82719    
    328500   1515.3415      229.23335      1286.1082      279.64742     -5838.5731      1.0177122      4455.7805      0              0              0              0              0             -231.74763    
    328750   1509.8888      241.57926      1268.3095      294.70849     -1045.5293      1.0177122      4455.7805      0              0              0              0              0             -230.26329    
    329000   1517.69        238.44031      1279.2497      290.87921     -1043.9097      1.0177122      4455.7805      0              0              0              0              0             -232.02849    
    329250   1542.7683      254.82274      1287.9455      310.86454      2099.4248      1.0177122      4455.7805      0              0              0              0              0             -232.88867    
    329500   1560.1327      263.70532      1296.4274      321.70062     -2717.3532      1.0177122      4455.7805      0              0              0              0              0             -231.32583    
    329750   1531.5654      253.9928       1277.5726      309.85207     -1863.1983      1.0177122      4455.7805      0              0              0              0              0             -233.24837    
    330000   1511.1808      249.73541      1261.4454      304.65838     -3550.0545      1.0177122      4455.7805      0              0              0              0              0             -231.94783    
    330250   1560.869       271.66557      1289.2035      331.41153      762.34203      1.0177122      4455.7805      0              0              0              0              0             -231.94003    
    330500   1530.6546      253.18315      1277.4715      308.86437     -2604.4979      1.0177122      4455.7805      0              0              0              0              0             -232.49341    
    330750   1513.7047      236.03131      1277.6734      287.94042     -858.83802      1.0177122      4455.7805      0              0              0              0              0             -230.18322    
    331000   1507.5272      229.31184      1278.2154      279.74316     -1125.474       1.0177122      4455.7805      0              0              0              0              0             -230.85028    
    331250   1525.5396      233.06365      1292.4759      284.32009     -2549.0988      1.0177122      4455.7805      0              0              0              0              0             -232.02386    
    331500   1561.427       278.80154      1282.6254      340.11687      131.81423      1.0177122      4455.7805      0              0              0              0              0             -231.51925    
    331750   1540.1783      265.44185      1274.7365      323.81905     -6194.026       1.0177122      4455.7805      0              0              0              0              0             -231.33263    
    332000   1537.5759      249.8864       1287.6895      304.84258     -4879.0091      1.0177122      4455.7805      0              0              0              0              0             -230.53585    
    332250   1506.957       239.73544      1267.2215      292.45917     -4090.0499      1.0177122      4455.7805      0              0              0              0              0             -230.94315    
    332500   1519.9613      238.31546      1281.6458      290.7269      -3511.2579      1.0177122      4455.7805      0              0              0              0              0             -230.12804    
    332750   1532.0466      252.56048      1279.4861      308.10476      5016.0266      1.0177122      4455.7805      0              0              0              0              0             -233.09662    
    333000   1497.8528      244.2793       1253.5735      298.00234     -4214.2232      1.0177122      4455.7805      0              0              0              0              0             -231.53516    
    333250   1552.385       272.4452       1279.9398      332.36262     -1225.5216      1.0177122      4455.7805      0              0              0              0              0             -231.73603    
    333500   1533.8962      259.08968      1274.8066      316.06989      2209.2509      1.0177122      4455.7805      0              0              0              0              0             -232.92314    
    333750   1550.659       263.87774      1286.7812      321.91096     -251.07718      1.0177122      4455.7805      0              0              0              0              0             -231.36728    
    334000   1532.0976      234.34987      1297.7477      285.88918     -1461.6946      1.0177122      4455.7805      0              0              0              0              0             -232.02446    
    334250   1543.4448      258.91951      1284.5253      315.8623      -2296.1252      1.0177122      4455.7805      0              0              0              0              0             -232.04595    
    334500   1527.4161      247.32189      1280.0942      301.71407      919.92564      1.0177122      4455.7805      0              0              0              0              0             -231.35883    
    334750   1537.5522      259.06737      1278.4848      316.04267     -262.58091      1.0177122      4455.7805      0              0              0              0              0             -231.97296    
    335000   1541.1349      247.1393       1293.9956      301.49132     -10470.157      1.0177122      4455.7805      0              0              0              0              0             -230.90339    
    335250   1550.2852      263.14489      1287.1403      321.01693     -2495.6044      1.0177122      4455.7805      0              0              0              0              0             -231.05508    
    335500   1520.7139      254.74999      1265.964       310.77579      2146.1161      1.0177122      4455.7805      0              0              0              0              0             -232.01659    
    335750   1535.3317      262.90761      1272.4241      320.72747     -3563.2303      1.0177122      4455.7805      0              0              0              0              0             -233.02971    
    336000   1517.8128      252.60151      1265.2113      308.15481     -190.04575      1.0177122      4455.7805      0              0              0              0              0             -232.09198    
    336250   1520.3211      239.56705      1280.754       292.25375     -1865.4514      1.0177122      4455.7805      0              0              0              0              0             -230.5277     
    336500   1521.1225      242.94605      1278.1764      296.37587     -4247.4241      1.0177122      4455.7805      0              0              0              0              0             -231.2146     
    336750   1518.71        250.04973      1268.6603      305.04182     -4204.3228      1.0177122      4455.7805      0              0              0              0              0             -232.90817    
    337000   1529.6815      231.26836      1298.4132      282.12998     -4726.6906      1.0177122      4455.7805      0              0              0              0              0             -231.3227     
    337250   1502.0054      227.77897      1274.2265      277.87318     -4952.7909      1.0177122      4455.7805      0              0              0              0              0             -231.9368     
    337500   1542.2547      250.25238      1292.0023      305.28904     -2467.1275      1.0177122      4455.7805      0              0              0              0              0             -230.60216    
    337750   1544.5253      266.33812      1278.1872      324.91244      437.56173      1.0177122      4455.7805      0              0              0              0              0             -231.53909    
    338000   1549.89        267.3296       1282.5604      326.12197      4299.8901      1.0177122      4455.7805      0              0              0              0              0             -232.90793    
    338250   1539.2428      245.72881      1293.514       299.77063      504.69387      1.0177122      4455.7805      0              0              0              0              0             -232.42513    
    338500   1543.2799      256.84767      1286.4323      313.3348      -1671.75        1.0177122      4455.7805      0              0              0              0              0             -231.8625     
    338750   1542.4938      257.35662      1285.1372      313.95568     -2542.2269      1.0177122      4455.7805      0              0              0              0              0             -232.25305    
    339000   1537.1121      247.34031      1289.7718      301.73653     -4722.7709      1.0177122      4455.7805      0              0              0              0              0             -232.63498    
    339250   1546.3536      266.08151      1280.272       324.59939     -2330.5508      1.0177122      4455.7805      0              0              0              0              0             -231.24425    
    339500   1545.3706      253.16621      1292.2044      308.8437       785.25741      1.0177122      4455.7805      0              0              0              0              0             -234.05082    
    339750   1538.5471      248.04253      1290.5045      302.5932      -1358.6161      1.0177122      4455.7805      0              0              0              0              0             -233.09226    
    340000   1559.3792      262.75877      1296.6204      320.5459      -4859.6034      1.0177122      4455.7805      0              0              0              0              0             -232.97355    
    340250   1573.2149      283.27625      1289.9387      345.57568     -2025.255       1.0177122      4455.7805      0              0              0              0              0             -232.7671     
    340500   1524.4458      244.87328      1279.5725      298.72695     -1512.2021      1.0177122      4455.7805      0              0              0              0              0             -231.08322    
    340750   1521.8406      246.26163      1275.579       300.42063     -1707.4178      1.0177122      4455.7805      0              0              0              0              0             -230.69495    
    341000   1542.5851      249.71351      1292.8716      304.63166     -2708.3804      1.0177122      4455.7805      0              0              0              0              0             -232.70512    
    341250   1548.257       255.81104      1292.446       312.07019     -3500.3382      1.0177122      4455.7805      0              0              0              0              0             -229.95781    
    341500   1555.2307      266.94744      1288.2833      325.65577     -1890.6376      1.0177122      4455.7805      0              0              0              0              0             -231.20932    
    341750   1546.2596      269.90821      1276.3514      329.26768     -4432.2079      1.0177122      4455.7805      0              0              0              0              0             -233.08707    
    342000   1551.8143      268.42116      1283.3931      327.45359      168.88616      1.0177122      4455.7805      0              0              0              0              0             -232.05796    
    342250   1510.8682      228.0314       1282.8368      278.18113     -5766.0713      1.0177122      4455.7805      0              0              0              0              0             -231.79824    
    342500   1522.8794      243.18595      1279.6934      296.66854      942.0806       1.0177122      4455.7805      0              0              0              0              0             -231.81832    
    342750   1513.3746      252.04137      1261.3332      307.47147     -4081.3504      1.0177122      4455.7805      0              0              0              0              0             -232.3948     
    343000   1532.0835      262.16377      1269.9197      319.82005     -1962.546       1.0177122      4455.7805      0              0              0              0              0             -231.95999    
    343250   1532.4681      247.42359      1285.0445      301.83814     -1053.8966      1.0177122      4455.7805      0              0              0              0              0             -233.35762    
    343500   1513.4465      245.21699      1268.2295      299.14625     -1140.7548      1.0177122      4455.7805      0              0              0              0              0             -232.54178    
    343750   1502.6331      224.74078      1277.8924      274.16682     -360.21635      1.0177122      4455.7805      0              0              0              0              0             -230.74178    
    344000   1548.7527      271.69782      1277.0549      331.45086     -7133.7079      1.0177122      4455.7805      0              0              0              0              0             -230.92989    
    344250   1514.1359      229.29731      1284.8386      279.72544     -4733.894       1.0177122      4455.7805      0              0              0              0              0             -230.50829    
    344500   1486.591       232.37392      1254.217       283.47867     -1196.7026      1.0177122      4455.7805      0              0              0              0              0             -232.66539    
    344750   1534.9107      246.72425      1288.1865      300.98499     -6035.1739      1.0177122      4455.7805      0              0              0              0              0             -231.38923    
    345000   1534.7688      250.26657      1284.5022      305.30636     -2882.7883      1.0177122      4455.7805      0              0              0              0              0             -232.58463    
    345250   1555.1925      260.54521      1294.6473      317.84553     -504.66579      1.0177122      4455.7805      0              0              0              0              0             -232.9382     
    345500   1522.0334      244.83073      1277.2027      298.67504      410.81812      1.0177122      4455.7805      0              0              0              0              0             -230.93278    
    345750   1526.6055      238.23745      1288.368       290.63173     -1263.0369      1.0177122      4455.7805      0              0              0              0              0             -232.3822     
    346000   1541.5911      253.63272      1287.9584      309.4128       846.83407      1.0177122      4455.7805      0              0              0              0              0             -232.03015    
    346250   1530.1609      255.60837      1274.5525      311.82295     -1928.8925      1.0177122      4455.7805      0              0              0              0              0             -231.99337    
    346500   1522.3281      244.51159      1277.8165      298.28572      2583.6557      1.0177122      4455.7805      0              0              0              0              0             -232.1926     
    346750   1536.8608      243.90227      1292.9585      297.54239     -173.59236      1.0177122      4455.7805      0              0              0              0              0             -231.1221     
    347000   1527.6415      251.41841      1276.2231      306.71152     -467.53947      1.0177122      4455.7805      0              0              0              0              0             -232.30878    
    347250   1542.0762      249.40363      1292.6726      304.25363     -1527.6213      1.0177122      4455.7805      0              0              0              0              0             -233.42393    
    347500   1532.9106      258.08702      1274.8236      314.84672     -5034.3985      1.0177122      4455.7805      0              0              0              0              0             -231.10543    
    347750   1557.3823      267.9971       1289.3852      326.93627     -2431.6711      1.0177122      4455.7805      0              0              0              0              0             -231.41967    
    348000   1544.556       261.04274      1283.5133      318.45247     -612.5549       1.0177122      4455.7805      0              0              0              0              0             -231.743      
    348250   1544.0719      248.78548      1295.2864      303.49954     -3830.2242      1.0177122      4455.7805      0              0              0              0              0             -230.66282    
    348500   1552.4067      264.23986      1288.1668      322.35272      4829.6629      1.0177122      4455.7805      0              0              0              0              0             -232.29083    
    348750   1543.8086      257.34523      1286.4634      313.94179     -217.15546      1.0177122      4455.7805      0              0              0              0              0             -232.35767    
    349000   1541.2689      259.35442      1281.9145      316.39285     -2136.3824      1.0177122      4455.7805      0              0              0              0              0             -232.79309    
    349250   1519.9959      254.11006      1265.8858      309.99513     -3353.6498      1.0177122      4455.7805      0              0              0              0              0             -231.64573    
    349500   1560.6358      271.75313      1288.8826      331.51834      656.74781      1.0177122      4455.7805      0              0              0              0              0             -231.83769    
    349750   1505.4086      235.35893      1270.0497      287.12015      147.34351      1.0177122      4455.7805      0              0              0              0              0             -231.04458    
    350000   1537.4939      274.22825      1263.2657      334.5378      -2556.21        1.0177122      4455.7805      0              0              0              0              0             -231.55579    
    350250   1516.5427      244.54201      1272.0007      298.32282     -2143.2792      1.0177122      4455.7805      0              0              0              0              0             -231.62762    
    350500   1537.4142      253.10649      1284.3077      308.77084     -2386.3832      1.0177122      4455.7805      0              0              0              0              0             -233.18181    
    350750   1536.0062      250.30657      1285.6996      305.35515      359.10388      1.0177122      4455.7805      0              0              0              0              0             -231.72268    
    351000   1540.616       247.4979       1293.1181      301.92879      940.23775      1.0177122      4455.7805      0              0              0              0              0             -233.48265    
    351250   1517.2898      250.96039      1266.3294      306.15277     -3495.5447      1.0177122      4455.7805      0              0              0              0              0             -231.61285    
    351500   1541.0345      256.44024      1284.5943      312.83777     -1260.2886      1.0177122      4455.7805      0              0              0              0              0             -231.51842    
    351750   1515.6473      267.77316      1247.8741      326.66308     -2132.4733      1.0177122      4455.7805      0              0              0              0              0             -231.71094    
    352000   1535.1704      244.70437      1290.466       298.52089     -4462.0745      1.0177122      4455.7805      0              0              0              0              0             -231.32926    
    352250   1530.8777      242.17749      1288.7003      295.43828      217.99676      1.0177122      4455.7805      0              0              0              0              0             -232.70975    
    352500   1546.9372      260.04993      1286.8873      317.24132      2771.7064      1.0177122      4455.7805      0              0              0              0              0             -232.88931    
    352750   1532.8493      249.71129      1283.138       304.62895     -2644.2396      1.0177122      4455.7805      0              0              0              0              0             -230.88824    
    353000   1534.3776      245.83612      1288.5414      299.90154     -3960.2645      1.0177122      4455.7805      0              0              0              0              0             -230.78417    
    353250   1518.113       232.74929      1285.3637      283.93659      919.81188      1.0177122      4455.7805      0              0              0              0              0             -230.93115    
    353500   1555.4937      255.96748      1299.5263      312.26103     -2431.9687      1.0177122      4455.7805      0              0              0              0              0             -232.48874    
    353750   1511.7919      249.48647      1262.3055      304.3547       778.5168       1.0177122      4455.7805      0              0              0              0              0             -232.32163    
    354000   1557.6314      269.02701      1288.6044      328.19268     -3820.7591      1.0177122      4455.7805      0              0              0              0              0             -232.86815    
    354250   1508.1902      225.15501      1283.0352      274.67214     -1769.9301      1.0177122      4455.7805      0              0              0              0              0             -233.10831    
    354500   1545.6693      257.01528      1288.654       313.53927     -2516.4847      1.0177122      4455.7805      0              0              0              0              0             -233.34525    
    354750   1547.0792      251.55843      1295.5208      306.88233     -384.41706      1.0177122      4455.7805      0              0              0              0              0             -231.48037    
    355000   1551.5103      264.21946      1287.2909      322.32783     -2087.34        1.0177122      4455.7805      0              0              0              0              0             -232.46026    
    355250   1529.034       241.3062       1287.7278      294.37538     -1283.9626      1.0177122      4455.7805      0              0              0              0              0             -231.95017    
    355500   1538.5724      251.32234      1287.2501      306.59432     -1811.2076      1.0177122      4455.7805      0              0              0              0              0             -232.64545    
    355750   1512.0264      241.29639      1270.73        294.36341     -4478.0527      1.0177122      4455.7805      0              0              0              0              0             -231.55484    
    356000   1534.4108      256.78448      1277.6263      313.25772      705.44026      1.0177122      4455.7805      0              0              0              0              0             -232.63014    
    356250   1549.6738      264.11117      1285.5626      322.19573     -3156.771       1.0177122      4455.7805      0              0              0              0              0             -230.73372    
    356500   1534.0431      256.03442      1278.0087      312.34269      279.33817      1.0177122      4455.7805      0              0              0              0              0             -233.10493    
    356750   1525.1246      239.26233      1285.8623      291.88201     -121.96283      1.0177122      4455.7805      0              0              0              0              0             -232.58825    
    357000   1517.4764      233.14777      1284.3286      284.42271     -1851.4483      1.0177122      4455.7805      0              0              0              0              0             -232.58851    
    357250   1517.7627      244.68641      1273.0762      298.49898     -1948.5554      1.0177122      4455.7805      0              0              0              0              0             -231.91454    
    357500   1536.4359      252.63286      1283.803       308.19305     -1219.3939      1.0177122      4455.7805      0              0              0              0              0             -232.96874    
    357750   1513.1389      249.7501       1263.3888      304.67631     -1128.9896      1.0177122      4455.7805      0              0              0              0              0             -233.11251    
    358000   1524.3458      248.64543      1275.7004      303.32868     -3725.0913      1.0177122      4455.7805      0              0              0              0              0             -232.5397     
    358250   1512.0887      246.88169      1265.207       301.17706     -2032.0516      1.0177122      4455.7805      0              0              0              0              0             -230.96316    
    358500   1514.4871      242.54101      1271.9461      295.88176     -3171.176       1.0177122      4455.7805      0              0              0              0              0             -233.35324    
    358750   1532.0357      252.61716      1279.4185      308.1739       996.15722      1.0177122      4455.7805      0              0              0              0              0             -232.02785    
    359000   1545.2741      266.40077      1278.8733      324.98887      1608.7679      1.0177122      4455.7805      0              0              0              0              0             -230.57811    
    359250   1527.3744      251.37866      1275.9958      306.66303     -4120.7365      1.0177122      4455.7805      0              0              0              0              0             -230.76007    
    359500   1542.3881      252.47645      1289.9117      308.00224      211.86142      1.0177122      4455.7805      0              0              0              0              0             -231.98258    
    359750   1525.6765      249.98048      1275.696       304.95734      1443.3006      1.0177122      4455.7805      0              0              0              0              0             -229.94258    
    360000   1533.1857      255.57081      1277.6149      311.77712     -1173.97        1.0177122      4455.7805      0              0              0              0              0             -232.81581    
    360250   1549.3934      266.55379      1282.8396      325.17554      402.69454      1.0177122      4455.7805      0              0              0              0              0             -231.27709    
    360500   1535.2474      263.24204      1272.0053      321.13545      1561.7368      1.0177122      4455.7805      0              0              0              0              0             -232.26791    
    360750   1558.203       270.07041      1288.1326      329.46555      756.91511      1.0177122      4455.7805      0              0              0              0              0             -232.02959    
    361000   1532.413       249.44522      1282.9677      304.30437     -574.53649      1.0177122      4455.7805      0              0              0              0              0             -232.98066    
    361250   1555.5589      256.37159      1299.1873      312.75402     -702.82605      1.0177122      4455.7805      0              0              0              0              0             -232.22259    
    361500   1505.8203      242.76662      1263.0537      296.15699      547.06268      1.0177122      4455.7805      0              0              0              0              0             -231.82192    
    361750   1539.2441      256.21657      1283.0275      312.56491      1957.4298      1.0177122      4455.7805      0              0              0              0              0             -231.65928    
    362000   1532.3331      246.99945      1285.3336      301.32072     -721.09179      1.0177122      4455.7805      0              0              0              0              0             -231.99269    
    362250   1565.4137      288.9825       1276.4312      352.53688     -3893.3197      1.0177122      4455.7805      0              0              0              0              0             -232.19066    
    362500   1532.6513      250.11434      1282.537       305.12064      3003.6506      1.0177122      4455.7805      0              0              0              0              0             -231.88641    
    362750   1556.9858      260.74439      1296.2414      318.08851     -3368.5781      1.0177122      4455.7805      0              0              0              0              0             -232.75099    
    363000   1486.3663      228.40691      1257.9594      278.63922      240.49094      1.0177122      4455.7805      0              0              0              0              0             -230.05199    
    363250   1531.8983      254.34216      1277.5561      310.27827     -287.25011      1.0177122      4455.7805      0              0              0              0              0             -231.57624    
    363500   1534.5522      246.85647      1287.6957      301.14629     -1481.492       1.0177122      4455.7805      0              0              0              0              0             -232.79118    
    363750   1533.4632      245.74303      1287.7202      299.78798     -4154.7737      1.0177122      4455.7805      0              0              0              0              0             -231.80047    
    364000   1520.058       248.2022       1271.8558      302.78798      3928.895       1.0177122      4455.7805      0              0              0              0              0             -233.08456    
    364250   1551.187       264.25022      1286.9368      322.36536     -1103.2926      1.0177122      4455.7805      0              0              0              0              0             -233.61907    
    364500   1508.6237      243.5652       1265.0585      297.13119     -2278.7836      1.0177122      4455.7805      0              0              0              0              0             -232.19003    
    364750   1528.1067      244.97378      1283.133       298.84955     -4281.8392      1.0177122      4455.7805      0              0              0              0              0             -232.86113    
    365000   1518.0191      232.44121      1285.5779      283.56076     -734.82737      1.0177122      4455.7805      0              0              0              0              0             -231.9361     
    365250   1538.0068      253.79156      1284.2153      309.60657      162.44594      1.0177122      4455.7805      0              0              0              0              0             -230.26502    
    365500   1531.0691      239.80515      1291.264       292.54421     -2417.3697      1.0177122      4455.7805      0              0              0              0              0             -230.72543    
    365750   1536.8241      249.07267      1287.7514      303.84989     -715.09495      1.0177122      4455.7805      0              0              0              0              0             -232.25348    
    366000   1527.5743      247.79897      1279.7753      302.29607     -1332.1089      1.0177122      4455.7805      0              0              0              0              0             -233.4102     
    366250   1523.855       237.01318      1286.8419      289.13822      2918.7763      1.0177122      4455.7805      0              0              0              0              0             -233.05488    
    366500   1526.1882      274.26805      1251.9202      334.58635     -2844.2232      1.0177122      4455.7805      0              0              0              0              0             -232.30848    
    366750   1533.2477      252.26856      1280.9792      307.74863     -2330.3622      1.0177122      4455.7805      0              0              0              0              0             -231.07626    
    367000   1529.0046      254.00873      1274.9958      309.87151     -745.66202      1.0177122      4455.7805      0              0              0              0              0             -233.06452    
    367250   1542.8508      272.57739      1270.2734      332.52387     -183.96604      1.0177122      4455.7805      0              0              0              0              0             -234.46491    
    367500   1550.0048      257.27909      1292.7257      313.8611      -2181.9392      1.0177122      4455.7805      0              0              0              0              0             -234.11852    
    367750   1571.107       275.57465      1295.5324      336.18031     -2228.585       1.0177122      4455.7805      0              0              0              0              0             -232.47721    
    368000   1538.94        244.63306      1294.3069      298.43389     -1006.194       1.0177122      4455.7805      0              0              0              0              0             -232.15591    
    368250   1510.4461      243.01474      1267.4314      296.45967     -1818.7         1.0177122      4455.7805      0              0              0              0              0             -232.71275    
    368500   1507.6311      238.30704      1269.324       290.71663     -3265.5308      1.0177122      4455.7805      0              0              0              0              0             -232.14723    
    368750   1529.8056      249.05865      1280.7469      303.83279     -536.15765      1.0177122      4455.7805      0              0              0              0              0             -231.16826    
    369000   1534.5598      244.71922      1289.8405      298.539       -1396.0324      1.0177122      4455.7805      0              0              0              0              0             -233.37224    
    369250   1504.6858      241.97575      1262.71        295.19218     -2860.9371      1.0177122      4455.7805      0              0              0              0              0             -231.3635     
    369500   1524.4795      245.84482      1278.6346      299.91216     -3781.3843      1.0177122      4455.7805      0              0              0              0              0             -232.53957    
    369750   1537.2132      252.20895      1285.0043      307.67591     -3770.6681      1.0177122      4455.7805      0              0              0              0              0             -233.47244    
    370000   1533.422       244.58777      1288.8343      298.37865      953.08418      1.0177122      4455.7805      0              0              0              0              0             -232.76684    
    370250   1540.4553      257.27363      1283.1817      313.85444     -743.62175      1.0177122      4455.7805      0              0              0              0              0             -230.77541    
    370500   1517.4154      232.60529      1284.8101      283.76093     -5539.0637      1.0177122      4455.7805      0              0              0              0              0             -232.13897    
    370750   1514.6427      252.44462      1262.198       307.96342     -278.42541      1.0177122      4455.7805      0              0              0              0              0             -231.37814    
    371000   1554.5664      248.09951      1306.4669      302.6627      -2095.093       1.0177122      4455.7805      0              0              0              0              0             -231.79022    
    371250   1556.0275      261.14528      1294.8822      318.57756     -3145.8419      1.0177122      4455.7805      0              0              0              0              0             -231.16848    
    371500   1568.5092      279.12309      1289.3861      340.50913     -926.35388      1.0177122      4455.7805      0              0              0              0              0             -231.86174    
    371750   1523.3589      236.06062      1287.2983      287.97617     -1007.5029      1.0177122      4455.7805      0              0              0              0              0             -232.02384    
    372000   1551.3486      266.43868      1284.9099      325.03511      297.21411      1.0177122      4455.7805      0              0              0              0              0             -231.91317    
    372250   1513.8582      252.0789       1261.7793      307.51726     -2613.9539      1.0177122      4455.7805      0              0              0              0              0             -231.13334    
    372500   1511.1978      236.58927      1274.6085      288.62109      118.41452      1.0177122      4455.7805      0              0              0              0              0             -231.40287    
    372750   1505.3338      229.73139      1275.6024      280.25498     -3435.755       1.0177122      4455.7805      0              0              0              0              0             -230.81559    
    373000   1538.0526      261.72444      1276.3282      319.28409     -2234.8436      1.0177122      4455.7805      0              0              0              0              0             -233.45384    
    373250   1536.3471      263.92146      1272.4257      321.9643       1318.4721      1.0177122      4455.7805      0              0              0              0              0             -232.74532    
    373500   1517.2164      256.49339      1260.723       312.9026      -279.06315      1.0177122      4455.7805      0              0              0              0              0             -232.22652    
    373750   1522.5602      254.50068      1268.0595      310.47165     -277.39788      1.0177122      4455.7805      0              0              0              0              0             -233.11808    
    374000   1526.842       256.36584      1270.4762      312.747       -1893.0817      1.0177122      4455.7805      0              0              0              0              0             -232.61202    
    374250   1540.328       250.10995      1290.2181      305.11529     -6581.9413      1.0177122      4455.7805      0              0              0              0              0             -231.836      
    374500   1511.3065      234.42938      1276.8771      285.98617     -2760.322       1.0177122      4455.7805      0              0              0              0              0             -230.97138    
    374750   1548.9637      272.97657      1275.9871      333.01084      1102.0058      1.0177122      4455.7805      0              0              0              0              0             -232.66312    
    375000   1516.9579      246.93363      1270.0243      301.24042      608.72386      1.0177122      4455.7805      0              0              0              0              0             -231.25018    
    375250   1520.6545      255.26713      1265.3873      311.40667     -3558.5288      1.0177122      4455.7805      0              0              0              0              0             -231.01326    
    375500   1544.3322      253.3022       1291.03        309.0096      -200.91338      1.0177122      4455.7805      0              0              0              0              0             -231.74283    
    375750   1527.8255      261.72638      1266.0991      319.28647      8086.0279      1.0177122      4455.7805      0              0              0              0              0             -234.52785    
    376000   1507.2236      246.68208      1260.5415      300.93354     -7150.5187      1.0177122      4455.7805      0              0              0              0              0             -230.93585    
    376250   1494.7019      228.7633       1265.9386      279.07398     -487.76334      1.0177122      4455.7805      0              0              0              0              0             -232.10096    
    376500   1506.0288      236.79605      1269.2328      288.87334      211.92948      1.0177122      4455.7805      0              0              0              0              0             -232.49771    
    376750   1530.4821      246.37005      1284.112       300.5529      -401.50558      1.0177122      4455.7805      0              0              0              0              0             -230.74138    
    377000   1558.2788      273.37202      1284.9068      333.49327     -373.15573      1.0177122      4455.7805      0              0              0              0              0             -232.15075    
    377250   1528.1299      250.33861      1277.7913      305.39424     -586.01942      1.0177122      4455.7805      0              0              0              0              0             -233.38983    
    377500   1527.2987      243.98453      1283.3142      297.64274      949.57228      1.0177122      4455.7805      0              0              0              0              0             -231.6243     
    377750   1537.464       257.49365      1279.9703      314.12285     -242.49889      1.0177122      4455.7805      0              0              0              0              0             -232.29426    
    378000   1513.4171      229.68608      1283.731       280.19971     -93.592457      1.0177122      4455.7805      0              0              0              0              0             -234.21808    
    378250   1528.5431      243.33322      1285.2098      296.8482       1450.8974      1.0177122      4455.7805      0              0              0              0              0             -233.12984    
    378500   1513.2013      239.40104      1273.8002      292.05123      282.74056      1.0177122      4455.7805      0              0              0              0              0             -232.23295    
    378750   1550.4801      281.44511      1269.035       343.34182      18.180775      1.0177122      4455.7805      0              0              0              0              0             -232.2999     
    379000   1518.4859      247.77236      1270.7135      302.26361     -273.02205      1.0177122      4455.7805      0              0              0              0              0             -231.17846    
    379250   1529.9448      248.66654      1281.2783      303.35444      961.08681      1.0177122      4455.7805      0              0              0              0              0             -232.37848    
    379500   1517.2638      247.45337      1269.8104      301.87446     -790.87537      1.0177122      4455.7805      0              0              0              0              0             -231.60004    
    379750   1530.6233      256.27123      1274.3521      312.63159     -4699.0529      1.0177122      4455.7805      0              0              0              0              0             -232.40879    
    380000   1524.3834      252.29627      1272.0871      307.78243     -4625.2032      1.0177122      4455.7805      0              0              0              0              0             -230.42813    
    380250   1529.9767      248.91274      1281.0639      303.65479      130.65562      1.0177122      4455.7805      0              0              0              0              0             -233.31949    
    380500   1515.8976      255.52329      1260.3743      311.71916     -6089.7156      1.0177122      4455.7805      0              0              0              0              0             -230.91513    
    380750   1536.9366      252.01283      1284.9238      307.43666     -4072.2968      1.0177122      4455.7805      0              0              0              0              0             -232.13049    
    381000   1570.5489      254.03434      1316.5145      309.90275     -1950.896       1.0177122      4455.7805      0              0              0              0              0             -231.30885    
    381250   1542.0693      244.80515      1297.2641      298.64384     -2844.2761      1.0177122      4455.7805      0              0              0              0              0             -231.67555    
    381500   1528.0887      247.27011      1280.8186      301.6509       3054.4906      1.0177122      4455.7805      0              0              0              0              0             -233.23852    
    381750   1517.2324      258.00494      1259.2274      314.74658      1171.2866      1.0177122      4455.7805      0              0              0              0              0             -232.66232    
    382000   1534.5804      250.71632      1283.8641      305.85502     -6631.5224      1.0177122      4455.7805      0              0              0              0              0             -231.72066    
    382250   1522.0814      246.88882      1275.1926      301.18575     -4289.4263      1.0177122      4455.7805      0              0              0              0              0             -231.15553    
    382500   1529.0903      264.37076      1264.7196      322.5124       396.39721      1.0177122      4455.7805      0              0              0              0              0             -233.10073    
    382750   1507.6886      245.89006      1261.7985      299.96734      169.18807      1.0177122      4455.7805      0              0              0              0              0             -232.04776    
    383000   1510.5889      245.97013      1264.6188      300.06502      9.2599077      1.0177122      4455.7805      0              0              0              0              0             -232.13276    
    383250   1520.3802      248.2888       1272.0914      302.89363     -1958.4193      1.0177122      4455.7805      0              0              0              0              0             -230.73579    
    383500   1518.8088      239.49652      1279.3122      292.16771      938.75029      1.0177122      4455.7805      0              0              0              0              0             -232.71595    
    383750   1519.2783      230.00943      1289.2689      280.59417     -522.62603      1.0177122      4455.7805      0              0              0              0              0             -232.79597    
    384000   1519.7164      249.4137       1270.3027      304.26592     -2263.1809      1.0177122      4455.7805      0              0              0              0              0             -231.96511    
    384250   1515.9949      256.53384      1259.4611      312.95195     -473.39277      1.0177122      4455.7805      0              0              0              0              0             -230.63182    
    384500   1513.9306      228.15831      1285.7723      278.33594     -2025.0509      1.0177122      4455.7805      0              0              0              0              0             -232.4049     
    384750   1535.4069      254.31964      1281.0873      310.2508      -1010.8997      1.0177122      4455.7805      0              0              0              0              0             -231.43238    
    385000   1529.7768      246.31095      1283.4658      300.4808      -3371.6665      1.0177122      4455.7805      0              0              0              0              0             -232.19082    
    385250   1546.8495      264.0522       1282.7973      322.12379      1445.7702      1.0177122      4455.7805      0              0              0              0              0             -231.86552    
    385500   1550.9783      267.12751      1283.8508      325.87543     -2194.367       1.0177122      4455.7805      0              0              0              0              0             -233.17496    
    385750   1520.8213      236.7844       1284.0369      288.85912     -2988.3527      1.0177122      4455.7805      0              0              0              0              0             -231.46799    
    386000   1517.9331      235.95999      1281.9731      287.85341     -6427.3203      1.0177122      4455.7805      0              0              0              0              0             -229.56356    
    386250   1543.0987      252.22792      1290.8708      307.69906     -276.83158      1.0177122      4455.7805      0              0              0              0              0             -232.37767    
    386500   1555.6607      259.52809      1296.1326      316.60471      2328.0681      1.0177122      4455.7805      0              0              0              0              0             -233.26969    
    386750   1520.6719      256.77118      1263.9007      313.24149      3084.4461      1.0177122      4455.7805      0              0              0              0              0             -233.01583    
    387000   1524.9861      252.89707      1272.0891      308.51537     -5429.5392      1.0177122      4455.7805      0              0              0              0              0             -232.13398    
    387250   1507.628       240.55925      1267.0688      293.46415     -585.38009      1.0177122      4455.7805      0              0              0              0              0             -230.0853     
    387500   1524.6383      252.45716      1272.1812      307.97871      1131.2348      1.0177122      4455.7805      0              0              0              0              0             -232.5092     
    387750   1517.1176      226.70556      1290.4121      276.5637      -2462.19        1.0177122      4455.7805      0              0              0              0              0             -232.09377    
    388000   1556.9554      273.62406      1283.3313      333.80073     -6417.7014      1.0177122      4455.7805      0              0              0              0              0             -231.63691    
    388250   1519.5776      241.99238      1277.5852      295.21247     -935.12864      1.0177122      4455.7805      0              0              0              0              0             -232.68341    
    388500   1538.158       252.36334      1285.7947      307.86426     -1119.6346      1.0177122      4455.7805      0              0              0              0              0             -232.89084    
    388750   1528.623       257.20888      1271.4142      313.77545     -1236.0008      1.0177122      4455.7805      0              0              0              0              0             -232.16567    
    389000   1530.6449      249.68871      1280.9562      304.60141     -791.00538      1.0177122      4455.7805      0              0              0              0              0             -231.29613    
    389250   1521.8964      234.79722      1287.0992      286.43492      1385.177       1.0177122      4455.7805      0              0              0              0              0             -233.31966    
    389500   1524.0857      239.67485      1284.4108      292.38526     -835.89675      1.0177122      4455.7805      0              0              0              0              0             -232.82944    
    389750   1537.394       244.76328      1292.6307      298.59276      1547.1507      1.0177122      4455.7805      0              0              0              0              0             -231.62813    
    390000   1542.9608      263.47739      1279.4834      321.42257     -2100.777       1.0177122      4455.7805      0              0              0              0              0             -233.41693    
    390250   1503.6502      252.75443      1250.8958      308.34135      2190.7012      1.0177122      4455.7805      0              0              0              0              0             -233.5959     
    390500   1515.0044      262.64687      1252.3576      320.40939     -286.61398      1.0177122      4455.7805      0              0              0              0              0             -231.2721     
    390750   1538.7171      263.14009      1275.577       321.01108     -2144.7272      1.0177122      4455.7805      0              0              0              0              0             -231.66553    
    391000   1546.9979      270.74392      1276.254       330.28718     -189.38097      1.0177122      4455.7805      0              0              0              0              0             -231.56381    
    391250   1518.8643      243.76387      1275.1005      297.37355     -2462.6981      1.0177122      4455.7805      0              0              0              0              0             -231.38105    
    391500   1513.6809      247.77351      1265.9074      302.26501      3637.868       1.0177122      4455.7805      0              0              0              0              0             -231.26061    
    391750   1526.3275      256.23178      1270.0957      312.58346      26.134851      1.0177122      4455.7805      0              0              0              0              0             -231.02778    
    392000   1549.9148      272.90371      1277.0111      332.92196     -635.64669      1.0177122      4455.7805      0              0              0              0              0             -233.10501    
    392250   1545.3258      262.30062      1283.0251      319.98699      1837.0387      1.0177122      4455.7805      0              0              0              0              0             -233.74688    
    392500   1555.3241      265.14966      1290.1745      323.4626       1514.7077      1.0177122      4455.7805      0              0              0              0              0             -230.9037     
    392750   1535.2196      263.28607      1271.9335      321.18917     -117.36356      1.0177122      4455.7805      0              0              0              0              0             -233.36394    
    393000   1514.6844      240.65906      1274.0254      293.58592     -5421.9296      1.0177122      4455.7805      0              0              0              0              0             -232.32574    
    393250   1531.6166      256.48785      1275.1287      312.89585      73.87501       1.0177122      4455.7805      0              0              0              0              0             -231.26735    
    393500   1516.008       242.35254      1273.6554      295.65184     -2339.3612      1.0177122      4455.7805      0              0              0              0              0             -232.32999    
    393750   1536.4792      238.5854       1297.8938      291.0562      -4931.2648      1.0177122      4455.7805      0              0              0              0              0             -232.09191    
    394000   1525.8637      249.63636      1276.2273      304.53754     -1435.1672      1.0177122      4455.7805      0              0              0              0              0             -232.19623    
    394250   1505.4832      249.82065      1255.6626      304.76236     -3943.7551      1.0177122      4455.7805      0              0              0              0              0             -231.54599    
    394500   1504.1793      238.67427      1265.505       291.16463     -4436.0877      1.0177122      4455.7805      0              0              0              0              0             -232.19365    
    394750   1506.6841      249.62624      1257.0579      304.52521     -1330.8219      1.0177122      4455.7805      0              0              0              0              0             -232.64837    
    395000   1528.8303      264.69113      1264.1392      322.90323     -1686.1454      1.0177122      4455.7805      0              0              0              0              0             -231.22002    
    395250   1541.7113      256.07288      1285.6384      312.38962     -2971.3345      1.0177122      4455.7805      0              0              0              0              0             -233.5302     
    395500   1526.975       249.83398      1277.141       304.77863     -2250.7178      1.0177122      4455.7805      0              0              0              0              0             -233.00084    
    395750   1546.7561      245.61727      1301.1388      299.63456     -1344.0852      1.0177122      4455.7805      0              0              0              0              0             -232.07267    
    396000   1520.2451      262.28263      1257.9625      319.96504      209.93872      1.0177122      4455.7805      0              0              0              0              0             -232.63676    
    396250   1558.301       255.72075      1302.5803      311.96004     -1490.8515      1.0177122      4455.7805      0              0              0              0              0             -231.84459    
    396500   1540.9815      256.12159      1284.8599      312.44905      264.28271      1.0177122      4455.7805      0              0              0              0              0             -230.49293    
    396750   1541.9939      257.0669       1284.927       313.60224     -4112.1996      1.0177122      4455.7805      0              0              0              0              0             -230.6459     
    397000   1533.3691      261.80386      1271.5652      319.38098     -2895.2071      1.0177122      4455.7805      0              0              0              0              0             -231.25383    
    397250   1508.1305      238.34752      1269.783       290.76601     -3298.7535      1.0177122      4455.7805      0              0              0              0              0             -231.85244    
    397500   1524.9907      230.19398      1294.7967      280.81931     -5625.9353      1.0177122      4455.7805      0              0              0              0              0             -231.72259    
    397750   1535.7041      239.85483      1295.8492      292.60482      3138.18        1.0177122      4455.7805      0              0              0              0              0             -232.05892    
    398000   1533.2181      243.40992      1289.8081      296.94177     -132.0425       1.0177122      4455.7805      0              0              0              0              0             -232.15764    
    398250   1564.4607      267.6985       1296.7622      326.57199     -3565.9898      1.0177122      4455.7805      0              0              0              0              0             -232.50041    
    398500   1545.4197      262.9148       1282.5049      320.73625      591.54457      1.0177122      4455.7805      0              0              0              0              0             -231.44252    
    398750   1532.6995      257.80839      1274.8911      314.50681      695.95331      1.0177122      4455.7805      0              0              0              0              0             -229.79434    
    399000   1537.6311      257.04295      1280.5881      313.57303     -3095.6318      1.0177122      4455.7805      0              0              0              0              0             -231.71514    
    399250   1557.5197      264.30104      1293.2186      322.42735     -1799.4615      1.0177122      4455.7805      0              0              0              0              0             -231.30124    
    399500   1534.7872      248.58532      1286.2019      303.25535      3210.0684      1.0177122      4455.7805      0              0              0              0              0             -232.16865    
    399750   1537.3142      267.39168      1269.9225      326.1977      -2036.0835      1.0177122      4455.7805      0              0              0              0              0             -232.05691    
    400000   1532.1205      260.29985      1271.8207      317.5462      -2555.5341      1.0177122      4455.7805      0              0              0              0              0             -231.60746    
    400250   1496.3261      212.80185      1283.5242      259.60222     -2364.3299      1.0177122      4455.7805      0              0              0              0              0             -230.93858    
    400500   1542.7916      262.9034       1279.8882      320.72234     -6114.7027      1.0177122      4455.7805      0              0              0              0              0             -231.84481    
    400750   1527.5564      253.96398      1273.5924      309.81692     -2715.7733      1.0177122      4455.7805      0              0              0              0              0             -232.38166    
    401000   1520.5457      251.81066      1268.735       307.19003     -3698.3463      1.0177122      4455.7805      0              0              0              0              0             -230.11862    
    401250   1547.4517      260.62528      1286.8265      317.9432      -1142.2204      1.0177122      4455.7805      0              0              0              0              0             -231.47964    
    401500   1509.1153      244.26772      1264.8476      297.98821     -4361.3856      1.0177122      4455.7805      0              0              0              0              0             -230.65631    
    401750   1534.4058      256.84892      1277.5569      313.33633     -622.40143      1.0177122      4455.7805      0              0              0              0              0             -232.18789    
    402000   1503.4203      227.4409       1275.9794      277.46076     -387.83134      1.0177122      4455.7805      0              0              0              0              0             -232.33145    
    402250   1518.4737      260.92256      1257.5512      318.30586      1606.6228      1.0177122      4455.7805      0              0              0              0              0             -231.71388    
    402500   1520.2226      241.1107       1279.1119      294.13689     -2839.2434      1.0177122      4455.7805      0              0              0              0              0             -232.05239    
    402750   1510.7485      244.47626      1266.2723      298.24261     -3825.0236      1.0177122      4455.7805      0              0              0              0              0             -231.29687    
    403000   1512.8726      250.82375      1262.0489      305.98608      1051.7975      1.0177122      4455.7805      0              0              0              0              0             -233.01123    
    403250   1528.5635      260.21773      1268.3457      317.44602     -2571.2115      1.0177122      4455.7805      0              0              0              0              0             -231.37938    
    403500   1566.9685      262.24954      1304.7189      319.92468      881.34008      1.0177122      4455.7805      0              0              0              0              0             -231.55688    
    403750   1546.2369      269.29603      1276.9409      328.52086     -751.5423       1.0177122      4455.7805      0              0              0              0              0             -232.16509    
    404000   1532.7452      238.7641       1293.9811      291.27421     -211.12566      1.0177122      4455.7805      0              0              0              0              0             -230.86955    
    404250   1502.3166      252.72436      1249.5922      308.30468     -3185.2975      1.0177122      4455.7805      0              0              0              0              0             -230.49096    
    404500   1508.7828      236.23797      1272.5449      288.19252      1912.9943      1.0177122      4455.7805      0              0              0              0              0             -232.37244    
    404750   1539.6664      248.24502      1291.4213      302.84022     -4311.4495      1.0177122      4455.7805      0              0              0              0              0             -232.08866    
    405000   1534.3146      267.86191      1266.4527      326.77134      3212.5572      1.0177122      4455.7805      0              0              0              0              0             -233.70139    
    405250   1518.3337      231.31659      1287.0171      282.18881     -3791.364       1.0177122      4455.7805      0              0              0              0              0             -232.61973    
    405500   1508.5434      241.04444      1267.499       294.05606     -2612.5685      1.0177122      4455.7805      0              0              0              0              0             -232.30932    
    405750   1513.0838      245.4927       1267.5911      299.48259      999.71741      1.0177122      4455.7805      0              0              0              0              0             -231.93348    
    406000   1535.4396      258.63062      1276.809       315.50987      3120.3473      1.0177122      4455.7805      0              0              0              0              0             -232.52738    
    406250   1502.5775      225.47896      1277.0985      275.06734      1165.088       1.0177122      4455.7805      0              0              0              0              0             -232.57527    
    406500   1515.1488      227.85737      1287.2915      277.96882     -4750.7442      1.0177122      4455.7805      0              0              0              0              0             -231.79877    
    406750   1502.4044      242.67956      1259.7248      296.05078      3100.901       1.0177122      4455.7805      0              0              0              0              0             -232.26073    
    407000   1538.3863      253.4513       1284.935       309.19148      1285.4902      1.0177122      4455.7805      0              0              0              0              0             -233.02887    
    407250   1501.1671      236.08381      1265.0833      288.00446     -1146.4984      1.0177122      4455.7805      0              0              0              0              0             -229.42456    
    407500   1500.081       226.60882      1273.4722      276.44568     -5110.4021      1.0177122      4455.7805      0              0              0              0              0             -231.84616    
    407750   1514.2925      242.19368      1272.0988      295.45804      746.13176      1.0177122      4455.7805      0              0              0              0              0             -231.92923    
    408000   1514.0724      240.10723      1273.9651      292.91273     -1735.2347      1.0177122      4455.7805      0              0              0              0              0             -233.98225    
    408250   1512.9714      249.56555      1263.4059      304.45116     -866.42526      1.0177122      4455.7805      0              0              0              0              0             -231.53038    
    408500   1519.5094      237.58711      1281.9223      289.83837     -1934.7044      1.0177122      4455.7805      0              0              0              0              0             -231.88602    
    408750   1539.6548      262.33096      1277.3238      320.02401     -2143.5518      1.0177122      4455.7805      0              0              0              0              0             -230.23679    
    409000   1540.2021      235.69518      1304.5069      287.53035     -2059.5198      1.0177122      4455.7805      0              0              0              0              0             -231.46685    
    409250   1492.9965      215.16894      1277.8276      262.48989      236.38982      1.0177122      4455.7805      0              0              0              0              0             -232.48085    
    409500   1538.4049      246.6209       1291.7839      300.85892     -272.35378      1.0177122      4455.7805      0              0              0              0              0             -232.43574    
    409750   1521.8303      236.38755      1285.4427      288.37499     -1616.2802      1.0177122      4455.7805      0              0              0              0              0             -233.18725    
    410000   1521.5977      243.50334      1278.0944      297.05572     -4084.79        1.0177122      4455.7805      0              0              0              0              0             -231.06522    
    410250   1522.5113      237.99397      1284.5174      290.33471     -5672.8772      1.0177122      4455.7805      0              0              0              0              0             -231.96356    
    410500   1536.8282      244.91323      1291.9149      298.77568      833.48168      1.0177122      4455.7805      0              0              0              0              0             -232.52324    
    410750   1505.9634      238.34889      1267.6145      290.76768     -2194.5345      1.0177122      4455.7805      0              0              0              0              0             -231.25388    
    411000   1515.0423      235.35598      1279.6864      287.11656      2884.3302      1.0177122      4455.7805      0              0              0              0              0             -230.74109    
    411250   1538.4236      270.23434      1268.1893      329.66553     -2677.9172      1.0177122      4455.7805      0              0              0              0              0             -232.38164    
    411500   1533.8257      249.37606      1284.4496      304.22        -3478.6381      1.0177122      4455.7805      0              0              0              0              0             -232.62438    
    411750   1517.2906      247.45003      1269.8405      301.87039     -5315.8118      1.0177122      4455.7805      0              0              0              0              0             -231.36508    
    412000   1528.8144      247.0522       1281.7622      301.38506     -1594.7378      1.0177122      4455.7805      0              0              0              0              0             -233.25947    
    412250   1551.5156      255.73877      1295.7768      311.98203     -1995.4034      1.0177122      4455.7805      0              0              0              0              0             -233.4367     
    412500   1520.2921      260.99645      1259.2957      318.396       -3553.9946      1.0177122      4455.7805      0              0              0              0              0             -229.47052    
    412750   1551.9997      263.87985      1288.1198      321.91353     -4033.0852      1.0177122      4455.7805      0              0              0              0              0             -232.32652    
    413000   1541.0556      265.63633      1275.4193      324.0563      -4331.3763      1.0177122      4455.7805      0              0              0              0              0             -230.71741    
    413250   1537.1565      260.5955       1276.561       317.90687      922.46668      1.0177122      4455.7805      0              0              0              0              0             -230.44848    
    413500   1544.7359      256.52912      1288.2067      312.9462       2639.4388      1.0177122      4455.7805      0              0              0              0              0             -231.94453    
    413750   1555.703       264.42384      1291.2792      322.57715     -917.34787      1.0177122      4455.7805      0              0              0              0              0             -232.4514     
    414000   1532.584       248.36801      1284.216       302.99025     -2906.3167      1.0177122      4455.7805      0              0              0              0              0             -232.03288    
    414250   1543.5927      249.57561      1294.0171      304.46343      924.53934      1.0177122      4455.7805      0              0              0              0              0             -231.68435    
    414500   1537.9905      249.33913      1288.6514      304.17495     -2457.7231      1.0177122      4455.7805      0              0              0              0              0             -232.60786    
    414750   1517.1652      239.50565      1277.6596      292.17884      2674.1128      1.0177122      4455.7805      0              0              0              0              0             -232.37533    
    415000   1511.6874      247.76579      1263.9216      302.25559     -3999.2869      1.0177122      4455.7805      0              0              0              0              0             -231.85964    
    415250   1540.0937      248.70113      1291.3926      303.39663     -3649.4497      1.0177122      4455.7805      0              0              0              0              0             -231.72509    
    415500   1537.9054      275.09435      1262.811       335.59437      924.65517      1.0177122      4455.7805      0              0              0              0              0             -232.91829    
    415750   1523.0214      248.08288      1274.9386      302.64242     -1478.2036      1.0177122      4455.7805      0              0              0              0              0             -230.22944    
    416000   1499.2968      228.67223      1270.6246      278.96289     -1861.5239      1.0177122      4455.7805      0              0              0              0              0             -231.38084    
    416250   1509.6585      230.506        1279.1525      281.19995      2342.4866      1.0177122      4455.7805      0              0              0              0              0             -232.2716     
    416500   1527.1367      259.48447      1267.6522      316.5515      -1039.0632      1.0177122      4455.7805      0              0              0              0              0             -231.6581     
    416750   1528.549       258.87165      1269.6774      315.8039      -2601.434       1.0177122      4455.7805      0              0              0              0              0             -232.06883    
    417000   1530.1868      244.15416      1286.0327      297.84968     -5959.3385      1.0177122      4455.7805      0              0              0              0              0             -231.86467    
    417250   1511.9888      233.04519      1278.9436      284.29757     -1738.0844      1.0177122      4455.7805      0              0              0              0              0             -231.89943    
    417500   1567.7001      277.22651      1290.4735      338.19545      1863.8288      1.0177122      4455.7805      0              0              0              0              0             -232.17788    
    417750   1535.077       253.1911       1281.886       308.87406     -1869.2744      1.0177122      4455.7805      0              0              0              0              0             -231.89393    
    418000   1501.9851      231.74481      1270.2402      282.71121     -328.89275      1.0177122      4455.7805      0              0              0              0              0             -232.57547    
    418250   1509.6166      241.94729      1267.6694      295.15746     -245.39114      1.0177122      4455.7805      0              0              0              0              0             -233.34464    
    418500   1519.1345      239.04098      1280.0936      291.61198     -2256.1409      1.0177122      4455.7805      0              0              0              0              0             -230.90799    
    418750   1517.9034      235.73208      1282.1713      287.57538     -3914.8709      1.0177122      4455.7805      0              0              0              0              0             -229.9524     
    419000   1542.1037      245.16639      1296.9373      299.08452     -2953.7518      1.0177122      4455.7805      0              0              0              0              0             -232.15899    
    419250   1555.4639      252.75046      1302.7135      308.33651     -2352.118       1.0177122      4455.7805      0              0              0              0              0             -232.23229    
    419500   1529.9424      232.59263      1297.3498      283.74548     -3402.8355      1.0177122      4455.7805      0              0              0              0              0             -230.97178    
    419750   1502.4855      237.26001      1265.2255      289.43933     -2526.527       1.0177122      4455.7805      0              0              0              0              0             -230.97504    
    420000   1517.9134      246.08945      1271.824       300.21059     -3801.7967      1.0177122      4455.7805      0              0              0              0              0             -230.78433    
    420250   1535.9811      257.44042      1278.5407      314.05791     -662.18245      1.0177122      4455.7805      0              0              0              0              0             -230.92326    
    420500   1502.4238      236.75731      1265.6665      288.82608     -3507.2756      1.0177122      4455.7805      0              0              0              0              0             -231.25739    
    420750   1503.6957      230.84756      1272.8481      281.61663     -2855.6596      1.0177122      4455.7805      0              0              0              0              0             -232.44698    
    421000   1509.4186      242.63817      1266.7805      296.00028      1256.5706      1.0177122      4455.7805      0              0              0              0              0             -232.15365    
    421250   1549.8014      265.0667       1284.7347      323.3614       1374.0986      1.0177122      4455.7805      0              0              0              0              0             -233.92651    
    421500   1549.0873      265.90879      1283.1785      324.38869     -1458.6452      1.0177122      4455.7805      0              0              0              0              0             -232.55091    
    421750   1533.6389      262.6394       1270.9995      320.40028      918.79586      1.0177122      4455.7805      0              0              0              0              0             -233.03912    
    422000   1523.52        251.6591       1271.8609      307.00514     -4828.8246      1.0177122      4455.7805      0              0              0              0              0             -233.05767    
    422250   1516.0231      243.80644      1272.2166      297.42549     -467.44927      1.0177122      4455.7805      0              0              0              0              0             -231.8055     
    422500   1542.777       271.63396      1271.1431      331.37296     -1376.5705      1.0177122      4455.7805      0              0              0              0              0             -231.81931    
    422750   1510.3441      241.68219      1268.6619      294.83406      1870.145       1.0177122      4455.7805      0              0              0              0              0             -233.83454    
    423000   1506.7272      234.17252      1272.5547      285.67282     -4872.6744      1.0177122      4455.7805      0              0              0              0              0             -231.78182    
    423250   1545.1901      250.53025      1294.6599      305.62802     -3658.9906      1.0177122      4455.7805      0              0              0              0              0             -231.33246    
    423500   1509.5192      236.95615      1272.563       289.06865     -271.57373      1.0177122      4455.7805      0              0              0              0              0             -232.89713    
    423750   1523.3157      252.1521       1271.1636      307.60656     -2103.689       1.0177122      4455.7805      0              0              0              0              0             -232.09623    
    424000   1518.1652      243.80961      1274.3556      297.42935     -4791.6097      1.0177122      4455.7805      0              0              0              0              0             -230.89855    
    424250   1547.5624      260.37071      1287.1917      317.63265      2189.5673      1.0177122      4455.7805      0              0              0              0              0             -232.04168    
    424500   1541.7232      254.99609      1286.7272      311.07601     -4986.1962      1.0177122      4455.7805      0              0              0              0              0             -232.9681     
    424750   1546.0256      259.85796      1286.1676      317.00712     -6109.8528      1.0177122      4455.7805      0              0              0              0              0             -231.89041    
    425000   1514.1513      242.16665      1271.9846      295.42507     -3805.5437      1.0177122      4455.7805      0              0              0              0              0             -231.52285    
    425250   1512.7608      231.78113      1280.9797      282.75552     -2900.2807      1.0177122      4455.7805      0              0              0              0              0             -231.90758    
    425500   1499.6374      241.91435      1257.723       295.11728     -179.26095      1.0177122      4455.7805      0              0              0              0              0             -231.51217    
    425750   1518.485       226.40705      1292.0779      276.19954     -919.33621      1.0177122      4455.7805      0              0              0              0              0             -232.60596    
    426000   1534.4335      260.34397      1274.0895      317.60003     -1203.2138      1.0177122      4455.7805      0              0              0              0              0             -232.16447    
    426250   1519.87        242.88191      1276.9881      296.29762     -5473.7768      1.0177122      4455.7805      0              0              0              0              0             -230.33806    
    426500   1510.1466      249.11945      1261.0272      303.90695     -5599.0004      1.0177122      4455.7805      0              0              0              0              0             -230.57505    
    426750   1543.1874      265.11381      1278.0736      323.41886     -1431.3506      1.0177122      4455.7805      0              0              0              0              0             -231.90635    
    427000   1493.102       228.07682      1265.0251      278.23654     -2237.0938      1.0177122      4455.7805      0              0              0              0              0             -231.62788    
    427250   1511.7159      238.2503       1273.4656      290.64742     -3507.2772      1.0177122      4455.7805      0              0              0              0              0             -231.85123    
    427500   1526.6347      241.64346      1284.9912      294.78681     -4394.4654      1.0177122      4455.7805      0              0              0              0              0             -231.41733    
    427750   1532.9019      254.77812      1278.1237      310.8101      -2473.3404      1.0177122      4455.7805      0              0              0              0              0             -230.72157    
    428000   1550.584       266.28114      1284.3028      324.84293     -1858.3932      1.0177122      4455.7805      0              0              0              0              0             -231.07626    
    428250   1522.6924      243.29895      1279.3935      296.80638     -3918.5853      1.0177122      4455.7805      0              0              0              0              0             -230.212      
    428500   1532.9959      239.21727      1293.7786      291.82704     -4889.7442      1.0177122      4455.7805      0              0              0              0              0             -231.03618    
    428750   1547.7104      259.1755       1288.5349      316.17459     -2288.7289      1.0177122      4455.7805      0              0              0              0              0             -232.26152    
    429000   1524.6595      233.91501      1290.7444      285.35869     -3231.8772      1.0177122      4455.7805      0              0              0              0              0             -231.55021    
    429250   1515.4874      250.62523      1264.8622      305.7439      -5916.6285      1.0177122      4455.7805      0              0              0              0              0             -230.63517    
    429500   1510.0907      241.01191      1269.0788      294.01637     -3346.6807      1.0177122      4455.7805      0              0              0              0              0             -232.35995    
    429750   1520.2402      249.58642      1270.6538      304.47663     -1984.1266      1.0177122      4455.7805      0              0              0              0              0             -231.42549    
    430000   1530.5036      253.11224      1277.3914      308.77786      4501.6085      1.0177122      4455.7805      0              0              0              0              0             -231.26415    
    430250   1509.478       253.12628      1256.3518      308.79499     -1186.0921      1.0177122      4455.7805      0              0              0              0              0             -232.81794    
    430500   1527.8218      244.56665      1283.2552      298.35289      1058.6874      1.0177122      4455.7805      0              0              0              0              0             -232.15555    
    430750   1516.8791      245.43755      1271.4415      299.41531      3642.0397      1.0177122      4455.7805      0              0              0              0              0             -232.09479    
    431000   1526.1474      243.83927      1282.3081      297.46553     -3566.905       1.0177122      4455.7805      0              0              0              0              0             -232.6457     
    431250   1529.0396      256.64103      1272.3986      313.08271      1169.3584      1.0177122      4455.7805      0              0              0              0              0             -231.63082    
    431500   1547.4731      251.05325      1296.4198      306.26605      5689.62        1.0177122      4455.7805      0              0              0              0              0             -233.06942    
    431750   1519.1484      244.20032      1274.9481      297.90599      445.39917      1.0177122      4455.7805      0              0              0              0              0             -231.73639    
    432000   1535.4501      258.23126      1277.2188      315.02268     -1923.6653      1.0177122      4455.7805      0              0              0              0              0             -231.8392     
    432250   1545.6473      263.48851      1282.1588      321.43613     -1936.1595      1.0177122      4455.7805      0              0              0              0              0             -231.26091    
    432500   1533.1394      247.80619      1285.3332      302.30487      329.71792      1.0177122      4455.7805      0              0              0              0              0             -231.7889     
    432750   1519.8325      245.48008      1274.3524      299.4672      -4940.5097      1.0177122      4455.7805      0              0              0              0              0             -229.61808    
    433000   1523.3156      234.05808      1289.2575      285.53322      1143.7281      1.0177122      4455.7805      0              0              0              0              0             -232.97596    
    433250   1526.5305      261.26957      1265.261       318.72919      396.24094      1.0177122      4455.7805      0              0              0              0              0             -233.05648    
    433500   1540.0012      261.69004      1278.3112      319.24213      272.97649      1.0177122      4455.7805      0              0              0              0              0             -230.9852     
    433750   1562.475       265.60177      1296.8732      324.01414     -6620.0967      1.0177122      4455.7805      0              0              0              0              0             -231.17348    
    434000   1526.2637      250.12362      1276.1401      305.13197      3755.5626      1.0177122      4455.7805      0              0              0              0              0             -231.74551    
    434250   1526.6976      253.46767      1273.2299      309.21145      1567.3717      1.0177122      4455.7805      0              0              0              0              0             -232.2888     
    434500   1566.0151      275.34048      1290.6746      335.89464     -4986.9929      1.0177122      4455.7805      0              0              0              0              0             -229.67401    
    434750   1495.9877      228.72238      1267.2653      279.02406      2864.3715      1.0177122      4455.7805      0              0              0              0              0             -232.92056    
    435000   1542.3834      256.1227       1286.2607      312.45039     -3839.3349      1.0177122      4455.7805      0              0              0              0              0             -231.36142    
    435250   1550.2695      265.411        1284.8585      323.78143      635.62588      1.0177122      4455.7805      0              0              0              0              0             -231.7239     
    435500   1507.3174      236.14252      1271.1749      288.07608      11.348412      1.0177122      4455.7805      0              0              0              0              0             -232.20819    
    435750   1542.4778      256.14051      1286.3373      312.47212     -2699.6536      1.0177122      4455.7805      0              0              0              0              0             -232.66985    
    436000   1518.6319      240.27344      1278.3585      293.1155      -907.40465      1.0177122      4455.7805      0              0              0              0              0             -233.67433    
    436250   1541.8714      254.48043      1287.3909      310.44695     -4015.6902      1.0177122      4455.7805      0              0              0              0              0             -230.73116    
    436500   1554.409       267.11988      1287.2891      325.86613     -1989.2605      1.0177122      4455.7805      0              0              0              0              0             -231.17072    
    436750   1531.7115      271.66521      1260.0463      331.41109      4675.1559      1.0177122      4455.7805      0              0              0              0              0             -231.15841    
    437000   1544.6411      259.63048      1285.0107      316.72962      1781.2927      1.0177122      4455.7805      0              0              0              0              0             -231.85669    
    437250   1517.2854      233.24834      1284.037       284.5454      -2968.9798      1.0177122      4455.7805      0              0              0              0              0             -231.80482    
    437500   1518.0061      253.03264      1264.9734      308.68075     -2399.2894      1.0177122      4455.7805      0              0              0              0              0             -231.18662    
    437750   1527.2923      259.69858      1267.5937      316.8127      -5733.1669      1.0177122      4455.7805      0              0              0              0              0             -230.40649    
    438000   1529.8566      231.10606      1298.7505      281.93198     -2568.7182      1.0177122      4455.7805      0              0              0              0              0             -232.30848    
    438250   1558.8675      251.96536      1306.9022      307.37876     -4042.1816      1.0177122      4455.7805      0              0              0              0              0             -231.74192    
    438500   1531.5664      243.46849      1288.0979      297.01322     -162.80371      1.0177122      4455.7805      0              0              0              0              0             -230.63753    
    438750   1535.9864      238.73756      1297.2488      291.24183     -5573.2026      1.0177122      4455.7805      0              0              0              0              0             -232.72859    
    439000   1517.1221      246.53644      1270.5856      300.75587     -3258.4387      1.0177122      4455.7805      0              0              0              0              0             -232.05614    
    439250   1523.8292      243.90478      1279.9244      297.54546     -3183.2143      1.0177122      4455.7805      0              0              0              0              0             -232.17458    
    439500   1516.6619      231.63572      1285.0261      282.57813     -3172.458       1.0177122      4455.7805      0              0              0              0              0             -232.03307    
    439750   1557.1826      252.96501      1304.2176      308.59825      713.27645      1.0177122      4455.7805      0              0              0              0              0             -233.29418    
    440000   1544.6357      262.25884      1282.3769      319.93602     -3434.0864      1.0177122      4455.7805      0              0              0              0              0             -232.45936    
    440250   1528.6607      247.53979      1281.1209      301.97989     -4529.2234      1.0177122      4455.7805      0              0              0              0              0             -232.01505    
    440500   1505.3724      234.16524      1271.2071      285.66395      164.87387      1.0177122      4455.7805      0              0              0              0              0             -230.97829    
    440750   1525.1151      260.91738      1264.1978      318.29954     -128.79127      1.0177122      4455.7805      0              0              0              0              0             -231.50796    
    441000   1547.0461      258.99839      1288.0477      315.95851      1609.7992      1.0177122      4455.7805      0              0              0              0              0             -233.09036    
    441250   1525.2347      256.63692      1268.5978      313.0777       445.17287      1.0177122      4455.7805      0              0              0              0              0             -232.78592    
    441500   1558.5953      253.93431      1304.661       309.78072      1980.4427      1.0177122      4455.7805      0              0              0              0              0             -232.05       
    441750   1511.1539      232.67319      1278.4807      283.84375      3657.2492      1.0177122      4455.7805      0              0              0              0              0             -230.26042    
    442000   1514.3851      256.77607      1257.609       313.24746     -3660.2353      1.0177122      4455.7805      0              0              0              0              0             -230.85652    
    442250   1532.6438      246.4369       1286.2069      300.63445     -3159.0822      1.0177122      4455.7805      0              0              0              0              0             -233.16576    
    442500   1564.718       266.30151      1298.4165      324.86778     -157.73365      1.0177122      4455.7805      0              0              0              0              0             -231.96498    
    442750   1533.8382      262.34349      1271.4947      320.03929     -4318.132       1.0177122      4455.7805      0              0              0              0              0             -230.95536    
    443000   1547.3084      260.33331      1286.9751      317.58703     -918.42396      1.0177122      4455.7805      0              0              0              0              0             -231.57588    
    443250   1556.1611      260.10762      1296.0535      317.31169     -4294.4515      1.0177122      4455.7805      0              0              0              0              0             -231.64131    
    443500   1538.7397      252.34898      1286.3907      307.84674     -2661.0228      1.0177122      4455.7805      0              0              0              0              0             -232.5916     
    443750   1517.8091      237.26521      1280.5439      289.44568     -5317.506       1.0177122      4455.7805      0              0              0              0              0             -231.34974    
    444000   1556.1152      273.11068      1283.0046      333.17445      2886.3494      1.0177122      4455.7805      0              0              0              0              0             -231.26828    
    444250   1551.9671      266.72678      1285.2403      325.38658     -1846.8978      1.0177122      4455.7805      0              0              0              0              0             -231.3488     
    444500   1506.9878      233.29175      1273.6961      284.59835     -2246.8372      1.0177122      4455.7805      0              0              0              0              0             -232.28518    
    444750   1544.0825      253.39794      1290.6846      309.12639     -2284.0635      1.0177122      4455.7805      0              0              0              0              0             -232.22617    
    445000   1503.5643      238.54142      1265.0229      291.00256     -2693.0378      1.0177122      4455.7805      0              0              0              0              0             -233.0342     
    445250   1503.7001      220.77936      1282.9207      269.33418      1930.4598      1.0177122      4455.7805      0              0              0              0              0             -231.55619    
    445500   1499.7653      229.86201      1269.9033      280.41433     -4094.6173      1.0177122      4455.7805      0              0              0              0              0             -231.36825    
    445750   1532.6622      256.12504      1276.5372      312.45325     -616.97105      1.0177122      4455.7805      0              0              0              0              0             -232.00979    
    446000   1533.7599      248.99129      1284.7686      303.75061     -300.12448      1.0177122      4455.7805      0              0              0              0              0             -233.13158    
    446250   1506.6084      239.46203      1267.1464      292.12564     -5972.8706      1.0177122      4455.7805      0              0              0              0              0             -230.09502    
    446500   1511.1911      243.92264      1267.2685      297.56724     -4128.9732      1.0177122      4455.7805      0              0              0              0              0             -230.724      
    446750   1544.8554      264.59111      1280.2643      322.78121     -83.569863      1.0177122      4455.7805      0              0              0              0              0             -231.50774    
    447000   1516.0644      249.53211      1266.5322      304.41037     -297.08491      1.0177122      4455.7805      0              0              0              0              0             -232.64264    
    447250   1502.5737      237.62738      1264.9463      289.88749      2034.4691      1.0177122      4455.7805      0              0              0              0              0             -231.91472    
    447500   1525.8201      240.08818      1285.7319      292.88949      3359.8557      1.0177122      4455.7805      0              0              0              0              0             -231.7414     
    447750   1512.328       242.38494      1269.9431      295.69136     -1671.1266      1.0177122      4455.7805      0              0              0              0              0             -231.47451    
    448000   1536.9448      263.77459      1273.1702      321.78512     -1091.2306      1.0177122      4455.7805      0              0              0              0              0             -230.35243    
    448250   1539.8634      241.06471      1298.7987      294.08078     -1358.4975      1.0177122      4455.7805      0              0              0              0              0             -232.89573    
    448500   1518.8682      247.76482      1271.1034      302.25441     -1994.9672      1.0177122      4455.7805      0              0              0              0              0             -233.04188    
    448750   1548.8534      255.24763      1293.6057      311.38287     -564.89074      1.0177122      4455.7805      0              0              0              0              0             -231.31788    
    449000   1546.8269      256.67892      1290.148       313.12894     -2250.0632      1.0177122      4455.7805      0              0              0              0              0             -231.70473    
    449250   1531.9534      244.46258      1287.4909      298.22593      1949.4634      1.0177122      4455.7805      0              0              0              0              0             -231.49713    
    449500   1516.9034      243.4443       1273.459       296.9837      -1752.9721      1.0177122      4455.7805      0              0              0              0              0             -234.47557    
    449750   1539.7914      257.81851      1281.9729      314.51915      4252.2483      1.0177122      4455.7805      0              0              0              0              0             -232.31605    
    450000   1519.857       249.4241       1270.4329      304.2786      -5576.0902      1.0177122      4455.7805      0              0              0              0              0             -231.16228    
    450250   1546.1048      263.69361      1282.4112      321.68634     -7207.8565      1.0177122      4455.7805      0              0              0              0              0             -231.3658     
    450500   1558.0857      274.14607      1283.9396      334.43755     -1338.4343      1.0177122      4455.7805      0              0              0              0              0             -231.99873    
    450750   1552.2667      258.89105      1293.3757      315.82757      1284.7421      1.0177122      4455.7805      0              0              0              0              0             -232.49138    
    451000   1527.0287      263.19019      1263.8385      321.0722      -918.26661      1.0177122      4455.7805      0              0              0              0              0             -232.09432    
    451250   1547.7008      262.79134      1284.9094      320.58563      315.96182      1.0177122      4455.7805      0              0              0              0              0             -231.10704    
    451500   1528.3829      254.93048      1273.4524      310.99598     -749.36751      1.0177122      4455.7805      0              0              0              0              0             -232.10005    
    451750   1539.0716      248.32096      1290.7507      302.93286      1436.4741      1.0177122      4455.7805      0              0              0              0              0             -232.36568    
    452000   1528.9361      254.95109      1273.985       311.02112     -1561.5872      1.0177122      4455.7805      0              0              0              0              0             -230.52552    
    452250   1540.4706      246.85751      1293.6131      301.14756     -4271.8092      1.0177122      4455.7805      0              0              0              0              0             -233.61096    
    452500   1539.7766      256.66802      1283.1086      313.11564     -1501.109       1.0177122      4455.7805      0              0              0              0              0             -233.45368    
    452750   1546.0517      253.81905      1292.2327      309.64011     -418.09086      1.0177122      4455.7805      0              0              0              0              0             -230.49965    
    453000   1512.9345      235.96038      1276.9742      287.85388     -267.10207      1.0177122      4455.7805      0              0              0              0              0             -230.27926    
    453250   1518.3229      246.8607       1271.4622      301.15145     -546.27514      1.0177122      4455.7805      0              0              0              0              0             -232.89061    
    453500   1518.3418      255.80899      1262.5328      312.06769      136.47389      1.0177122      4455.7805      0              0              0              0              0             -232.76121    
    453750   1535.2829      249.79871      1285.4842      304.7356      -1381.0787      1.0177122      4455.7805      0              0              0              0              0             -231.04536    
    454000   1527.9821      253.36434      1274.6177      309.0854      -3777.7213      1.0177122      4455.7805      0              0              0              0              0             -229.8102     
    454250   1549.088       265.77254      1283.3154      324.22247     -1564.1845      1.0177122      4455.7805      0              0              0              0              0             -232.29011    
    454500   1507.878       229.30418      1278.5738      279.73382     -2346.1451      1.0177122      4455.7805      0              0              0              0              0             -231.391      
    454750   1533.265       252.48202      1280.783       308.00904     -109.64842      1.0177122      4455.7805      0              0              0              0              0             -233.1616     
    455000   1531.9776      262.1923       1269.7853      319.85484      4280.2214      1.0177122      4455.7805      0              0              0              0              0             -232.91393    
    455250   1555.7687      273.35621      1282.4125      333.47397     -1421.063       1.0177122      4455.7805      0              0              0              0              0             -232.3878     
    455500   1559.0694      282.13173      1276.9376      344.17945     -2487.9666      1.0177122      4455.7805      0              0              0              0              0             -232.89568    
    455750   1532.9281      254.28784      1278.6403      310.21201      229.84005      1.0177122      4455.7805      0              0              0              0              0             -231.0389     
    456000   1550.7599      247.00695      1303.753       301.32987     -2402.3595      1.0177122      4455.7805      0              0              0              0              0             -233.51018    
    456250   1529.6813      247.97805      1281.7033      302.51454     -2916.895       1.0177122      4455.7805      0              0              0              0              0             -231.47385    
    456500   1535.3619      250.95823      1284.4036      306.15013     -1977.9474      1.0177122      4455.7805      0              0              0              0              0             -232.50518    
    456750   1532.6669      251.94842      1280.7185      307.35809     -3137.7972      1.0177122      4455.7805      0              0              0              0              0             -231.41383    
    457000   1536.6816      255.92191      1280.7597      312.20544     -4578.6018      1.0177122      4455.7805      0              0              0              0              0             -231.69997    
    457250   1496.8065      223.24935      1273.5572      272.34738     -2909.9721      1.0177122      4455.7805      0              0              0              0              0             -230.75223    
    457500   1513.958       239.21312      1274.7449      291.82198      112.54879      1.0177122      4455.7805      0              0              0              0              0             -232.55687    
    457750   1522.1598      251.15026      1271.0096      306.38439      1651.3561      1.0177122      4455.7805      0              0              0              0              0             -231.49341    
    458000   1510.4711      244.18741      1266.2837      297.89024     -2790.6525      1.0177122      4455.7805      0              0              0              0              0             -231.99144    
    458250   1498.9132      231.41202      1267.5012      282.30523     -331.22604      1.0177122      4455.7805      0              0              0              0              0             -232.00113    
    458500   1524.0702      248.22366      1275.8465      302.81416     -1504.4669      1.0177122      4455.7805      0              0              0              0              0             -230.4024     
    458750   1537.8816      272.18063      1265.701       332.03986     -5500.1115      1.0177122      4455.7805      0              0              0              0              0             -231.0576     
    459000   1508.4065      230.47327      1277.9332      281.16003     -1315.9158      1.0177122      4455.7805      0              0              0              0              0             -230.80006    
    459250   1530.1932      264.4031       1265.7901      322.55185      2516.7936      1.0177122      4455.7805      0              0              0              0              0             -231.26808    
    459500   1530.1685      245.79836      1284.3702      299.85548     -7187.173       1.0177122      4455.7805      0              0              0              0              0             -232.09979    
    459750   1541.4556      262.66778      1278.7879      320.4349      -2270.9539      1.0177122      4455.7805      0              0              0              0              0             -231.97469    
    460000   1527.2338      243.9711       1283.2627      297.62636      796.40957      1.0177122      4455.7805      0              0              0              0              0             -232.25162    
    460250   1552.2545      271.38502      1280.8694      331.06927     -3605.8092      1.0177122      4455.7805      0              0              0              0              0             -230.98953    
    460500   1552.4932      245.70785      1306.7853      299.74506     -637.41317      1.0177122      4455.7805      0              0              0              0              0             -232.41712    
    460750   1566.9084      260.56929      1306.3391      317.8749      -1193.6035      1.0177122      4455.7805      0              0              0              0              0             -231.74845    
    461000   1520.0402      246.67068      1273.3695      300.91964     -1386.9168      1.0177122      4455.7805      0              0              0              0              0             -230.98506    
    461250   1541.6532      254.0721       1287.5811      309.94881      413.49939      1.0177122      4455.7805      0              0              0              0              0             -233.0864     
    461500   1533.5911      252.53473      1281.0563      308.07334      185.19976      1.0177122      4455.7805      0              0              0              0              0             -231.22942    
    461750   1517.1903      241.61184      1275.5784      294.74823      2809.6693      1.0177122      4455.7805      0              0              0              0              0             -232.31452    
    462000   1532.182       233.50318      1298.6788      284.85628     -6383.4916      1.0177122      4455.7805      0              0              0              0              0             -230.95205    
    462250   1539.7617      261.80412      1277.9576      319.3813       416.78386      1.0177122      4455.7805      0              0              0              0              0             -231.25725    
    462500   1521.9665      251.56228      1270.4042      306.88703     -3450.8731      1.0177122      4455.7805      0              0              0              0              0             -233.47256    
    462750   1514.2697      254.16189      1260.1078      310.05835      1438.5585      1.0177122      4455.7805      0              0              0              0              0             -233.17381    
    463000   1532.4902      249.41793      1283.0723      304.27108      844.30665      1.0177122      4455.7805      0              0              0              0              0             -231.30179    
    463250   1563.844       273.31394      1290.53        333.42241     -2633.2788      1.0177122      4455.7805      0              0              0              0              0             -233.46207    
    463500   1512.3633      228.16274      1284.2005      278.34135     -1374.859       1.0177122      4455.7805      0              0              0              0              0             -231.5789     
    463750   1550.2899      257.87971      1292.4102      314.59381     -1746.1855      1.0177122      4455.7805      0              0              0              0              0             -231.44537    
    464000   1533.8016      246.76737      1287.0342      301.0376      -358.65598      1.0177122      4455.7805      0              0              0              0              0             -232.36779    
    464250   1522.2563      250.59814      1271.6581      305.71085      793.41816      1.0177122      4455.7805      0              0              0              0              0             -231.30907    
    464500   1512.6492      228.99757      1283.6516      279.35978     -5240.7706      1.0177122      4455.7805      0              0              0              0              0             -230.75379    
    464750   1550.965       261.1159       1289.8491      318.54172      488.15533      1.0177122      4455.7805      0              0              0              0              0             -230.64212    
    465000   1512.9413      234.50827      1278.4331      286.08241     -4689.0147      1.0177122      4455.7805      0              0              0              0              0             -229.93707    
    465250   1537.779       249.45534      1288.3236      304.31672      3497.4028      1.0177122      4455.7805      0              0              0              0              0             -231.61831    
    465500   1547.0497      270.10538      1276.9444      329.50821      1434.1099      1.0177122      4455.7805      0              0              0              0              0             -231.5845     
    465750   1538.7068      248.36131      1290.3454      302.98209      2537.0534      1.0177122      4455.7805      0              0              0              0              0             -232.44401    
    466000   1540.479       260.96954      1279.5095      318.36317      1929.1506      1.0177122      4455.7805      0              0              0              0              0             -232.43484    
    466250   1544.8429      253.50246      1291.3405      309.25389     -1821.7156      1.0177122      4455.7805      0              0              0              0              0             -231.19763    
    466500   1560.5832      259.26398      1301.3192      316.28252     -2975.524       1.0177122      4455.7805      0              0              0              0              0             -233.3959     
    466750   1533.2215      254.76301      1278.4585      310.79167     -3091.4627      1.0177122      4455.7805      0              0              0              0              0             -230.98209    
    467000   1533.962       250.97737      1282.9847      306.17348     -2541.1319      1.0177122      4455.7805      0              0              0              0              0             -231.64215    
    467250   1540.7389      246.9823       1293.7566      301.29979      275.28097      1.0177122      4455.7805      0              0              0              0              0             -232.83983    
    467500   1540.5397      247.6108       1292.9289      302.06651      1931.4961      1.0177122      4455.7805      0              0              0              0              0             -232.32459    
    467750   1524.8788      237.22434      1287.6544      289.39582      4041.0219      1.0177122      4455.7805      0              0              0              0              0             -232.62697    
    468000   1535.08        257.75427      1277.3257      314.44079     -1526.1881      1.0177122      4455.7805      0              0              0              0              0             -232.16445    
    468250   1531.4988      252.43101      1279.0678      307.94681      1572.1904      1.0177122      4455.7805      0              0              0              0              0             -231.97197    
    468500   1494.0238      242.61066      1251.4131      295.96672     -3547.8637      1.0177122      4455.7805      0              0              0              0              0             -231.97264    
    468750   1511.3463      235.82111      1275.5252      287.68398     -346.85325      1.0177122      4455.7805      0              0              0              0              0             -231.45514    
    469000   1536.3444      260.48989      1275.8546      317.77804      1839.6745      1.0177122      4455.7805      0              0              0              0              0             -232.14598    
    469250   1510.4577      235.88542      1274.5722      287.76244     -5181.8224      1.0177122      4455.7805      0              0              0              0              0             -232.29875    
    469500   1544.5035      256.65813      1287.8454      313.10358      2191.7322      1.0177122      4455.7805      0              0              0              0              0             -232.09702    
    469750   1539.7873      260.52714      1279.2602      317.82347      282.68364      1.0177122      4455.7805      0              0              0              0              0             -232.65985    
    470000   1563.5047      266.15941      1297.3453      324.69442     -882.43147      1.0177122      4455.7805      0              0              0              0              0             -232.85029    
    470250   1530.4889      249.36648      1281.1224      304.20831      1251.7738      1.0177122      4455.7805      0              0              0              0              0             -232.52538    
    470500   1550.9695      261.94217      1289.0273      319.54971     -4529.6543      1.0177122      4455.7805      0              0              0              0              0             -232.7497     
    470750   1541.0894      249.49065      1291.5987      304.35979      305.56125      1.0177122      4455.7805      0              0              0              0              0             -233.32738    
    471000   1520.8169      237.09784      1283.7191      289.2415      -2954.9654      1.0177122      4455.7805      0              0              0              0              0             -231.05865    
    471250   1523.8121      227.23428      1296.5778      277.20869     -3137.1723      1.0177122      4455.7805      0              0              0              0              0             -231.08305    
    471500   1514.3622      244.74286      1269.6193      298.56785     -2393.9813      1.0177122      4455.7805      0              0              0              0              0             -233.01064    
    471750   1505.1404      249.53225      1255.6081      304.41054     -2282.1845      1.0177122      4455.7805      0              0              0              0              0             -232.0501     
    472000   1553.7972      267.65077      1286.1464      326.51377     -4992.6688      1.0177122      4455.7805      0              0              0              0              0             -231.64002    
    472250   1524.6135      242.31697      1282.2966      295.60844     -3796.9658      1.0177122      4455.7805      0              0              0              0              0             -231.97079    
    472500   1503.7892      243.53344      1260.2558      297.09245     -383.52369      1.0177122      4455.7805      0              0              0              0              0             -231.72264    
    472750   1520.9466      247.59103      1273.3556      302.0424       2640.4072      1.0177122      4455.7805      0              0              0              0              0             -233.63948    
    473000   1510.6907      239.72022      1270.9705      292.4406       760.29729      1.0177122      4455.7805      0              0              0              0              0             -230.96114    
    473250   1498.1049      241.35275      1256.7522      294.43217     -341.8032       1.0177122      4455.7805      0              0              0              0              0             -229.99811    
    473500   1535.9559      255.30072      1280.6551      311.44764     -895.29056      1.0177122      4455.7805      0              0              0              0              0             -230.96726    
    473750   1562.368       271.78721      1290.5808      331.55992     -3398.3578      1.0177122      4455.7805      0              0              0              0              0             -231.66858    
    474000   1520.9826      239.6429       1281.3397      292.34628     -425.71708      1.0177122      4455.7805      0              0              0              0              0             -231.31797    
    474250   1523.6914      260.98605      1262.7053      318.38332     -2240.1954      1.0177122      4455.7805      0              0              0              0              0             -231.5055     
    474500   1522.6064      248.6737       1273.9327      303.36318     -3185.598       1.0177122      4455.7805      0              0              0              0              0             -232.68714    
    474750   1537.1391      255.99079      1281.1483      312.28947     -1320.4671      1.0177122      4455.7805      0              0              0              0              0             -231.80378    
    475000   1535.4315      245.96778      1289.4637      300.06215     -2358.366       1.0177122      4455.7805      0              0              0              0              0             -232.23852    
    475250   1529.8601      227.50113      1302.359       277.53423     -3332.8019      1.0177122      4455.7805      0              0              0              0              0             -231.75972    
    475500   1499.5723      234.29656      1265.2758      285.82415     -5378.5783      1.0177122      4455.7805      0              0              0              0              0             -230.81894    
    475750   1554.6836      254.90081      1299.7827      310.95978     -2144.1906      1.0177122      4455.7805      0              0              0              0              0             -230.72233    
    476000   1529.1803      249.60183      1279.5784      304.49542     -2717.809       1.0177122      4455.7805      0              0              0              0              0             -232.91116    
    476250   1536.867       259.95368      1276.9133      317.1239       409.94394      1.0177122      4455.7805      0              0              0              0              0             -231.78054    
    476500   1515.6563      240.31493      1275.3414      293.1661      -926.68694      1.0177122      4455.7805      0              0              0              0              0             -231.50376    
    476750   1526.1976      234.25368      1291.9439      285.77184     -1505.0288      1.0177122      4455.7805      0              0              0              0              0             -232.94688    
    477000   1540.7532      254.94163      1285.8116      311.00957     -3007.9253      1.0177122      4455.7805      0              0              0              0              0             -230.24637    
    477250   1532.2136      257.42938      1274.7842      314.04444     -393.67016      1.0177122      4455.7805      0              0              0              0              0             -232.6421     
    477500   1533.6831      242.38606      1291.297       295.69273     -2268.7579      1.0177122      4455.7805      0              0              0              0              0             -232.56189    
    477750   1523.123       232.87785      1290.2451      284.09343     -1332.7427      1.0177122      4455.7805      0              0              0              0              0             -232.31426    
    478000   1520.9686      253.76428      1267.2043      309.5733      -2352.6783      1.0177122      4455.7805      0              0              0              0              0             -231.07846    
    478250   1520.1606      236.7548       1283.4058      288.82302      766.38757      1.0177122      4455.7805      0              0              0              0              0             -231.4015     
    478500   1524.7447      244.70263      1280.0421      298.51876     -6089.5465      1.0177122      4455.7805      0              0              0              0              0             -231.00247    
    478750   1535.2307      252.12901      1283.1017      307.57839     -1355.7852      1.0177122      4455.7805      0              0              0              0              0             -232.86454    
    479000   1537.6167      259.19186      1278.4248      316.19454      411.76818      1.0177122      4455.7805      0              0              0              0              0             -231.35196    
    479250   1534.7365      247.7571       1286.9794      302.245       -2345.1082      1.0177122      4455.7805      0              0              0              0              0             -230.9702     
    479500   1543.7708      253.49111      1290.2797      309.24005     -2413.8076      1.0177122      4455.7805      0              0              0              0              0             -230.27026    
    479750   1530.5299      236.79684      1293.7331      288.87431     -1826.4296      1.0177122      4455.7805      0              0              0              0              0             -232.14498    
    480000   1546.0096      248.26635      1297.7433      302.86624     -6841.1586      1.0177122      4455.7805      0              0              0              0              0             -232.1932     
    480250   1520.486       247.52403      1272.962       301.96066     -472.30438      1.0177122      4455.7805      0              0              0              0              0             -232.1153     
    480500   1512.0426      245.57811      1266.4645      299.58679     -2726.7323      1.0177122      4455.7805      0              0              0              0              0             -231.4714     
    480750   1549.4175      260.95979      1288.4577      318.35128     -1440.1632      1.0177122      4455.7805      0              0              0              0              0             -233.04511    
    481000   1499.1731      227.82481      1271.3483      277.9291      -1522.2026      1.0177122      4455.7805      0              0              0              0              0             -231.31552    
    481250   1551.9162      271.23679      1280.6794      330.88844     -2332.3212      1.0177122      4455.7805      0              0              0              0              0             -232.94803    
    481500   1549.8344      274.14158      1275.6928      334.43207     -95.096274      1.0177122      4455.7805      0              0              0              0              0             -232.99036    
    481750   1508.6088      233.80373      1274.805       285.22294      171.86541      1.0177122      4455.7805      0              0              0              0              0             -232.9138     
    482000   1558.4369      274.97891      1283.458       335.45355      3583.0098      1.0177122      4455.7805      0              0              0              0              0             -232.89433    
    482250   1524.7785      243.6696       1281.1089      297.25855     -1358.7487      1.0177122      4455.7805      0              0              0              0              0             -230.86802    
    482500   1523.0055      223.94525      1299.0602      273.19633     -135.94211      1.0177122      4455.7805      0              0              0              0              0             -230.98427    
    482750   1525.2733      258.05515      1267.2181      314.80784     -2047.1818      1.0177122      4455.7805      0              0              0              0              0             -231.72435    
    483000   1490.5816      229.69828      1260.8833      280.21459     -6702.9628      1.0177122      4455.7805      0              0              0              0              0             -231.39751    
    483250   1520.9284      254.21625      1266.7122      310.12466      533.74392      1.0177122      4455.7805      0              0              0              0              0             -231.88219    
    483500   1514.0785      236.49124      1277.5873      288.50149      835.99679      1.0177122      4455.7805      0              0              0              0              0             -231.6411     
    483750   1503.1742      234.14646      1269.0277      285.64104     -4027.3587      1.0177122      4455.7805      0              0              0              0              0             -233.07817    
    484000   1509.0453      239.05404      1269.9912      291.62792      1213.2745      1.0177122      4455.7805      0              0              0              0              0             -232.29624    
    484250   1518.7735      241.20433      1277.5691      294.25111     -1007.4654      1.0177122      4455.7805      0              0              0              0              0             -232.30751    
    484500   1529.6563      263.5398       1266.1165      321.4987      -3619.6797      1.0177122      4455.7805      0              0              0              0              0             -231.09659    
    484750   1530.5766      263.28313      1267.2935      321.18558     -645.89008      1.0177122      4455.7805      0              0              0              0              0             -231.55062    
    485000   1553.3123      252.50165      1300.8106      308.03299     -1593.6997      1.0177122      4455.7805      0              0              0              0              0             -231.92767    
    485250   1499.969       234.88811      1265.0809      286.54579      560.03676      1.0177122      4455.7805      0              0              0              0              0             -232.78765    
    485500   1555.9679      249.67939      1306.2886      304.59004     -8837.9239      1.0177122      4455.7805      0              0              0              0              0             -231.8014     
    485750   1535.7828      238.16206      1297.6208      290.53976     -890.18174      1.0177122      4455.7805      0              0              0              0              0             -234.29235    
    486000   1545.8319      275.82555      1270.0063      336.48638     -1653.0832      1.0177122      4455.7805      0              0              0              0              0             -230.76162    
    486250   1526.2996      249.56911      1276.7305      304.45551     -2717.3031      1.0177122      4455.7805      0              0              0              0              0             -231.7111     
    486500   1508.9191      251.6524       1257.2667      306.99696      453.20195      1.0177122      4455.7805      0              0              0              0              0             -231.5923     
    486750   1503.1835      235.58973      1267.5938      287.40172      1199.8321      1.0177122      4455.7805      0              0              0              0              0             -231.69754    
    487000   1566.3354      267.59859      1298.7369      326.45011     -2080.9097      1.0177122      4455.7805      0              0              0              0              0             -231.67665    
    487250   1519.9338      239.42446      1280.5093      292.0798      -2537.1674      1.0177122      4455.7805      0              0              0              0              0             -233.26898    
    487500   1548.0825      251.4032       1296.6793      306.69296     -1413.4175      1.0177122      4455.7805      0              0              0              0              0             -229.62141    
    487750   1559.3782      282.32119      1277.057       344.41058      1272.3285      1.0177122      4455.7805      0              0              0              0              0             -232.39793    
    488000   1541.1527      243.21502      1297.9377      296.70399     -1673.3569      1.0177122      4455.7805      0              0              0              0              0             -232.1626     
    488250   1571.6756      281.48379      1290.1918      343.38901      977.26045      1.0177122      4455.7805      0              0              0              0              0             -231.62287    
    488500   1531.4374      250.50288      1280.9345      305.59463      2021.9044      1.0177122      4455.7805      0              0              0              0              0             -232.42241    
    488750   1542.6121      251.35546      1291.2567      306.63472     -4686.8967      1.0177122      4455.7805      0              0              0              0              0             -230.1075     
    489000   1545.3316      271.55491      1273.7767      331.27652     -753.15087      1.0177122      4455.7805      0              0              0              0              0             -231.72734    
    489250   1522.9967      256.47579      1266.5209      312.88114     -290.44673      1.0177122      4455.7805      0              0              0              0              0             -231.46188    
    489500   1517.8198      244.75955      1273.0602      298.58821     -3440.5621      1.0177122      4455.7805      0              0              0              0              0             -231.12089    
    489750   1540.3949      249.84931      1290.5456      304.79733     -1794.2195      1.0177122      4455.7805      0              0              0              0              0             -230.11632    
    490000   1549.5536      261.19914      1288.3544      318.64327     -2887.7974      1.0177122      4455.7805      0              0              0              0              0             -232.76047    
    490250   1501.752       245.60176      1256.1502      299.61563     -3188.8471      1.0177122      4455.7805      0              0              0              0              0             -231.04599    
    490500   1498.3103      245.83279      1252.4775      299.89748     -3395.6972      1.0177122      4455.7805      0              0              0              0              0             -230.82654    
    490750   1510.707       231.55647      1279.1505      282.48144     -74.688925      1.0177122      4455.7805      0              0              0              0              0             -231.57166    
    491000   1564.2699      276.87826      1287.3917      337.77062     -1987.9782      1.0177122      4455.7805      0              0              0              0              0             -232.63794    
    491250   1523.5896      231.7331       1291.8565      282.69692      1944.5662      1.0177122      4455.7805      0              0              0              0              0             -233.87929    
    491500   1536.9604      249.56091      1287.3994      304.44551     -3890.2896      1.0177122      4455.7805      0              0              0              0              0             -232.1489     
    491750   1517.4633      244.3204       1273.1429      298.05248     -975.90867      1.0177122      4455.7805      0              0              0              0              0             -231.02772    
    492000   1517.5929      227.52806      1290.0648      277.56709     -4010.8217      1.0177122      4455.7805      0              0              0              0              0             -231.52326    
    492250   1506.8322      222.33717      1284.495       271.2346      -2121.9258      1.0177122      4455.7805      0              0              0              0              0             -230.97971    
    492500   1547.0236      257.72671      1289.2969      314.40717      1773.4345      1.0177122      4455.7805      0              0              0              0              0             -231.48169    
    492750   1547.1048      261.2509       1285.8539      318.70641     -4178.6785      1.0177122      4455.7805      0              0              0              0              0             -229.77569    
    493000   1522.4089      258.48099      1263.9279      315.32733     -2608.1475      1.0177122      4455.7805      0              0              0              0              0             -232.42854    
    493250   1522.5357      263.74429      1258.7915      321.74816     -4656.9794      1.0177122      4455.7805      0              0              0              0              0             -231.13391    
    493500   1540.3809      245.94487      1294.4361      300.03421     -1984.4936      1.0177122      4455.7805      0              0              0              0              0             -231.59157    
    493750   1519.1875      230.88992      1288.2975      281.6683      -7184.8484      1.0177122      4455.7805      0              0              0              0              0             -231.89044    
    494000   1534.9032      242.29843      1292.6047      295.58582      3071.3812      1.0177122      4455.7805      0              0              0              0              0             -230.89084    
    494250   1546.8278      261.85398      1284.9739      319.44212     -5725.576       1.0177122      4455.7805      0              0              0              0              0             -231.24734    
    494500   1525.871       260.60147      1265.2696      317.91416      1928.458       1.0177122      4455.7805      0              0              0              0              0             -232.51887    
    494750   1517.7532      247.19087      1270.5624      301.55423     -3728.9413      1.0177122      4455.7805      0              0              0              0              0             -232.22909    
    495000   1527.2142      242.47117      1284.743       295.79656     -1814.2392      1.0177122      4455.7805      0              0              0              0              0             -232.11289    
    495250   1532.3904      241.91502      1290.4754      295.11809      2683.3696      1.0177122      4455.7805      0              0              0              0              0             -232.59721    
    495500   1527.0528      243.96723      1283.0856      297.62163     -1055.4638      1.0177122      4455.7805      0              0              0              0              0             -231.8145     
    495750   1542.2701      244.51344      1297.7567      298.28797      4483.0259      1.0177122      4455.7805      0              0              0              0              0             -232.33803    
    496000   1534.5832      261.26862      1273.3145      318.72802     -1967.3734      1.0177122      4455.7805      0              0              0              0              0             -231.53898    
    496250   1527.737       239.51691      1288.2201      292.19258     -5420.426       1.0177122      4455.7805      0              0              0              0              0             -231.99868    
    496500   1524.4502      240.55178      1283.8984      293.45504      2047.85        1.0177122      4455.7805      0              0              0              0              0             -231.9452     
    496750   1529.8469      250.79765      1279.0493      305.95423     -4039.5265      1.0177122      4455.7805      0              0              0              0              0             -232.02919    
    497000   1532.4927      254.79169      1277.701       310.82666     -322.63189      1.0177122      4455.7805      0              0              0              0              0             -231.94096    
    497250   1540.8408      245.22657      1295.6143      299.15794     -523.87033      1.0177122      4455.7805      0              0              0              0              0             -231.93676    
    497500   1539.5315      252.72137      1286.8101      308.30103     -5091.236       1.0177122      4455.7805      0              0              0              0              0             -232.80659    
    497750   1513.5442      239.68285      1273.8614      292.39502      467.19581      1.0177122      4455.7805      0              0              0              0              0             -233.73165    
    498000   1527.0548      257.09787      1269.9569      313.64002      1254.7602      1.0177122      4455.7805      0              0              0              0              0             -231.908      
    498250   1545.433       269.34012      1276.0929      328.57465     -2257.3417      1.0177122      4455.7805      0              0              0              0              0             -230.99498    
    498500   1534.3837      245.91791      1288.4658      300.00131     -589.20612      1.0177122      4455.7805      0              0              0              0              0             -233.10419    
    498750   1527.8979      256.00699      1271.8909      312.30924      225.28471      1.0177122      4455.7805      0              0              0              0              0             -232.66381    
    499000   1554.1378      271.39554      1282.7423      331.0821      -1623.639       1.0177122      4455.7805      0              0              0              0              0             -231.42285    
    499250   1518.9157      233.83822      1285.0775      285.26501      179.03249      1.0177122      4455.7805      0              0              0              0              0             -232.61501    
    499500   1508.8946      235.04184      1273.8528      286.73334      1308.4333      1.0177122      4455.7805      0              0              0              0              0             -232.00694    
    499750   1530.9815      238.23915      1292.7424      290.63381     -5568.3114      1.0177122      4455.7805      0              0              0              0              0             -232.29038    
    500000   1521.8812      246.81462      1275.0666      301.09524     -2306.2248      1.0177122      4455.7805      0              0              0              0              0             -229.45853    
    500250   1521.1372      257.15786      1263.9793      313.71321     -270.40745      1.0177122      4455.7805      0              0              0              0              0             -231.85805    
    500500   1495.4968      233.34595      1262.1509      284.66447     -4163.1974      1.0177122      4455.7805      0              0              0              0              0             -230.9428     
    500750   1513.3302      238.5137       1274.8165      290.96874     -3360.2198      1.0177122      4455.7805      0              0              0              0              0             -233.45955    
    501000   1532.2712      250.67559      1281.5956      305.80533      72.569545      1.0177122      4455.7805      0              0              0              0              0             -232.50985    
    501250   1522.8253      243.97775      1278.8476      297.63447      1265.0853      1.0177122      4455.7805      0              0              0              0              0             -232.17944    
    501500   1511.805       226.33172      1285.4732      276.10764      2458.046       1.0177122      4455.7805      0              0              0              0              0             -233.1574     
    501750   1548.7051      246.13592      1302.5692      300.26728     -4487.376       1.0177122      4455.7805      0              0              0              0              0             -232.5928     
    502000   1535.5452      262.7327       1272.8125      320.5141       1279.1713      1.0177122      4455.7805      0              0              0              0              0             -232.06168    
    502250   1516.8293      242.84498      1273.9843      296.25257     -1588.571       1.0177122      4455.7805      0              0              0              0              0             -231.93809    
    502500   1532.504       252.39112      1280.1129      307.89815     -2290.0955      1.0177122      4455.7805      0              0              0              0              0             -231.45976    
    502750   1506.1231      237.30448      1268.8186      289.49359     -4637.4811      1.0177122      4455.7805      0              0              0              0              0             -232.35864    
    503000   1493.7474      235.60085      1258.1465      287.41528     -4830.4657      1.0177122      4455.7805      0              0              0              0              0             -231.8336     
    503250   1496.9681      231.20643      1265.7617      282.05442     -4744.0148      1.0177122      4455.7805      0              0              0              0              0             -230.85597    
    503500   1516.1624      232.47838      1283.6841      283.6061      -3777.3788      1.0177122      4455.7805      0              0              0              0              0             -231.04838    
    503750   1519.4761      251.589        1267.8871      306.91962     -783.56941      1.0177122      4455.7805      0              0              0              0              0             -231.20632    
    504000   1555.8801      291.04615      1264.8339      355.05437     -501.48541      1.0177122      4455.7805      0              0              0              0              0             -232.16907    
    504250   1543.4055      260.34375      1283.0617      317.59976     -801.73857      1.0177122      4455.7805      0              0              0              0              0             -232.79229    
    504500   1533.0116      240.76834      1292.2433      293.71923      999.61757      1.0177122      4455.7805      0              0              0              0              0             -233.15092    
    504750   1535.5437      256.0619       1279.4818      312.37622     -1537.9781      1.0177122      4455.7805      0              0              0              0              0             -232.0536     
    505000   1521.6798      240.11721      1281.5626      292.9249      -354.21702      1.0177122      4455.7805      0              0              0              0              0             -233.44729    
    505250   1528.5712      252.63281      1275.9384      308.19299      1867.6485      1.0177122      4455.7805      0              0              0              0              0             -231.84284    
    505500   1537.9446      249.50314      1288.4414      304.37503      2524.5755      1.0177122      4455.7805      0              0              0              0              0             -232.52674    
    505750   1515.6819      250.00786      1265.6741      304.99075     -451.81904      1.0177122      4455.7805      0              0              0              0              0             -230.48257    
    506000   1524.3151      243.70167      1280.6134      297.29767     -87.229948      1.0177122      4455.7805      0              0              0              0              0             -233.01215    
    506250   1513.8667      236.38857      1277.4781      288.37624     -1532.999       1.0177122      4455.7805      0              0              0              0              0             -231.80492    
    506500   1535.6742      260.73728      1274.9369      318.07983      154.51244      1.0177122      4455.7805      0              0              0              0              0             -231.86523    
    506750   1530.8287      255.11755      1275.7111      311.22419     -3699.6596      1.0177122      4455.7805      0              0              0              0              0             -231.78525    
    507000   1567.7904      266.24328      1301.5471      324.79674     -1753.4759      1.0177122      4455.7805      0              0              0              0              0             -233.25056    
    507250   1546.0139      258.74662      1287.2673      315.65138     -150.24327      1.0177122      4455.7805      0              0              0              0              0             -232.53586    
    507500   1512.8822      245.28779      1267.5944      299.23261      1457.6049      1.0177122      4455.7805      0              0              0              0              0             -231.80398    
    507750   1519.3198      259.2732       1260.0466      316.29377     -2433.3416      1.0177122      4455.7805      0              0              0              0              0             -232.23422    
    508000   1547.1027      249.28189      1297.8208      304.10513     -1325.6495      1.0177122      4455.7805      0              0              0              0              0             -232.97051    
    508250   1549.8567      267.31218      1282.5445      326.10071     -1133.9634      1.0177122      4455.7805      0              0              0              0              0             -232.51111    
    508500   1510.2753      232.94177      1277.3335      284.17141     -2344.1895      1.0177122      4455.7805      0              0              0              0              0             -230.005      
    508750   1538.6407      258.46698      1280.1737      315.31024     -2254.3694      1.0177122      4455.7805      0              0              0              0              0             -231.88094    
    509000   1537.1117      270.2728       1266.8389      329.71244      2824.7202      1.0177122      4455.7805      0              0              0              0              0             -232.53159    
    509250   1509.8177      242.73547      1267.0822      296.11899      3355.3861      1.0177122      4455.7805      0              0              0              0              0             -231.58395    
    509500   1505.7279      232.12594      1273.602       283.17616     -880.36388      1.0177122      4455.7805      0              0              0              0              0             -232.42861    
    509750   1515.2938      233.83151      1281.4623      285.25682     -4957.8316      1.0177122      4455.7805      0              0              0              0              0             -230.00461    
    510000   1564.0178      263.2279       1300.7899      321.1182       599.68697      1.0177122      4455.7805      0              0              0              0              0             -232.07255    
    510250   1553.6067      262.62144      1290.9853      320.37837      28.267941      1.0177122      4455.7805      0              0              0              0              0             -231.12012    
    510500   1534.033       249.21328      1284.8198      304.02142      5151.5533      1.0177122      4455.7805      0              0              0              0              0             -233.67905    
    510750   1556.8738      266.24451      1290.6293      324.79824      1772.8534      1.0177122      4455.7805      0              0              0              0              0             -233.46999    
    511000   1539.3663      270.15457      1269.2117      329.56822     -2684.3089      1.0177122      4455.7805      0              0              0              0              0             -231.83429    
    511250   1537.6022      267.46872      1270.1335      326.29168     -315.94082      1.0177122      4455.7805      0              0              0              0              0             -232.11663    
    511500   1539.8875      259.0069       1280.8806      315.9689      -3304.7785      1.0177122      4455.7805      0              0              0              0              0             -233.31       
    511750   1502.086       225.29446      1276.7916      274.84227      1644.1919      1.0177122      4455.7805      0              0              0              0              0             -231.96133    
    512000   1542.4442      250.71556      1291.7286      305.85409     -611.59323      1.0177122      4455.7805      0              0              0              0              0             -232.1179     
    512250   1517.8201      238.58939      1279.2307      291.06107     -6448.4995      1.0177122      4455.7805      0              0              0              0              0             -231.23159    
    512500   1537.5456      254.54688      1282.9987      310.52801      839.61656      1.0177122      4455.7805      0              0              0              0              0             -232.40258    
    512750   1544.9249      244.10118      1300.8237      297.78505     -1867.1702      1.0177122      4455.7805      0              0              0              0              0             -231.59836    
    513000   1555.6555      255.63378      1300.0217      311.85394     -55.205548      1.0177122      4455.7805      0              0              0              0              0             -231.74074    
    513250   1533.6741      261.72724      1271.9469      319.28751     -3771.6477      1.0177122      4455.7805      0              0              0              0              0             -232.17777    
    513500   1542.1194      266.68015      1275.4392      325.32969     -3328.446       1.0177122      4455.7805      0              0              0              0              0             -231.11931    
    513750   1541.616       250.71415      1290.9019      305.85238     -3272.4163      1.0177122      4455.7805      0              0              0              0              0             -232.85587    
    514000   1520.5952      244.83371      1275.7615      298.67868     -307.90182      1.0177122      4455.7805      0              0              0              0              0             -232.28312    
    514250   1528.2974      252.40812      1275.8892      307.91889     -1646.8657      1.0177122      4455.7805      0              0              0              0              0             -232.57181    
    514500   1512.3459      235.4403       1276.9056      287.21943     -1554.285       1.0177122      4455.7805      0              0              0              0              0             -233.13167    
    514750   1523.532       244.50399      1279.028       298.27645     -2148.8039      1.0177122      4455.7805      0              0              0              0              0             -230.92607    
    515000   1536.4998      240.68342      1295.8164      293.61564     -1101.7041      1.0177122      4455.7805      0              0              0              0              0             -231.941      
    515250   1524.2821      232.34992      1291.9322      283.4494       596.92414      1.0177122      4455.7805      0              0              0              0              0             -233.07085    
    515500   1535.4038      256.44809      1278.9557      312.84734     -1464.9538      1.0177122      4455.7805      0              0              0              0              0             -232.39551    
    515750   1565.3555      265.73111      1299.6244      324.17193      1111.6482      1.0177122      4455.7805      0              0              0              0              0             -231.60097    
    516000   1517.9048      251.70584      1266.199       307.06215     -787.59271      1.0177122      4455.7805      0              0              0              0              0             -231.05954    
    516250   1558.0088      259.9327       1298.0762      317.0983      -5218.0233      1.0177122      4455.7805      0              0              0              0              0             -231.626      
    516500   1543.0152      254.72912      1288.2861      310.75034      4128.4547      1.0177122      4455.7805      0              0              0              0              0             -232.93605    
    516750   1525.5651      241.1818       1284.3833      294.22362     -439.78964      1.0177122      4455.7805      0              0              0              0              0             -232.16513    
    517000   1518.2454      237.88699      1280.3584      290.2042      -4302.116       1.0177122      4455.7805      0              0              0              0              0             -233.8231     
    517250   1518.6383      254.45235      1264.186       310.41269     -975.72797      1.0177122      4455.7805      0              0              0              0              0             -231.85701    
    517500   1483.9463      216.37977      1267.5665      263.96701     -1243.5153      1.0177122      4455.7805      0              0              0              0              0             -231.79179    
    517750   1503.2377      244.35024      1258.8875      298.08888     -4781.8456      1.0177122      4455.7805      0              0              0              0              0             -231.42344    
    518000   1551.9236      268.22983      1283.6938      327.22018      3168.425       1.0177122      4455.7805      0              0              0              0              0             -232.69013    
    518250   1543.2898      257.31029      1285.9795      313.89916     -2597.5012      1.0177122      4455.7805      0              0              0              0              0             -230.71033    
    518500   1541.6597      256.57108      1285.0886      312.99739     -4061.4166      1.0177122      4455.7805      0              0              0              0              0             -233.74368    
    518750   1522.0432      244.59266      1277.4505      298.38461     -313.27025      1.0177122      4455.7805      0              0              0              0              0             -233.80558    
    519000   1516.8783      247.45177      1269.4265      301.87252     -2506.888       1.0177122      4455.7805      0              0              0              0              0             -231.52963    
    519250   1541.9161      256.18051      1285.7356      312.52092     -2884.9553      1.0177122      4455.7805      0              0              0              0              0             -231.48111    
    519500   1512.3281      229.22115      1283.107       279.63253     -3031.3287      1.0177122      4455.7805      0              0              0              0              0             -231.35625    
    519750   1521.3095      238.36477      1282.9448      290.78706     -1049.4273      1.0177122      4455.7805      0              0              0              0              0             -232.45634    
    520000   1531.4087      254.52114      1276.8875      310.49661     -1191.672       1.0177122      4455.7805      0              0              0              0              0             -232.41241    
    520250   1499.0262      236.46622      1262.56        288.47097      2101.3435      1.0177122      4455.7805      0              0              0              0              0             -231.77319    
    520500   1537.4865      236.05446      1301.432       287.96866     -3749.3081      1.0177122      4455.7805      0              0              0              0              0             -232.12171    
    520750   1520.1315      247.60145      1272.5301      302.05511     -3666.916       1.0177122      4455.7805      0              0              0              0              0             -231.87764    
    521000   1516.9586      244.70262      1272.256       298.51875     -3874.5067      1.0177122      4455.7805      0              0              0              0              0             -232.48661    
    521250   1501.9401      236.98103      1264.9591      289.099        339.12149      1.0177122      4455.7805      0              0              0              0              0             -232.45716    
    521500   1535.7366      250.19548      1285.5411      305.21963     -3927.5785      1.0177122      4455.7805      0              0              0              0              0             -231.7533     
    521750   1530.0527      249.76274      1280.2899      304.69172     -2305.0953      1.0177122      4455.7805      0              0              0              0              0             -231.30562    
    522000   1526.2881      247.82053      1278.4676      302.32237     -2349.2059      1.0177122      4455.7805      0              0              0              0              0             -233.32939    
    522250   1488.7538      218.30218      1270.4517      266.31221     -3032.866       1.0177122      4455.7805      0              0              0              0              0             -232.26498    
    522500   1507.3819      235.16975      1272.2122      286.88937      4934.1053      1.0177122      4455.7805      0              0              0              0              0             -232.41495    
    522750   1516.3179      238.82848      1277.4895      291.35274      1697.2707      1.0177122      4455.7805      0              0              0              0              0             -232.04763    
    523000   1545.235       252.62481      1292.6102      308.18323     -5533.828       1.0177122      4455.7805      0              0              0              0              0             -230.92982    
    523250   1547.408       259.91024      1287.4978      317.07091     -2638.5765      1.0177122      4455.7805      0              0              0              0              0             -232.70715    
    523500   1533.3197      245.60971      1287.71        299.62534     -2836.785       1.0177122      4455.7805      0              0              0              0              0             -232.82685    
    523750   1516.4636      239.75728      1276.7063      292.48581     -2058.3516      1.0177122      4455.7805      0              0              0              0              0             -231.19145    
    524000   1551.4441      270.83544      1280.6087      330.39883     -385.66855      1.0177122      4455.7805      0              0              0              0              0             -232.18841    
    524250   1550.2869      274.32771      1275.9592      334.65913     -1397.1334      1.0177122      4455.7805      0              0              0              0              0             -233.90807    
    524500   1540.6599      264.77193      1275.8879      323.00181      425.67887      1.0177122      4455.7805      0              0              0              0              0             -230.41654    
    524750   1541.2195      275.11086      1266.1086      335.61452      293.71883      1.0177122      4455.7805      0              0              0              0              0             -231.36723    
    525000   1529.8849      250.13351      1279.7514      305.14404     -947.122        1.0177122      4455.7805      0              0              0              0              0             -231.91518    
    525250   1523.84        244.73669      1279.1033      298.56032     -2499.9823      1.0177122      4455.7805      0              0              0              0              0             -232.19147    
    525500   1519.2744      240.51988      1278.7545      293.41613      3960.6852      1.0177122      4455.7805      0              0              0              0              0             -233.65468    
    525750   1539.382       258.90511      1280.4769      315.84472     -2036.4394      1.0177122      4455.7805      0              0              0              0              0             -231.65793    
    526000   1530.5535      226.18903      1304.3645      275.93358     -3519.2405      1.0177122      4455.7805      0              0              0              0              0             -231.79844    
    526250   1526.3783      250.88027      1275.498       306.05502     -3120.5728      1.0177122      4455.7805      0              0              0              0              0             -231.87807    
    526500   1508.6007      237.87347      1270.7272      290.18771     -4038.8693      1.0177122      4455.7805      0              0              0              0              0             -233.33716    
    526750   1523.4657      240.35718      1283.1086      293.21764     -2463.6503      1.0177122      4455.7805      0              0              0              0              0             -231.49013    
    527000   1532.399       259.22589      1273.1732      316.23605     -355.45352      1.0177122      4455.7805      0              0              0              0              0             -231.7512     
    527250   1537.5796      264.09687      1273.4827      322.17828     -301.80523      1.0177122      4455.7805      0              0              0              0              0             -232.03325    
    527500   1535.8763      244.71122      1291.165       298.52925     -2689.6743      1.0177122      4455.7805      0              0              0              0              0             -231.88866    
    527750   1543.8244      265.0508       1278.7736      323.342       -4449.116       1.0177122      4455.7805      0              0              0              0              0             -232.46601    
    528000   1501.1364      230.33382      1270.8025      280.9899      -2884.5051      1.0177122      4455.7805      0              0              0              0              0             -232.07637    
    528250   1546.9755      259.61472      1287.3608      316.71039     -2912.4598      1.0177122      4455.7805      0              0              0              0              0             -232.47736    
    528500   1537.5021      260.97639      1276.5257      318.37153     -2491.6576      1.0177122      4455.7805      0              0              0              0              0             -231.40328    
    528750   1516.2575      243.31689      1272.9407      296.82827      285.08219      1.0177122      4455.7805      0              0              0              0              0             -231.15724    
    529000   1524.3331      253.96012      1270.373       309.81221     -1164.1944      1.0177122      4455.7805      0              0              0              0              0             -231.65699    
    529250   1544.4509      261.49779      1282.9531      319.0076      -3388.9204      1.0177122      4455.7805      0              0              0              0              0             -231.65384    
    529500   1514.7833      231.41559      1283.3677      282.30958     -5006.4242      1.0177122      4455.7805      0              0              0              0              0             -231.26304    
    529750   1529.4998      248.42329      1281.0765      303.05769      506.81246      1.0177122      4455.7805      0              0              0              0              0             -231.43865    
    530000   1504.4904      232.12995      1272.3604      283.18104     -1456.0209      1.0177122      4455.7805      0              0              0              0              0             -232.17702    
    530250   1527.8187      252.01665      1275.8021      307.44132     -2625.993       1.0177122      4455.7805      0              0              0              0              0             -231.92906    
    530500   1534.2606      251.55845      1282.7021      306.88235     -3685.4882      1.0177122      4455.7805      0              0              0              0              0             -230.62547    
    530750   1529.2455      240.86522      1288.3803      293.83742     -1541.4277      1.0177122      4455.7805      0              0              0              0              0             -231.30116    
    531000   1529.4975      237.59254      1291.9049      289.845       -873.39778      1.0177122      4455.7805      0              0              0              0              0             -231.13182    
    531250   1499.898       230.62182      1269.2762      281.34124     -2279.9372      1.0177122      4455.7805      0              0              0              0              0             -230.8319     
    531500   1515.7685      236.43937      1279.3292      288.43822      64.289092      1.0177122      4455.7805      0              0              0              0              0             -232.92719    
    531750   1562.9001      258.30372      1304.5964      315.11108     -2015.7898      1.0177122      4455.7805      0              0              0              0              0             -232.86934    
    532000   1513.5455      237.84966      1275.6959      290.15867     -4568.1173      1.0177122      4455.7805      0              0              0              0              0             -232.23061    
    532250   1531.377       263.18954      1268.1875      321.0714      -1664.9049      1.0177122      4455.7805      0              0              0              0              0             -231.06483    
    532500   1536.5925      248.93388      1287.6587      303.68057     -3715.9722      1.0177122      4455.7805      0              0              0              0              0             -231.40032    
    532750   1525.6489      258.4689       1267.18        315.31258     -1409.2989      1.0177122      4455.7805      0              0              0              0              0             -231.13998    
    533000   1530.5952      245.776        1284.8192      299.8282      -1839.6445      1.0177122      4455.7805      0              0              0              0              0             -231.05315    
    533250   1543.1854      253.52791      1289.6575      309.28495     -930.4813       1.0177122      4455.7805      0              0              0              0              0             -233.24614    
    533500   1509.6973      238.15296      1271.5444      290.52867      3234.2691      1.0177122      4455.7805      0              0              0              0              0             -232.51123    
    533750   1500.6855      220.89496      1279.7905      269.47521      272.74903      1.0177122      4455.7805      0              0              0              0              0             -231.73436    
    534000   1520.4946      249.86553      1270.629       304.81711     -48.419496      1.0177122      4455.7805      0              0              0              0              0             -231.85703    
    534250   1535.9054      252.33801      1283.5674      307.83335     -2311.845       1.0177122      4455.7805      0              0              0              0              0             -232.70017    
    534500   1504.9093      231.82951      1273.0798      282.81453     -3667.8241      1.0177122      4455.7805      0              0              0              0              0             -231.66115    
    534750   1502.0096      253.02756      1248.982       308.67456     -1030.0307      1.0177122      4455.7805      0              0              0              0              0             -231.41207    
    535000   1526.5127      248.11752      1278.3952      302.68467     -1726.2657      1.0177122      4455.7805      0              0              0              0              0             -231.14688    
    535250   1523.93        243.12015      1280.8099      296.58827     -2713.9296      1.0177122      4455.7805      0              0              0              0              0             -230.64225    
    535500   1529.9486      260.77954      1269.1691      318.13139     -3486.3929      1.0177122      4455.7805      0              0              0              0              0             -231.91647    
    535750   1521.672       248.51718      1273.1548      303.17223     -4016.4746      1.0177122      4455.7805      0              0              0              0              0             -231.50924    
    536000   1510.0929      236.64979      1273.4431      288.69491     -4473.9777      1.0177122      4455.7805      0              0              0              0              0             -232.40102    
    536250   1515.7641      234.23381      1281.5303      285.74759      455.70285      1.0177122      4455.7805      0              0              0              0              0             -231.7916     
    536500   1520.5079      248.5252       1271.9827      303.18201     -2765.1097      1.0177122      4455.7805      0              0              0              0              0             -229.17122    
    536750   1559.0728      265.98804      1293.0848      324.48536     -3919.1227      1.0177122      4455.7805      0              0              0              0              0             -232.76576    
    537000   1533.5795      242.98001      1290.5995      296.4173      -2505.846       1.0177122      4455.7805      0              0              0              0              0             -232.4693     
    537250   1519.5011      237.56612      1281.935       289.81277     -1608.5613      1.0177122      4455.7805      0              0              0              0              0             -230.98345    
    537500   1551.9789      260.91545      1291.0635      318.29718      2313.3799      1.0177122      4455.7805      0              0              0              0              0             -231.89773    
    537750   1548.6552      255.97351      1292.6817      312.2684      -743.83807      1.0177122      4455.7805      0              0              0              0              0             -232.23118    
    538000   1545.1649      265.07484      1280.09        323.37133     -4431.0476      1.0177122      4455.7805      0              0              0              0              0             -230.41782    
    538250   1505.8476      236.13842      1269.7092      288.07107     -2194.07        1.0177122      4455.7805      0              0              0              0              0             -231.78655    
    538500   1541.878       257.37152      1284.5065      313.97386      725.89379      1.0177122      4455.7805      0              0              0              0              0             -233.01024    
    538750   1519.2505      256.04071      1263.2097      312.35037     -833.82052      1.0177122      4455.7805      0              0              0              0              0             -231.95104    
    539000   1514.7299      236.72864      1278.0013      288.7911      -5203.2227      1.0177122      4455.7805      0              0              0              0              0             -230.01127    
    539250   1544.0231      290.54427      1253.4788      354.44212     -118.75927      1.0177122      4455.7805      0              0              0              0              0             -230.82842    
    539500   1534.8033      251.08456      1283.7188      306.30424     -839.42558      1.0177122      4455.7805      0              0              0              0              0             -232.54528    
    539750   1544.2015      272.20078      1272.0007      332.06444      926.76013      1.0177122      4455.7805      0              0              0              0              0             -232.09472    
    540000   1521.7485      241.24196      1280.5066      294.29701      1945.7987      1.0177122      4455.7805      0              0              0              0              0             -233.10539    
    540250   1552.4417      264.77933      1287.6623      323.01083     -1362.2807      1.0177122      4455.7805      0              0              0              0              0             -232.1528     
    540500   1531.2854      243.27704      1288.0084      296.77965     -2608.0687      1.0177122      4455.7805      0              0              0              0              0             -232.50761    
    540750   1532.829       242.48926      1290.3398      295.81862     -3569.695       1.0177122      4455.7805      0              0              0              0              0             -230.46217    
    541000   1524.797       265.45244      1259.3446      323.83197     -885.609        1.0177122      4455.7805      0              0              0              0              0             -231.61041    
    541250   1500.0115      226.67657      1273.3349      276.52833     -4961.0165      1.0177122      4455.7805      0              0              0              0              0             -230.67287    
    541500   1542.5262      257.51866      1285.0076      314.15335     -2265.5233      1.0177122      4455.7805      0              0              0              0              0             -231.30779    
    541750   1525.6103      246.42283      1279.1875      300.61729     -1356.6196      1.0177122      4455.7805      0              0              0              0              0             -231.98842    
    542000   1493.8191      235.4196       1258.3995      287.19417     -2168.821       1.0177122      4455.7805      0              0              0              0              0             -231.64757    
    542250   1553.2726      250.98916      1302.2835      306.18786     -1218.7492      1.0177122      4455.7805      0              0              0              0              0             -232.57737    
    542500   1538.6458      231.17452      1307.4712      282.01549     -2809.6683      1.0177122      4455.7805      0              0              0              0              0             -232.3565     
    542750   1532.101       250.11746      1281.9836      305.12445      620.82934      1.0177122      4455.7805      0              0              0              0              0             -233.73763    
    543000   1523.5184      256.31634      1267.2021      312.68662      1684.1917      1.0177122      4455.7805      0              0              0              0              0             -232.62693    
    543250   1562.1087      264.73987      1297.3688      322.9627      -865.4642       1.0177122      4455.7805      0              0              0              0              0             -231.68497    
    543500   1514.3232      235.17452      1279.1487      286.89519     -2652.9748      1.0177122      4455.7805      0              0              0              0              0             -231.67496    
    543750   1517.4716      235.89885      1281.5728      287.77882      1929.816       1.0177122      4455.7805      0              0              0              0              0             -232.6747     
    544000   1521.5109      256.50313      1265.0078      312.91449     -3257.3953      1.0177122      4455.7805      0              0              0              0              0             -232.40091    
    544250   1544.5216      260.43323      1284.0883      317.70891     -1937.2033      1.0177122      4455.7805      0              0              0              0              0             -230.90533    
    544500   1529.9954      257.48888      1272.5065      314.11703     -4550.7475      1.0177122      4455.7805      0              0              0              0              0             -230.81873    
    544750   1546.494       247.46004      1299.0339      301.8826       342.22568      1.0177122      4455.7805      0              0              0              0              0             -232.43641    
    545000   1568.1553      272.8935       1295.2618      332.90951     -47.485455      1.0177122      4455.7805      0              0              0              0              0             -230.97385    
    545250   1560.0532      243.06507      1316.9882      296.52107      74.834207      1.0177122      4455.7805      0              0              0              0              0             -231.90478    
    545500   1540.154       277.10576      1263.0483      338.04815     -3229.0705      1.0177122      4455.7805      0              0              0              0              0             -232.28803    
    545750   1537.2715      256.96139      1280.3101      313.47353     -767.74743      1.0177122      4455.7805      0              0              0              0              0             -231.85962    
    546000   1541.4082      247.7515       1293.6567      302.23816     -5393.8144      1.0177122      4455.7805      0              0              0              0              0             -231.34823    
    546250   1538.3412      257.79483      1280.5463      314.49027     -1052.5751      1.0177122      4455.7805      0              0              0              0              0             -232.0322     
    546500   1527.1431      250.64163      1276.5015      305.76391      1745.5538      1.0177122      4455.7805      0              0              0              0              0             -231.8488     
    546750   1528.6984      246.29222      1282.4062      300.45795     -1724.2435      1.0177122      4455.7805      0              0              0              0              0             -231.91818    
    547000   1535.54        256.68502      1278.855       313.13638     -3718.3355      1.0177122      4455.7805      0              0              0              0              0             -232.90828    
    547250   1534.6963      244.48247      1290.2139      298.25019     -4371.8945      1.0177122      4455.7805      0              0              0              0              0             -232.43841    
    547500   1533.9991      240.24963      1293.7494      293.08645     -104.35306      1.0177122      4455.7805      0              0              0              0              0             -232.44417    
    547750   1524.4644      249.20411      1275.2603      304.01023     -3327.1316      1.0177122      4455.7805      0              0              0              0              0             -231.08405    
    548000   1535.5879      236.3976       1299.1903      288.38726     -3234.7418      1.0177122      4455.7805      0              0              0              0              0             -231.60417    
    548250   1537.9946      249.32991      1288.6647      304.16371     -4039.6926      1.0177122      4455.7805      0              0              0              0              0             -232.1312     
    548500   1506.5166      233.34901      1273.1676      284.66821      694.63485      1.0177122      4455.7805      0              0              0              0              0             -232.72862    
    548750   1519.7259      248.9856       1270.7403      303.74367     -1985.2183      1.0177122      4455.7805      0              0              0              0              0             -231.09167    
    549000   1528.3053      253.18153      1275.1237      308.86238      228.81357      1.0177122      4455.7805      0              0              0              0              0             -231.42848    
    549250   1533.1374      261.25631      1271.8811      318.71301     -2834.9699      1.0177122      4455.7805      0              0              0              0              0             -231.49369    
    549500   1539.1171      262.88055      1276.2365      320.69446     -5200.5838      1.0177122      4455.7805      0              0              0              0              0             -230.43345    
    549750   1538.8068      254.33777      1284.469       310.27292     -801.25632      1.0177122      4455.7805      0              0              0              0              0             -232.55652    
    550000   1549.8345      252.62917      1297.2054      308.18855     -3708.7731      1.0177122      4455.7805      0              0              0              0              0             -232.34562    
    550250   1516.9467      238.86512      1278.0816      291.39745     -3212.1349      1.0177122      4455.7805      0              0              0              0              0             -232.22947    
    550500   1550.9202      263.76156      1287.1586      321.76923      670.23362      1.0177122      4455.7805      0              0              0              0              0             -230.34685    
    550750   1536.6302      257.42787      1279.2023      314.04261     -6379.4937      1.0177122      4455.7805      0              0              0              0              0             -231.22324    
    551000   1561.6605      264.23519      1297.4253      322.34703     -776.58525      1.0177122      4455.7805      0              0              0              0              0             -232.87426    
    551250   1558.985       251.84695      1307.138       307.23429     -3390.0582      1.0177122      4455.7805      0              0              0              0              0             -231.42093    
    551500   1557.1284      261.62065      1295.5078      319.15747      116.69105      1.0177122      4455.7805      0              0              0              0              0             -232.17257    
    551750   1522.3991      246.23631      1276.1628      300.38974     -1242.1583      1.0177122      4455.7805      0              0              0              0              0             -230.92134    
    552000   1526.7883      258.91943      1267.8688      315.8622      -2628.3142      1.0177122      4455.7805      0              0              0              0              0             -231.6916     
    552250   1506.175       238.83359      1267.3414      291.35898      2066.379       1.0177122      4455.7805      0              0              0              0              0             -231.58476    
    552500   1536.3738      244.63823      1291.7356      298.4402      -2618.58        1.0177122      4455.7805      0              0              0              0              0             -232.96902    
    552750   1521.0782      239.7012       1281.377       292.4174      -5662.9866      1.0177122      4455.7805      0              0              0              0              0             -231.97958    
    553000   1533.7579      236.85281      1296.9051      288.94257      843.78711      1.0177122      4455.7805      0              0              0              0              0             -230.98517    
    553250   1529.7933      249.47536      1280.3179      304.34114      1052.841       1.0177122      4455.7805      0              0              0              0              0             -231.8099     
    553500   1531.0022      237.2783       1293.7239      289.46165     -1893.4459      1.0177122      4455.7805      0              0              0              0              0             -230.20005    
    553750   1533.3053      247.47799      1285.8274      301.9045      -4891.8939      1.0177122      4455.7805      0              0              0              0              0             -230.2396     
    554000   1542.8111      266.62062      1276.1905      325.25706     -2945.7278      1.0177122      4455.7805      0              0              0              0              0             -230.71841    
    554250   1526.643       253.38628      1273.2567      309.11216     -3599.1646      1.0177122      4455.7805      0              0              0              0              0             -231.59179    
    554500   1517.12        248.18117      1268.9388      302.76233     -652.76164      1.0177122      4455.7805      0              0              0              0              0             -230.66857    
    554750   1565.6523      258.73651      1306.9158      315.63904     -3868.2276      1.0177122      4455.7805      0              0              0              0              0             -230.49802    
    555000   1570.4429      258.85619      1311.5867      315.78505     -1399.2427      1.0177122      4455.7805      0              0              0              0              0             -232.19265    
    555250   1572.453       266.94279      1305.5102      325.65009     -1372.8455      1.0177122      4455.7805      0              0              0              0              0             -231.95595    
    555500   1495.463       229.36372      1266.0993      279.80646     -3595.7177      1.0177122      4455.7805      0              0              0              0              0             -231.50267    
    555750   1528.4346      240.83935      1287.5953      293.80586      1000.193       1.0177122      4455.7805      0              0              0              0              0             -232.02285    
    556000   1490.6782      221.73716      1268.941       270.50262     -3208.0296      1.0177122      4455.7805      0              0              0              0              0             -232.69035    
    556250   1512.9439      239.30672      1273.6372      291.93617     -2859.5882      1.0177122      4455.7805      0              0              0              0              0             -232.47283    
    556500   1531.3885      248.07411      1283.3144      302.63173     -2613.578       1.0177122      4455.7805      0              0              0              0              0             -233.01028    
    556750   1512.3819      236.56718      1275.8147      288.59414     -2052.9629      1.0177122      4455.7805      0              0              0              0              0             -233.3477     
    557000   1518.3269      246.06314      1272.2638      300.17849      3705.4354      1.0177122      4455.7805      0              0              0              0              0             -231.89728    
    557250   1536.6362      258.25744      1278.3788      315.05462     -4724.9278      1.0177122      4455.7805      0              0              0              0              0             -232.81197    
    557500   1521.8167      256.63308      1265.1837      313.07301      1284.2856      1.0177122      4455.7805      0              0              0              0              0             -232.86888    
    557750   1534.8701      250.32585      1284.5443      305.37867     -4491.8534      1.0177122      4455.7805      0              0              0              0              0             -233.45188    
    558000   1564.3624      273.00632      1291.3561      333.04714      833.20533      1.0177122      4455.7805      0              0              0              0              0             -232.45243    
    558250   1543.5026      250.42198      1293.0806      305.49594     -707.26046      1.0177122      4455.7805      0              0              0              0              0             -231.18383    
    558500   1543.5623      256.23518      1287.3272      312.58761     -4781.5607      1.0177122      4455.7805      0              0              0              0              0             -232.32017    
    558750   1537.1922      249.66137      1287.5308      304.56806     -787.21765      1.0177122      4455.7805      0              0              0              0              0             -232.25361    
    559000   1531.445       240.81825      1290.6268      293.78012     -4267.9964      1.0177122      4455.7805      0              0              0              0              0             -231.47682    
    559250   1526.9143      234.90989      1292.0045      286.57236      357.91313      1.0177122      4455.7805      0              0              0              0              0             -233.21141    
    559500   1499.2178      239.71322      1259.5046      292.43207     -5825.7506      1.0177122      4455.7805      0              0              0              0              0             -231.56333    
    559750   1530.7564      249.13886      1281.6175      303.93063     -606.71056      1.0177122      4455.7805      0              0              0              0              0             -232.30696    
    560000   1550.7858      265.48169      1285.3041      323.86766      845.55713      1.0177122      4455.7805      0              0              0              0              0             -230.96371    
    560250   1551.5419      273.02832      1278.5136      333.07397     -3130.0019      1.0177122      4455.7805      0              0              0              0              0             -230.95701    
    560500   1489.9989      236.44485      1253.5541      288.4449      -1945.7075      1.0177122      4455.7805      0              0              0              0              0             -230.90798    
    560750   1538.2954      262.40543      1275.89        320.11485     -2285.0973      1.0177122      4455.7805      0              0              0              0              0             -231.84801    
    561000   1531.7522      258.52444      1273.2277      315.38033      1816.0754      1.0177122      4455.7805      0              0              0              0              0             -232.14092    
    561250   1521.1682      231.86886      1289.2993      282.86253      783.01817      1.0177122      4455.7805      0              0              0              0              0             -232.52294    
    561500   1518.3033      245.72441      1272.5789      299.76527     -3444.1597      1.0177122      4455.7805      0              0              0              0              0             -232.55464    
    561750   1509.0762      234.16589      1274.9103      285.66474      1570.8171      1.0177122      4455.7805      0              0              0              0              0             -231.75865    
    562000   1554.6159      265.12306      1289.4928      323.43015      541.81468      1.0177122      4455.7805      0              0              0              0              0             -231.28114    
    562250   1529.568       240.52312      1289.0449      293.42008      2142.8622      1.0177122      4455.7805      0              0              0              0              0             -231.19453    
    562500   1538.8105      259.60674      1279.2037      316.70066     -2529.8229      1.0177122      4455.7805      0              0              0              0              0             -231.36509    
    562750   1545.9133      245.39554      1300.5178      299.36406     -3800.4165      1.0177122      4455.7805      0              0              0              0              0             -231.67432    
    563000   1535.6069      251.74067      1283.8662      307.10464     -1128.0396      1.0177122      4455.7805      0              0              0              0              0             -230.60685    
    563250   1533.5521      257.34235      1276.2098      313.93827     -3912.7124      1.0177122      4455.7805      0              0              0              0              0             -231.94153    
    563500   1523.8425      244.3803       1279.4622      298.12555      1087.0905      1.0177122      4455.7805      0              0              0              0              0             -232.99433    
    563750   1520.9373      244.46513      1276.4721      298.22904     -2872.8434      1.0177122      4455.7805      0              0              0              0              0             -231.61032    
    564000   1503.1203      244.37864      1258.7416      298.12352     -86.792436      1.0177122      4455.7805      0              0              0              0              0             -232.09837    
    564250   1539.6051      252.31363      1287.2915      307.80361     -3636.0468      1.0177122      4455.7805      0              0              0              0              0             -231.95486    
    564500   1542.1673      267.40774      1274.7596      326.21729      1398.0469      1.0177122      4455.7805      0              0              0              0              0             -231.39915    
    564750   1537.4847      254.08007      1283.4046      309.95854     -846.18809      1.0177122      4455.7805      0              0              0              0              0             -229.93805    
    565000   1544.293       245.32357      1298.9694      299.27627     -842.78366      1.0177122      4455.7805      0              0              0              0              0             -231.85927    
    565250   1567.757       280.1087       1287.6483      341.71151     -980.96092      1.0177122      4455.7805      0              0              0              0              0             -231.92617    
    565500   1517.4075      252.92598      1264.4815      308.55064     -708.77394      1.0177122      4455.7805      0              0              0              0              0             -231.20807    
    565750   1521.6069      249.4897       1272.1172      304.35864     -1508.508       1.0177122      4455.7805      0              0              0              0              0             -231.57634    
    566000   1537.1741      257.12759      1280.0465      313.67629      4139.355       1.0177122      4455.7805      0              0              0              0              0             -231.91641    
    566250   1561.1129      291.78665      1269.3262      355.95773      1304.002       1.0177122      4455.7805      0              0              0              0              0             -232.35091    
    566500   1533.0366      246.19531      1286.8413      300.33972     -1507.0504      1.0177122      4455.7805      0              0              0              0              0             -232.30428    
    566750   1528.3933      254.19784      1274.1955      310.10221     -5558.5681      1.0177122      4455.7805      0              0              0              0              0             -231.31328    
    567000   1521.4057      252.0716       1269.3341      307.50836     -306.41473      1.0177122      4455.7805      0              0              0              0              0             -232.74538    
    567250   1534.3294      255.67705      1278.6524      311.90674     -2819.2962      1.0177122      4455.7805      0              0              0              0              0             -233.0567     
    567500   1514.9624      244.22744      1270.7349      297.93908     -5722.1655      1.0177122      4455.7805      0              0              0              0              0             -230.10918    
    567750   1543.4587      272.67882      1270.7799      332.64761     -2296.8909      1.0177122      4455.7805      0              0              0              0              0             -231.73255    
    568000   1564.632       266.74689      1297.8851      325.41111      1254.9022      1.0177122      4455.7805      0              0              0              0              0             -232.10063    
    568250   1530.2436      254.32665      1275.9169      310.25935     -2524.1015      1.0177122      4455.7805      0              0              0              0              0             -231.93068    
    568500   1532.7896      247.96832      1284.8212      302.50266      1339.3763      1.0177122      4455.7805      0              0              0              0              0             -231.35003    
    568750   1539.3524      261.53541      1277.817       319.0535      -139.51286      1.0177122      4455.7805      0              0              0              0              0             -231.65024    
    569000   1542.909       261.97872      1280.9303      319.5943      -2963.1702      1.0177122      4455.7805      0              0              0              0              0             -232.16978    
    569250   1529.9207      245.48269      1284.438       299.47039     -1736.282       1.0177122      4455.7805      0              0              0              0              0             -231.20296    
    569500   1537.8934      246.22251      1291.6709      300.37291     -1396.1112      1.0177122      4455.7805      0              0              0              0              0             -231.0551     
    569750   1530.2079      246.30167      1283.9062      300.46948     -3508.971       1.0177122      4455.7805      0              0              0              0              0             -232.88671    
    570000   1522.2398      236.30183      1285.9379      288.27042      2103.7779      1.0177122      4455.7805      0              0              0              0              0             -234.37272    
    570250   1533.4885      256.03812      1277.4504      312.34721      1527.4712      1.0177122      4455.7805      0              0              0              0              0             -231.96466    
    570500   1524.4261      237.41254      1287.0136      289.62541     -90.798387      1.0177122      4455.7805      0              0              0              0              0             -230.92134    
    570750   1528.7125      240.68203      1288.0305      293.61394     -626.88496      1.0177122      4455.7805      0              0              0              0              0             -230.84384    
    571000   1545.8031      264.21195      1281.5911      322.31867     -5703.6513      1.0177122      4455.7805      0              0              0              0              0             -230.89278    
    571250   1508.0143      231.67102      1276.3433      282.62119     -3298.0101      1.0177122      4455.7805      0              0              0              0              0             -232.32146    
    571500   1522.0044      248.30034      1273.7041      302.9077       199.09112      1.0177122      4455.7805      0              0              0              0              0             -234.68326    
    571750   1520.8282      242.839        1277.9892      296.24528     -1191.7399      1.0177122      4455.7805      0              0              0              0              0             -233.26417    
    572000   1524.7632      242.55599      1282.2072      295.90003     -1175.0718      1.0177122      4455.7805      0              0              0              0              0             -231.26854    
    572250   1543.8833      274.96974      1268.9135      335.44237      1037.6249      1.0177122      4455.7805      0              0              0              0              0             -232.78792    
    572500   1544.4511      252.04666      1292.4044      307.47793     -6056.6501      1.0177122      4455.7805      0              0              0              0              0             -231.2456     
    572750   1504.3585      240.3002       1264.0583      293.14814     -1300.936       1.0177122      4455.7805      0              0              0              0              0             -231.90191    
    573000   1556.1795      265.35062      1290.8288      323.70777     -1190.9497      1.0177122      4455.7805      0              0              0              0              0             -232.07421    
    573250   1537.7319      250.64638      1287.0855      305.7697       1752.407       1.0177122      4455.7805      0              0              0              0              0             -231.59325    
    573500   1555.7279      260.6885       1295.0394      318.02033     -4516.5564      1.0177122      4455.7805      0              0              0              0              0             -231.94064    
    573750   1526.699       242.57006      1284.129       295.91719      298.44198      1.0177122      4455.7805      0              0              0              0              0             -232.09582    
    574000   1508.4885      238.64545      1269.8431      291.12946     -3692.3352      1.0177122      4455.7805      0              0              0              0              0             -230.39477    
    574250   1544.1054      252.32251      1291.7829      307.81444     -2658.725       1.0177122      4455.7805      0              0              0              0              0             -232.72835    
    574500   1515.3748      244.19183      1271.183       297.89563     -43.194937      1.0177122      4455.7805      0              0              0              0              0             -230.90941    
    574750   1526.1813      277.43729      1248.744       338.45259     -3486.2952      1.0177122      4455.7805      0              0              0              0              0             -230.40882    
    575000   1531.1792      245.02644      1286.1528      298.9138      -883.91032      1.0177122      4455.7805      0              0              0              0              0             -231.21101    
    575250   1542.7296      246.93939      1295.7902      301.24745     -1614.0164      1.0177122      4455.7805      0              0              0              0              0             -230.83186    
    575500   1533.6726      258.55127      1275.1214      315.41307     -2984.0062      1.0177122      4455.7805      0              0              0              0              0             -232.22224    
    575750   1525.8545      234.95619      1290.8983      286.62885     -4523.4588      1.0177122      4455.7805      0              0              0              0              0             -231.8142     
    576000   1500.1483      249.46485      1250.6835      304.32832     -1754.8367      1.0177122      4455.7805      0              0              0              0              0             -232.84186    
    576250   1521.6981      247.31866      1274.3794      301.71013     -677.20591      1.0177122      4455.7805      0              0              0              0              0             -230.16273    
    576500   1530.9376      253.73329      1277.2044      309.53549     -957.90647      1.0177122      4455.7805      0              0              0              0              0             -232.0988     
    576750   1562.586       259.60213      1302.9839      316.69504     -1770.4404      1.0177122      4455.7805      0              0              0              0              0             -233.26453    
    577000   1520.705       244.21774      1276.4873      297.92724     -5749.8562      1.0177122      4455.7805      0              0              0              0              0             -231.15774    
    577250   1514.5424      230.59931      1283.9431      281.31378     -552.4718       1.0177122      4455.7805      0              0              0              0              0             -231.84985    
    577500   1516.8246      250.52369      1266.301       305.62003     -71.229733      1.0177122      4455.7805      0              0              0              0              0             -232.83829    
    577750   1511.6442      247.05436      1264.5899      301.3877       458.01941      1.0177122      4455.7805      0              0              0              0              0             -232.37713    
    578000   1557.7584      265.6375       1292.1209      324.05774      135.68047      1.0177122      4455.7805      0              0              0              0              0             -232.5853     
    578250   1545.9031      259.90243      1286.0006      317.06138     -4631.4317      1.0177122      4455.7805      0              0              0              0              0             -232.07207    
    578500   1523.5013      243.93235      1279.569       297.57908      187.07958      1.0177122      4455.7805      0              0              0              0              0             -231.12672    
    578750   1531.0579      251.90555      1279.1523      307.30579     -92.517499      1.0177122      4455.7805      0              0              0              0              0             -231.55512    
    579000   1534.4922      269.84621      1264.646       329.19204     -427.178        1.0177122      4455.7805      0              0              0              0              0             -231.42113    
    579250   1535.8599      238.8207       1297.0392      291.34326     -6883.6498      1.0177122      4455.7805      0              0              0              0              0             -232.29877    
    579500   1502.3748      230.48069      1271.8941      281.16907     -2311.6052      1.0177122      4455.7805      0              0              0              0              0             -232.22191    
    579750   1533.3171      253.86881      1279.4483      309.70082     -189.03071      1.0177122      4455.7805      0              0              0              0              0             -231.33721    
    580000   1563.3776      277.29232      1286.0853      338.27573     -766.9896       1.0177122      4455.7805      0              0              0              0              0             -232.33641    
    580250   1541.3997      270.14635      1271.2534      329.5582       1312.7785      1.0177122      4455.7805      0              0              0              0              0             -231.58799    
    580500   1506.8768      238.89263      1267.9842      291.43101      2666.3326      1.0177122      4455.7805      0              0              0              0              0             -232.40657    
    580750   1516.6795      246.01061      1270.6689      300.11441      548.65925      1.0177122      4455.7805      0              0              0              0              0             -232.46779    
    581000   1526.8196      261.30279      1265.5168      318.76971     -2899.3411      1.0177122      4455.7805      0              0              0              0              0             -231.25521    
    581250   1560.7524      272.22456      1288.5278      332.09345     -1659.1943      1.0177122      4455.7805      0              0              0              0              0             -231.73826    
    581500   1510.6265      230.6737       1279.9528      281.40453     -1120.7974      1.0177122      4455.7805      0              0              0              0              0             -233.00979    
    581750   1530.4244      269.26011      1261.1643      328.47705     -1795.5674      1.0177122      4455.7805      0              0              0              0              0             -231.50393    
    582000   1535.3561      265.70454      1269.6516      324.13952     -1635.6064      1.0177122      4455.7805      0              0              0              0              0             -231.70053    
    582250   1522.7234      242.26318      1280.4602      295.54282     -3398.2372      1.0177122      4455.7805      0              0              0              0              0             -233.68697    
    582500   1549.7175      284.5205       1265.197       347.09357     -3680.5092      1.0177122      4455.7805      0              0              0              0              0             -232.94941    
    582750   1542.6863      254.52743      1288.1588      310.50428     -870.48522      1.0177122      4455.7805      0              0              0              0              0             -232.90531    
    583000   1539.966       256.4509       1283.5152      312.85077      2325.2896      1.0177122      4455.7805      0              0              0              0              0             -231.18481    
    583250   1536.2341      261.25399      1274.9801      318.71017     -2593.6802      1.0177122      4455.7805      0              0              0              0              0             -232.0848     
    583500   1530.2733      250.63064      1279.6426      305.7505      -163.19131      1.0177122      4455.7805      0              0              0              0              0             -232.878      
    583750   1509.2752      250.67547      1258.5998      305.80519     -3807.5908      1.0177122      4455.7805      0              0              0              0              0             -232.13609    
    584000   1522.627       242.05822      1280.5688      295.29279     -5397.9361      1.0177122      4455.7805      0              0              0              0              0             -232.21957    
    584250   1524.8031      240.42926      1284.3738      293.30558     -592.81961      1.0177122      4455.7805      0              0              0              0              0             -232.40024    
    584500   1542.8685      262.47936      1280.3892      320.20504     -3288.053       1.0177122      4455.7805      0              0              0              0              0             -230.6011     
    584750   1542.3448      260.2831       1282.0617      317.52577     -6372.7691      1.0177122      4455.7805      0              0              0              0              0             -230.9576     
    585000   1517.5481      257.86364      1259.6845      314.57421     -3791.5897      1.0177122      4455.7805      0              0              0              0              0             -231.96645    
    585250   1549.0838      252.81091      1296.2728      308.41026      68.008102      1.0177122      4455.7805      0              0              0              0              0             -231.78768    
    585500   1545.4918      268.50263      1276.9892      327.55298      1446.9869      1.0177122      4455.7805      0              0              0              0              0             -232.68331    
    585750   1546.943       241.7258       1305.2172      294.88726      3865.5749      1.0177122      4455.7805      0              0              0              0              0             -232.5583     
    586000   1532.1781      239.71977      1292.4584      292.44005     -10128.593      1.0177122      4455.7805      0              0              0              0              0             -231.22973    
    586250   1514.7161      239.30986      1275.4062      291.94        -2796.8104      1.0177122      4455.7805      0              0              0              0              0             -232.08725    
    586500   1543.6647      263.11925      1280.5454      320.98566      1831.3145      1.0177122      4455.7805      0              0              0              0              0             -231.78087    
    586750   1555.7163      268.91257      1286.8037      328.05307     -549.00173      1.0177122      4455.7805      0              0              0              0              0             -232.9188     
    587000   1539.3609      246.22445      1293.1365      300.37528      1810.0779      1.0177122      4455.7805      0              0              0              0              0             -231.92943    
    587250   1553.0451      241.92705      1311.118       295.13277     -3463.3177      1.0177122      4455.7805      0              0              0              0              0             -231.59004    
    587500   1534.036       244.19922      1289.8368      297.90465      1075.1602      1.0177122      4455.7805      0              0              0              0              0             -231.78611    
    587750   1524.4925      253.87371      1270.6188      309.7068      -1025.378       1.0177122      4455.7805      0              0              0              0              0             -231.41294    
    588000   1530.3741      257.2785       1273.0956      313.86038     -2842.4755      1.0177122      4455.7805      0              0              0              0              0             -232.66885    
    588250   1513.12        231.84641      1281.2736      282.83515      1204.3678      1.0177122      4455.7805      0              0              0              0              0             -231.31739    
    588500   1524.5567      249.31326      1275.2434      304.14339      563.25354      1.0177122      4455.7805      0              0              0              0              0             -231.67916    
    588750   1518.4138      232.39555      1286.0182      283.50506     -9248.6333      1.0177122      4455.7805      0              0              0              0              0             -230.9833     
    589000   1511.5678      250.01542      1261.5524      304.99997     -2688.855       1.0177122      4455.7805      0              0              0              0              0             -230.51477    
    589250   1516.7157      244.09031      1272.6254      297.77179     -5003.8491      1.0177122      4455.7805      0              0              0              0              0             -229.7632     
    589500   1535.4237      269.1981       1266.2256      328.4014      -331.1143       1.0177122      4455.7805      0              0              0              0              0             -231.35563    
    589750   1536.6633      249.75094      1286.9123      304.67733     -315.08601      1.0177122      4455.7805      0              0              0              0              0             -232.03813    
    590000   1538.8206      266.73819      1272.0824      325.40049     -2014.9316      1.0177122      4455.7805      0              0              0              0              0             -231.86235    
    590250   1551.2886      273.18912      1278.0995      333.27014     -1303.7225      1.0177122      4455.7805      0              0              0              0              0             -232.205      
    590500   1517.9341      262.16071      1255.7734      319.81631      1806.7002      1.0177122      4455.7805      0              0              0              0              0             -233.79454    
    590750   1501.4985      241.73829      1259.7602      294.9025      -3715.1471      1.0177122      4455.7805      0              0              0              0              0             -231.36311    
    591000   1521.7478      256.25526      1265.4926      312.61211     -2878.601       1.0177122      4455.7805      0              0              0              0              0             -231.44185    
    591250   1541.0148      242.41279      1298.602       295.72534     -1960.1622      1.0177122      4455.7805      0              0              0              0              0             -231.72141    
    591500   1520.0534      257.8709       1262.1825      314.58306     -4357.2327      1.0177122      4455.7805      0              0              0              0              0             -232.47244    
    591750   1545.4811      250.0575       1295.4236      305.0513      -2828.4123      1.0177122      4455.7805      0              0              0              0              0             -230.81813    
    592000   1530.8183      242.47552      1288.3428      295.80187     -6189.4925      1.0177122      4455.7805      0              0              0              0              0             -232.02558    
    592250   1492.4901      231.40217      1261.088       282.29322     -4390.1573      1.0177122      4455.7805      0              0              0              0              0             -233.02829    
    592500   1513.5044      235.77255      1277.7318      287.62474     -2187.4421      1.0177122      4455.7805      0              0              0              0              0             -232.45486    
    592750   1547.884       253.28173      1294.6023      308.98462      1633.3779      1.0177122      4455.7805      0              0              0              0              0             -232.56802    
    593000   1532.7233      258.52336      1274.2         315.37902     -3454.9515      1.0177122      4455.7805      0              0              0              0              0             -230.87879    
    593250   1557.4191      264.4369       1292.9822      322.59309      1630.8867      1.0177122      4455.7805      0              0              0              0              0             -232.27914    
    593500   1541.1638      255.56595      1285.5979      311.7712      -1108.4148      1.0177122      4455.7805      0              0              0              0              0             -232.08938    
    593750   1524.846       236.83399      1288.012       288.91962     -4172.6062      1.0177122      4455.7805      0              0              0              0              0             -231.14164    
    594000   1537.2763      252.49711      1284.7792      308.02745     -268.96922      1.0177122      4455.7805      0              0              0              0              0             -231.58664    
    594250   1541.2959      253.03863      1288.2572      308.68806     -6613.7164      1.0177122      4455.7805      0              0              0              0              0             -232.29602    
    594500   1528.1231      234.51766      1293.6054      286.09387     -3672.2749      1.0177122      4455.7805      0              0              0              0              0             -230.67664    
    594750   1544.1378      267.07464      1277.0631      325.81093     -1964.6772      1.0177122      4455.7805      0              0              0              0              0             -232.24039    
    595000   1527.553       264.08013      1263.4728      322.15786     -3049.1158      1.0177122      4455.7805      0              0              0              0              0             -232.94697    
    595250   1505.4262      237.65643      1267.7697      289.92294      1396.1324      1.0177122      4455.7805      0              0              0              0              0             -232.37358    
    595500   1527.8328      241.79126      1286.0416      294.96712     -569.69929      1.0177122      4455.7805      0              0              0              0              0             -232.9411     
    595750   1529.0572      229.33851      1299.7186      279.7757       529.81217      1.0177122      4455.7805      0              0              0              0              0             -233.44333    
    596000   1537.146       249.65405      1287.4919      304.55912     -511.58929      1.0177122      4455.7805      0              0              0              0              0             -232.60839    
    596250   1560.0306      272.39902      1287.6316      332.30628     -2201.2453      1.0177122      4455.7805      0              0              0              0              0             -232.90447    
    596500   1523.9955      268.57028      1255.4252      327.6355      -2459.1914      1.0177122      4455.7805      0              0              0              0              0             -232.25376    
    596750   1515.468       235.03274      1280.4353      286.72223      175.84088      1.0177122      4455.7805      0              0              0              0              0             -232.86958    
    597000   1533.819       259.25472      1274.5643      316.27122     -5592.3402      1.0177122      4455.7805      0              0              0              0              0             -232.23163    
    597250   1530.7485      244.37686      1286.3716      298.12136      2918.4106      1.0177122      4455.7805      0              0              0              0              0             -233.59633    
    597500   1533.599       254.8801       1278.7189      310.93452     -1135.5852      1.0177122      4455.7805      0              0              0              0              0             -231.48097    
    597750   1523.7997      236.22563      1287.5741      288.17747     -7791.145       1.0177122      4455.7805      0              0              0              0              0             -232.66488    
    598000   1549.2589      254.67432      1294.5846      310.68348      996.95622      1.0177122      4455.7805      0              0              0              0              0             -232.25215    
    598250   1558.219       265.69384      1292.5252      324.12646      3519.1824      1.0177122      4455.7805      0              0              0              0              0             -232.38815    
    598500   1506.5101      238.83011      1267.68        291.35474     -2234.6834      1.0177122      4455.7805      0              0              0              0              0             -230.10738    
    598750   1531.8682      258.59504      1273.2732      315.46646     -1092.1337      1.0177122      4455.7805      0              0              0              0              0             -232.51276    
    599000   1549.4684      248.17401      1301.2944      302.75359      1407.878       1.0177122      4455.7805      0              0              0              0              0             -233.13001    
    599250   1543.3402      258.72937      1284.6109      315.63034     -1381.3432      1.0177122      4455.7805      0              0              0              0              0             -233.04625    
    599500   1562.7311      267.68165      1295.0495      326.55144     -1502.0368      1.0177122      4455.7805      0              0              0              0              0             -231.74439    
    599750   1534.0387      274.93998      1259.0987      335.40605     -318.57433      1.0177122      4455.7805      0              0              0              0              0             -229.99701    
    600000   1552.0495      257.32106      1294.7284      313.9123      -1027.0237      1.0177122      4455.7805      0              0              0              0              0             -231.27441    
    600250   1506.0863      232.00036      1274.0859      283.02296      1058.9831      1.0177122      4455.7805      0              0              0              0              0             -232.40299    
    600500   1517.4485      247.54907      1269.8994      301.99121     -2399.8147      1.0177122      4455.7805      0              0              0              0              0             -231.02252    
    600750   1545.481       260.17959      1285.3015      317.39949     -3628.9825      1.0177122      4455.7805      0              0              0              0              0             -230.70358    
    601000   1512.7323      242.38977      1270.3426      295.69726     -3501.0319      1.0177122      4455.7805      0              0              0              0              0             -230.45372    
    601250   1535.8138      262.38032      1273.4335      320.08422      3220.8367      1.0177122      4455.7805      0              0              0              0              0             -230.8096     
    601500   1522.34        236.45659      1285.8834      288.45922     -3455.895       1.0177122      4455.7805      0              0              0              0              0             -232.72141    
    601750   1525.0053      238.94275      1286.0626      291.49215     -1382.5741      1.0177122      4455.7805      0              0              0              0              0             -231.62565    
    602000   1526.7512      239.65557      1287.0957      292.36174     -1052.0471      1.0177122      4455.7805      0              0              0              0              0             -233.1558     
    602250   1521.9039      252.26281      1269.6411      307.74162     -3639.9737      1.0177122      4455.7805      0              0              0              0              0             -231.08994    
    602500   1550.0435      263.66232      1286.3812      321.64816     -5359.7649      1.0177122      4455.7805      0              0              0              0              0             -231.89091    
    602750   1532.3941      256.29132      1276.1028      312.6561      -4018.6392      1.0177122      4455.7805      0              0              0              0              0             -231.23568    
    603000   1528.7201      239.83029      1288.8898      292.57488      36.12206       1.0177122      4455.7805      0              0              0              0              0             -232.24601    
    603250   1513.6859      259.77097      1253.9149      316.90101      2051.3711      1.0177122      4455.7805      0              0              0              0              0             -232.33209    
    603500   1511.0624      247.42484      1263.6375      301.83965     -6679.8932      1.0177122      4455.7805      0              0              0              0              0             -230.79291    
    603750   1526.6402      254.6191       1272.0211      310.61611     -3345.2277      1.0177122      4455.7805      0              0              0              0              0             -232.90544    
    604000   1526.8209      251.45899      1275.3619      306.76102     -2584.2484      1.0177122      4455.7805      0              0              0              0              0             -231.96977    
    604250   1520.2604      259.68861      1260.5718      316.80053     -271.18544      1.0177122      4455.7805      0              0              0              0              0             -232.05708    
    604500   1517.4748      237.00157      1280.4732      289.12406     -4677.5828      1.0177122      4455.7805      0              0              0              0              0             -233.88551    
    604750   1505.7563      238.13151      1267.6248      290.5025      -950.4308       1.0177122      4455.7805      0              0              0              0              0             -231.78507    
    605000   1486.5778      228.11642      1258.4614      278.28484     -2380.3394      1.0177122      4455.7805      0              0              0              0              0             -232.5382     
    605250   1532.9577      262.47657      1270.4811      320.20164      327.98989      1.0177122      4455.7805      0              0              0              0              0             -229.8546     
    605500   1524.408       243.71894      1280.6891      297.31874     -5881.7945      1.0177122      4455.7805      0              0              0              0              0             -230.54437    
    605750   1530.7988      257.32611      1273.4727      313.91846     -4024.7754      1.0177122      4455.7805      0              0              0              0              0             -231.20032    
    606000   1529.9196      251.92654      1277.9931      307.3314      -1177.7569      1.0177122      4455.7805      0              0              0              0              0             -232.11127    
    606250   1542.7268      245.08411      1297.6427      298.98415     -3172.7129      1.0177122      4455.7805      0              0              0              0              0             -232.90758    
    606500   1532.1399      261.95762      1270.1823      319.56855     -1538.7031      1.0177122      4455.7805      0              0              0              0              0             -230.80106    
    606750   1533.2401      246.71068      1286.5294      300.96844     -1633.5217      1.0177122      4455.7805      0              0              0              0              0             -232.12149    
    607000   1512.2299      230.52564      1281.7043      281.22391     -4079.9447      1.0177122      4455.7805      0              0              0              0              0             -230.64774    
    607250   1512.1326      241.03383      1271.0988      294.04311     -533.56508      1.0177122      4455.7805      0              0              0              0              0             -232.56844    
    607500   1547.8908      263.00326      1284.8875      320.84415     -3138.0956      1.0177122      4455.7805      0              0              0              0              0             -231.44732    
    607750   1522.5371      241.41685      1281.1203      294.51037     -732.39666      1.0177122      4455.7805      0              0              0              0              0             -231.21958    
    608000   1520.3858      245.19364      1275.1922      299.11776     -346.02605      1.0177122      4455.7805      0              0              0              0              0             -232.02736    
    608250   1526.3526      235.67041      1290.6822      287.50014     -1652.2361      1.0177122      4455.7805      0              0              0              0              0             -231.41963    
    608500   1527.317       246.55847      1280.7586      300.78275     -2083.7465      1.0177122      4455.7805      0              0              0              0              0             -232.47263    
    608750   1527.8994      245.87789      1282.0215      299.9525       630.00337      1.0177122      4455.7805      0              0              0              0              0             -232.71366    
    609000   1521.0485      242.60475      1278.4438      295.95951     -2339.535       1.0177122      4455.7805      0              0              0              0              0             -230.1078     
    609250   1504.8384      222.76383      1282.0746      271.75509     -5233.954       1.0177122      4455.7805      0              0              0              0              0             -229.65844    
    609500   1550.795       255.72864      1295.0664      311.96967      77.046724      1.0177122      4455.7805      0              0              0              0              0             -230.99802    
    609750   1527.2756      243.59734      1283.6782      297.17039     -2482.4894      1.0177122      4455.7805      0              0              0              0              0             -231.37096    
    610000   1527.4804      251.8029       1275.6775      307.18056     -4266.766       1.0177122      4455.7805      0              0              0              0              0             -232.50862    
    610250   1510.3173      244.28098      1266.0363      298.00439     -388.61441      1.0177122      4455.7805      0              0              0              0              0             -231.19496    
    610500   1556.4123      255.27969      1301.1326      311.42198     -7820.3799      1.0177122      4455.7805      0              0              0              0              0             -230.82036    
    610750   1523.97        254.08339      1269.8866      309.96258     -126.03505      1.0177122      4455.7805      0              0              0              0              0             -231.4753     
    611000   1556.4564      262.97669      1293.4797      320.81175     -3715.5755      1.0177122      4455.7805      0              0              0              0              0             -231.73599    
    611250   1522.1552      244.93623      1277.219       298.80374     -2451.7205      1.0177122      4455.7805      0              0              0              0              0             -232.29427    
    611500   1529.1922      251.49743      1277.6948      306.80792     -4947.5832      1.0177122      4455.7805      0              0              0              0              0             -229.91376    
    611750   1517.4319      249.04787      1268.384       303.81964     -1446.2602      1.0177122      4455.7805      0              0              0              0              0             -231.21388    
    612000   1531.2897      237.23269      1294.057       289.40601     -1116.7925      1.0177122      4455.7805      0              0              0              0              0             -232.54508    
    612250   1539.2711      252.02482      1287.2463      307.45128     -357.25098      1.0177122      4455.7805      0              0              0              0              0             -232.03104    
    612500   1567.2338      272.35139      1294.8824      332.24817      2040.4819      1.0177122      4455.7805      0              0              0              0              0             -231.24325    
    612750   1550.2425      252.92974      1297.3128      308.55523     -2125.6434      1.0177122      4455.7805      0              0              0              0              0             -232.37317    
    613000   1543.4233      263.31367      1280.1096      321.22284      2971.5876      1.0177122      4455.7805      0              0              0              0              0             -232.49279    
    613250   1531.8564      245.80268      1286.0538      299.86075     -3500.0717      1.0177122      4455.7805      0              0              0              0              0             -232.18286    
    613500   1566.0644      296.98388      1269.0805      362.29796      1048.3655      1.0177122      4455.7805      0              0              0              0              0             -232.44175    
    613750   1553.7955      266.99016      1286.8053      325.70788     -1684.115       1.0177122      4455.7805      0              0              0              0              0             -232.50809    
    614000   1514.8049      245.37797      1269.427       299.34263     -860.64277      1.0177122      4455.7805      0              0              0              0              0             -232.1981     
    614250   1526.7803      242.78957      1283.9907      296.18497      588.9613       1.0177122      4455.7805      0              0              0              0              0             -232.8675     
    614500   1537.7327      248.19849      1289.5342      302.78345     -3473.9476      1.0177122      4455.7805      0              0              0              0              0             -232.8442     
    614750   1552.3452      267.20784      1285.1373      325.97343      1912.7544      1.0177122      4455.7805      0              0              0              0              0             -231.99635    
    615000   1549.5733      254.39821      1295.1751      310.34664     -1259.4368      1.0177122      4455.7805      0              0              0              0              0             -231.55016    
    615250   1552.5213      261.06497      1291.4563      318.4796      -121.37247      1.0177122      4455.7805      0              0              0              0              0             -230.81119    
    615500   1556.099       249.19522      1306.9038      303.99939      342.95059      1.0177122      4455.7805      0              0              0              0              0             -232.51696    
    615750   1535.9112      252.71072      1283.2004      308.28804     -2155.2805      1.0177122      4455.7805      0              0              0              0              0             -233.19855    
    616000   1560.3329      277.55332      1282.7796      338.59413     -2031.0996      1.0177122      4455.7805      0              0              0              0              0             -232.74394    
    616250   1520.9297      245.14945      1275.7802      299.06385      2153.065       1.0177122      4455.7805      0              0              0              0              0             -233.07447    
    616500   1507.5341      239.26521      1268.2689      291.88553     -5885.9394      1.0177122      4455.7805      0              0              0              0              0             -231.89       
    616750   1537.0109      254.93583      1282.0751      311.0025      -3557.7772      1.0177122      4455.7805      0              0              0              0              0             -231.34704    
    617000   1525.3254      254.12528      1271.2001      310.01369     -1091.0453      1.0177122      4455.7805      0              0              0              0              0             -231.19784    
    617250   1534.9682      249.01821      1285.95        303.78345      417.80777      1.0177122      4455.7805      0              0              0              0              0             -233.59519    
    617500   1509.8234      235.97738      1273.846       287.87462      1275.9927      1.0177122      4455.7805      0              0              0              0              0             -233.01457    
    617750   1536.1786      241.46932      1294.7093      294.57438     -413.68097      1.0177122      4455.7805      0              0              0              0              0             -231.57139    
    618000   1548.5301      259.44065      1289.0895      316.49804     -2187.2243      1.0177122      4455.7805      0              0              0              0              0             -231.68815    
    618250   1532.6415      249.93094      1282.7105      304.89691     -3400.667       1.0177122      4455.7805      0              0              0              0              0             -230.7407     
    618500   1548.8683      258.83199      1290.0363      315.75552     -4036.7841      1.0177122      4455.7805      0              0              0              0              0             -233.01845    
    618750   1535.3776      254.24585      1281.1318      310.16078     -3729.0725      1.0177122      4455.7805      0              0              0              0              0             -232.26447    
    619000   1541.5772      251.0785       1290.4987      306.29686     -2501.353       1.0177122      4455.7805      0              0              0              0              0             -231.51875    
    619250   1536.7986      264.20773      1272.5909      322.31353     -2916.6345      1.0177122      4455.7805      0              0              0              0              0             -231.04626    
    619500   1559.5851      265.07802      1294.5071      323.37521     -1798.4581      1.0177122      4455.7805      0              0              0              0              0             -232.81015    
    619750   1545.6011      258.09535      1287.5057      314.85688     -2174.9682      1.0177122      4455.7805      0              0              0              0              0             -233.9656     
    620000   1547.6322      257.55401      1290.0782      314.19648      166.51315      1.0177122      4455.7805      0              0              0              0              0             -233.54378    
    620250   1543.1351      246.34124      1296.7939      300.51775     -4888.7581      1.0177122      4455.7805      0              0              0              0              0             -230.85164    
    620500   1544.5306      271.21443      1273.3162      330.86117      958.78152      1.0177122      4455.7805      0              0              0              0              0             -232.12997    
    620750   1510.8736      245.76327      1265.1103      299.81266      2037.6467      1.0177122      4455.7805      0              0              0              0              0             -232.59595    
    621000   1524.9632      240.77295      1284.1902      293.72485     -202.82995      1.0177122      4455.7805      0              0              0              0              0             -230.58861    
    621250   1544.1375      249.47698      1294.6605      304.34312     -390.21911      1.0177122      4455.7805      0              0              0              0              0             -230.97592    
    621500   1522.4694      241.48574      1280.9837      294.59441     -1702.3974      1.0177122      4455.7805      0              0              0              0              0             -232.33271    
    621750   1514.6406      246.09002      1268.5506      300.21129     -1393.9998      1.0177122      4455.7805      0              0              0              0              0             -232.14647    
    622000   1541.3295      243.59545      1297.734       297.16809     -2236.5484      1.0177122      4455.7805      0              0              0              0              0             -233.39002    
    622250   1532.6696      248.1353       1284.5343      302.70637     -3565.1902      1.0177122      4455.7805      0              0              0              0              0             -230.53785    
    622500   1519.7862      235.83147      1283.9548      287.69662     -182.63656      1.0177122      4455.7805      0              0              0              0              0             -231.64509    
    622750   1526.5476      247.09546      1279.4521      301.43784      3719.5633      1.0177122      4455.7805      0              0              0              0              0             -231.77507    
    623000   1534.7235      257.27649      1277.447       313.85793      2081.2762      1.0177122      4455.7805      0              0              0              0              0             -232.82533    
    623250   1531.9754      250.47135      1281.504       305.55617      1134.1833      1.0177122      4455.7805      0              0              0              0              0             -232.40248    
    623500   1524.4895      246.14026      1278.3493      300.27257     -6475.9587      1.0177122      4455.7805      0              0              0              0              0             -232.34929    
    623750   1528.7986      231.92764      1296.871       282.93425     -1194.2258      1.0177122      4455.7805      0              0              0              0              0             -232.79151    
    624000   1528.4452      252.95668      1275.4885      308.58809     -6273.9702      1.0177122      4455.7805      0              0              0              0              0             -231.40358    
    624250   1499.0479      235.98044      1263.0675      287.87835      218.4883       1.0177122      4455.7805      0              0              0              0              0             -232.90457    
    624500   1539.8375      251.63463      1288.2029      306.97528     -4251.8708      1.0177122      4455.7805      0              0              0              0              0             -231.3176     
    624750   1532.0875      252.39039      1279.6971      307.89725     -2782.7113      1.0177122      4455.7805      0              0              0              0              0             -232.19918    
    625000   1531.1444      250.89974      1280.2447      306.07877     -1762.0627      1.0177122      4455.7805      0              0              0              0              0             -231.71425    
    625250   1537.1485      246.86846      1290.2801      301.16092      1014.489       1.0177122      4455.7805      0              0              0              0              0             -232.10824    
    625500   1554.3218      250.6427       1303.6791      305.7652      -3512.6133      1.0177122      4455.7805      0              0              0              0              0             -231.37399    
    625750   1545.0284      254.9904       1290.038       311.06908     -1045.7454      1.0177122      4455.7805      0              0              0              0              0             -232.15195    
    626000   1526.1514      255.58784      1270.5635      311.79791     -1396.6499      1.0177122      4455.7805      0              0              0              0              0             -232.16731    
    626250   1528.8753      247.19994      1281.6754      301.56529     -14.215371      1.0177122      4455.7805      0              0              0              0              0             -232.37124    
    626500   1518.2318      241.97808      1276.2537      295.19502      955.92622      1.0177122      4455.7805      0              0              0              0              0             -232.53977    
    626750   1498.9357      235.55198      1263.3837      287.35567     -1302.3201      1.0177122      4455.7805      0              0              0              0              0             -233.12465    
    627000   1536.088       239.09419      1296.9938      291.67689     -1906.5342      1.0177122      4455.7805      0              0              0              0              0             -232.21193    
    627250   1528.6641      261.54793      1267.1161      319.06876     -4022.8783      1.0177122      4455.7805      0              0              0              0              0             -232.36766    
    627500   1543.4834      250.17804      1293.3054      305.19835     -1069.1762      1.0177122      4455.7805      0              0              0              0              0             -233.29976    
    627750   1524.9903      249.74625      1275.2441      304.67161      275.98775      1.0177122      4455.7805      0              0              0              0              0             -230.55275    
    628000   1534.6624      259.00247      1275.66        315.9635       799.14698      1.0177122      4455.7805      0              0              0              0              0             -233.09237    
    628250   1533.2507      259.93327      1273.3175      317.099        2456.8709      1.0177122      4455.7805      0              0              0              0              0             -233.3106     
    628500   1491.9048      227.45046      1264.4544      277.47242     -5681.5593      1.0177122      4455.7805      0              0              0              0              0             -232.0021     
    628750   1521.2722      243.08959      1278.1827      296.55098     -2450.3319      1.0177122      4455.7805      0              0              0              0              0             -230.69171    
    629000   1546.6671      245.63299      1301.0341      299.65374     -708.60597      1.0177122      4455.7805      0              0              0              0              0             -231.81497    
    629250   1547.9955      247.60407      1300.3915      302.0583      -284.57405      1.0177122      4455.7805      0              0              0              0              0             -232.16713    
    629500   1551.2942      269.56907      1281.7251      328.85395     -982.69911      1.0177122      4455.7805      0              0              0              0              0             -231.8109     
    629750   1518.0108      252.05804      1265.9527      307.49182     -1690.0871      1.0177122      4455.7805      0              0              0              0              0             -230.81928    
    630000   1541.0639      249.95963      1291.1042      304.93191     -5401.5365      1.0177122      4455.7805      0              0              0              0              0             -232.82292    
    630250   1535.9969      252.61302      1283.3838      308.16885      4902.8519      1.0177122      4455.7805      0              0              0              0              0             -232.94283    
    630500   1538.776       264.26077      1274.5152      322.37822     -4505.6024      1.0177122      4455.7805      0              0              0              0              0             -231.62338    
    630750   1531.7845      257.88428      1273.9002      314.59939     -249.71401      1.0177122      4455.7805      0              0              0              0              0             -229.06074    
    631000   1529.5325      248.82463      1280.7078      303.5473      -2880.3464      1.0177122      4455.7805      0              0              0              0              0             -231.20254    
    631250   1493.2857      234.69033      1258.5953      286.30451     -4093.8641      1.0177122      4455.7805      0              0              0              0              0             -230.82578    
    631500   1534.3675      254.38039      1279.9871      310.32491     -960.08355      1.0177122      4455.7805      0              0              0              0              0             -232.14909    
    631750   1494.8603      234.83178      1260.0285      286.47707     -3516.0751      1.0177122      4455.7805      0              0              0              0              0             -232.98436    
    632000   1523.8514      231.16581      1292.6856      282.00487      209.5281       1.0177122      4455.7805      0              0              0              0              0             -233.32452    
    632250   1541.6687      255.92773      1285.7409      312.21254     -9.81069        1.0177122      4455.7805      0              0              0              0              0             -233.09987    
    632500   1552.5379      253.39286      1299.145       309.1202       1467.9164      1.0177122      4455.7805      0              0              0              0              0             -232.90041    
    632750   1510.4581      252.40835      1258.0497      307.91916     -4898.0065      1.0177122      4455.7805      0              0              0              0              0             -230.82238    
    633000   1507.3057      238.3258       1268.9799      290.73951     -3588.142       1.0177122      4455.7805      0              0              0              0              0             -231.56504    
    633250   1522.9225      230.80011      1292.1224      281.55874     -5138.1497      1.0177122      4455.7805      0              0              0              0              0             -231.48811    
    633500   1511.6859      233.61414      1278.0718      284.99165     -302.04627      1.0177122      4455.7805      0              0              0              0              0             -231.88959    
    633750   1518.8334      247.8853       1270.9481      302.40138      5176.2326      1.0177122      4455.7805      0              0              0              0              0             -231.35459    
    634000   1502.3474      232.41329      1269.9341      283.52671     -3383.837       1.0177122      4455.7805      0              0              0              0              0             -230.85433    
    634250   1517.6473      240.43053      1277.2168      293.30713      1410.9789      1.0177122      4455.7805      0              0              0              0              0             -231.45189    
    634500   1518.8679      233.12429      1285.7436      284.39407     -2938.2733      1.0177122      4455.7805      0              0              0              0              0             -232.3546     
    634750   1526.1366      238.03964      1288.0969      290.39043     -6404.8771      1.0177122      4455.7805      0              0              0              0              0             -231.58945    
    635000   1519.5783      241.41075      1278.1675      294.50293     -3295.6918      1.0177122      4455.7805      0              0              0              0              0             -232.41898    
    635250   1548.1003      256.34541      1291.7549      312.72208     -750.51066      1.0177122      4455.7805      0              0              0              0              0             -232.19468    
    635500   1532.4259      252.54789      1279.878       308.0894      -2758.9531      1.0177122      4455.7805      0              0              0              0              0             -232.47507    
    635750   1534.6527      263.86358      1270.7891      321.89369     -1041.4288      1.0177122      4455.7805      0              0              0              0              0             -232.50401    
    636000   1565.6598      268.1594       1297.5004      327.13426     -2363.8708      1.0177122      4455.7805      0              0              0              0              0             -233.75105    
    636250   1541.6479      248.61205      1293.0359      303.28796     -3255.0308      1.0177122      4455.7805      0              0              0              0              0             -230.90883    
    636500   1539.4609      247.77597      1291.6849      302.26801      1004.8352      1.0177122      4455.7805      0              0              0              0              0             -230.19129    
    636750   1549.9011      269.56932      1280.3318      328.85426     -2898.5704      1.0177122      4455.7805      0              0              0              0              0             -231.72746    
    637000   1569.2717      279.09697      1290.1747      340.47727      2635.1287      1.0177122      4455.7805      0              0              0              0              0             -232.78181    
    637250   1529.0364      259.27816      1269.7583      316.29981     -1986.8454      1.0177122      4455.7805      0              0              0              0              0             -231.56687    
    637500   1529.4007      243.52918      1285.8715      297.08724     -641.52222      1.0177122      4455.7805      0              0              0              0              0             -230.97491    
    637750   1541.5466      247.69294      1293.8536      302.16673      68.268263      1.0177122      4455.7805      0              0              0              0              0             -231.42396    
    638000   1551.2424      270.18417      1281.0583      329.60433     -1450.2812      1.0177122      4455.7805      0              0              0              0              0             -231.97197    
    638250   1548.9555      267.97221      1280.9833      326.9059      -4158.686       1.0177122      4455.7805      0              0              0              0              0             -230.67145    
    638500   1514.3483      254.34068      1260.0076      310.27646      2294.706       1.0177122      4455.7805      0              0              0              0              0             -233.20422    
    638750   1503.265       228.54827      1274.7168      278.81167      393.9678       1.0177122      4455.7805      0              0              0              0              0             -232.39973    
    639000   1555.0623      251.8597       1303.2026      307.24985     -3037.9393      1.0177122      4455.7805      0              0              0              0              0             -231.4341     
    639250   1516.4401      249.93313      1266.5069      304.89958     -2521.2751      1.0177122      4455.7805      0              0              0              0              0             -232.41224    
    639500   1537.4125      259.25813      1278.1544      316.27538     -1931.0905      1.0177122      4455.7805      0              0              0              0              0             -232.57913    
    639750   1542.8199      261.33691      1281.483       318.81133      1118.7356      1.0177122      4455.7805      0              0              0              0              0             -233.26544    
    640000   1524.1682      242.35182      1281.8164      295.65095      1245.9375      1.0177122      4455.7805      0              0              0              0              0             -231.98826    
    640250   1549.9449      270.36583      1279.579       329.82593      21.774308      1.0177122      4455.7805      0              0              0              0              0             -231.65201    
    640500   1518.9276      239.72955      1279.198       292.45198     -561.25001      1.0177122      4455.7805      0              0              0              0              0             -232.17669    
    640750   1525.8512      244.15785      1281.6934      297.85418     -3923.2882      1.0177122      4455.7805      0              0              0              0              0             -232.83726    
    641000   1531.5171      259.95821      1271.5589      317.12943     -2358.4459      1.0177122      4455.7805      0              0              0              0              0             -232.06788    
    641250   1542.3258      255.06289      1287.2629      311.1575       1389.7576      1.0177122      4455.7805      0              0              0              0              0             -232.45206    
    641500   1530.6057      272.50415      1258.1015      332.43453      1085.1964      1.0177122      4455.7805      0              0              0              0              0             -232.04969    
    641750   1540.4618      261.86158      1278.6002      319.45139     -2769.8945      1.0177122      4455.7805      0              0              0              0              0             -231.10868    
    642000   1522.119       240.57259      1281.5464      293.48043     -4479.4328      1.0177122      4455.7805      0              0              0              0              0             -231.53991    
    642250   1526.9094      256.72565      1270.1837      313.18594      8700.1874      1.0177122      4455.7805      0              0              0              0              0             -232.78367    
    642500   1541.5922      254.17028      1287.4219      310.06858     -819.58702      1.0177122      4455.7805      0              0              0              0              0             -230.56444    
    642750   1564.2564      265.05776      1299.1986      323.35049     -633.47208      1.0177122      4455.7805      0              0              0              0              0             -232.39162    
    643000   1549.7778      263.37693      1286.4009      321.30001     -2012.3146      1.0177122      4455.7805      0              0              0              0              0             -231.72029    
    643250   1551.9831      274.1328       1277.8503      334.42136     -1677.2468      1.0177122      4455.7805      0              0              0              0              0             -231.88541    
    643500   1536.0756      246.41532      1289.6603      300.60812     -1840.9296      1.0177122      4455.7805      0              0              0              0              0             -231.55128    
    643750   1536.6498      255.79536      1280.8544      312.05106     -2704.2457      1.0177122      4455.7805      0              0              0              0              0             -232.23558    
    644000   1540.9373      253.60409      1287.3332      309.37788      3692.8542      1.0177122      4455.7805      0              0              0              0              0             -232.7671     
    644250   1503.3929      232.18822      1271.2047      283.25213     -2202.7838      1.0177122      4455.7805      0              0              0              0              0             -230.78414    
    644500   1543.6551      237.06046      1306.5946      289.1959      -1833.4619      1.0177122      4455.7805      0              0              0              0              0             -231.8317     
    644750   1534.9633      264.65508      1270.3082      322.85926     -3415.3084      1.0177122      4455.7805      0              0              0              0              0             -231.1349     
    645000   1545.1137      245.86612      1299.2475      299.93814      25.970629      1.0177122      4455.7805      0              0              0              0              0             -230.79154    
    645250   1540.7038      254.92975      1285.7741      310.99508      1096.458       1.0177122      4455.7805      0              0              0              0              0             -233.29861    
    645500   1534.8937      262.5678       1272.3259      320.31293     -1546.5478      1.0177122      4455.7805      0              0              0              0              0             -230.73498    
    645750   1518.8985      244.36751      1274.531       298.10995      3168.3968      1.0177122      4455.7805      0              0              0              0              0             -232.61215    
    646000   1546.2124      260.10527      1286.1071      317.30883     -2287.0412      1.0177122      4455.7805      0              0              0              0              0             -232.14884    
    646250   1566.2868      276.32824      1289.9585      337.09963     -3476.0331      1.0177122      4455.7805      0              0              0              0              0             -230.31979    
    646500   1564.1902      276.31697      1287.8732      337.08588     -1164.5976      1.0177122      4455.7805      0              0              0              0              0             -232.57127    
    646750   1543.569       244.61712      1298.9518      298.41446      2215.4052      1.0177122      4455.7805      0              0              0              0              0             -232.30857    
    647000   1504.4544      247.92504      1256.5294      302.44986     -1049.0105      1.0177122      4455.7805      0              0              0              0              0             -231.1222     
    647250   1544.445       263.08247      1281.3625      320.94079     -2419.3798      1.0177122      4455.7805      0              0              0              0              0             -232.38953    
    647500   1513.2343      233.4023       1279.832       284.73322     -1262.1092      1.0177122      4455.7805      0              0              0              0              0             -232.1761     
    647750   1536.3137      239.50195      1296.8118      292.17433      4216.8785      1.0177122      4455.7805      0              0              0              0              0             -232.81042    
    648000   1544.4405      255.9454       1288.4951      312.23409      1316.605       1.0177122      4455.7805      0              0              0              0              0             -231.63755    
    648250   1546.0107      255.28381      1290.7269      311.42701     -3229.0145      1.0177122      4455.7805      0              0              0              0              0             -231.54093    
    648500   1520.7473      244.44279      1276.3045      298.20179     -422.52924      1.0177122      4455.7805      0              0              0              0              0             -231.41598    
    648750   1524.9307      237.45348      1287.4772      289.67535     -3524.1153      1.0177122      4455.7805      0              0              0              0              0             -232.32229    
    649000   1515.8714      234.31385      1281.5575      285.84524      2436.1993      1.0177122      4455.7805      0              0              0              0              0             -232.83636    
    649250   1555.693       266.69437      1288.9986      325.34704      1002.7844      1.0177122      4455.7805      0              0              0              0              0             -232.38555    
    649500   1512.0256      252.5799       1259.4457      308.12844     -4651.3111      1.0177122      4455.7805      0              0              0              0              0             -231.72099    
    649750   1542.4664      256.95211      1285.5143      313.46222     -1332.9964      1.0177122      4455.7805      0              0              0              0              0             -231.13174    
    650000   1551.1092      275.29231      1275.8169      335.83587      1649.5732      1.0177122      4455.7805      0              0              0              0              0             -233.16686    
    650250   1561.8182      264.61288      1297.2053      322.80777     -2689.7484      1.0177122      4455.7805      0              0              0              0              0             -231.48275    
    650500   1519.0592      237.69833      1281.3608      289.97405     -841.64228      1.0177122      4455.7805      0              0              0              0              0             -232.4507     
    650750   1559.5877      263.51241      1296.0753      321.46529     -1375.3209      1.0177122      4455.7805      0              0              0              0              0             -233.23726    
    651000   1559.1274      282.88587      1276.2415      345.09944     -1826.6889      1.0177122      4455.7805      0              0              0              0              0             -230.3232     
    651250   1539.9994      245.97662      1294.0228      300.07294      1901.6444      1.0177122      4455.7805      0              0              0              0              0             -232.76486    
    651500   1524.8318      253.50588      1271.3259      309.25807      30.182169      1.0177122      4455.7805      0              0              0              0              0             -232.09913    
    651750   1511.4087      245.5163       1265.8924      299.51138      3043.1107      1.0177122      4455.7805      0              0              0              0              0             -232.37103    
    652000   1565.5156      261.07131      1304.4443      318.48733     -3129.1835      1.0177122      4455.7805      0              0              0              0              0             -231.15765    
    652250   1540.0321      266.66773      1273.3644      325.31454     -2513.5692      1.0177122      4455.7805      0              0              0              0              0             -232.0144     
    652500   1521.9047      245.1219       1276.7828      299.03024      6885.618       1.0177122      4455.7805      0              0              0              0              0             -232.33195    
    652750   1518.0039      231.66416      1286.3398      282.61282     -2211.4234      1.0177122      4455.7805      0              0              0              0              0             -232.62639    
    653000   1510.6239      254.62056      1256.0034      310.61789      1173.9478      1.0177122      4455.7805      0              0              0              0              0             -231.19264    
    653250   1546.0851      245.95541      1300.1297      300.04706     -6257.4671      1.0177122      4455.7805      0              0              0              0              0             -231.55478    
    653500   1556.8143      258.58226      1298.232       315.45088      2870.0013      1.0177122      4455.7805      0              0              0              0              0             -233.17702    
    653750   1525.4873      253.5878       1271.8995      309.358       -731.86765      1.0177122      4455.7805      0              0              0              0              0             -230.78536    
    654000   1554.6353      257.14028      1297.495       313.69177     -5377.2781      1.0177122      4455.7805      0              0              0              0              0             -231.5988     
    654250   1483.5109      224.206        1259.3049      273.51442      1408.9153      1.0177122      4455.7805      0              0              0              0              0             -231.26709    
    654500   1527.6136      254.15876      1273.4548      310.05454     -935.56987      1.0177122      4455.7805      0              0              0              0              0             -230.77364    
    654750   1511.0809      246.24671      1264.8342      300.40243     -2496.2993      1.0177122      4455.7805      0              0              0              0              0             -230.50174    
    655000   1520.6658      236.30508      1284.3607      288.27439     -1060.5073      1.0177122      4455.7805      0              0              0              0              0             -230.95114    
    655250   1527.4546      260.60839      1266.8462      317.9226      -1167.8552      1.0177122      4455.7805      0              0              0              0              0             -232.09263    
    655500   1539.4763      241.04107      1298.4352      294.05194     -1794.3192      1.0177122      4455.7805      0              0              0              0              0             -232.21937    
    655750   1540.3367      254.2309       1286.1058      310.14254      775.79321      1.0177122      4455.7805      0              0              0              0              0             -233.55163    
    656000   1516.9298      259.40166      1257.5281      316.45048     -1981.4079      1.0177122      4455.7805      0              0              0              0              0             -231.38693    
    656250   1517.6778      240.53469      1277.1431      293.43419      10.866103      1.0177122      4455.7805      0              0              0              0              0             -232.70324    
    656500   1519.4239      232.89353      1286.5304      284.11256     -2124.4052      1.0177122      4455.7805      0              0              0              0              0             -229.44145    
    656750   1517.6244      235.07029      1282.5541      286.76803     -5993.1981      1.0177122      4455.7805      0              0              0              0              0             -231.72103    
    657000   1558.6363      274.5521       1284.0842      334.93288      1758.8045      1.0177122      4455.7805      0              0              0              0              0             -231.73504    
    657250   1531.733       257.49681      1274.2362      314.1267      -97.789175      1.0177122      4455.7805      0              0              0              0              0             -230.6023     
    657500   1548.2316      271.86802      1276.3636      331.6585       2128.1509      1.0177122      4455.7805      0              0              0              0              0             -233.1038     
    657750   1556.691       273.30321      1283.3878      333.40932     -2553.5106      1.0177122      4455.7805      0              0              0              0              0             -232.2397     
    658000   1534.1468      244.66444      1289.4823      298.47218     -2643.3075      1.0177122      4455.7805      0              0              0              0              0             -231.617      
    658250   1542.6514      258.45496      1284.1965      315.29557     -144.14645      1.0177122      4455.7805      0              0              0              0              0             -232.06711    
    658500   1568.642       273.99912      1294.6429      334.25828     -4747.7959      1.0177122      4455.7805      0              0              0              0              0             -231.05025    
    658750   1538.1863      245.67294      1292.5133      299.70247      1276.2447      1.0177122      4455.7805      0              0              0              0              0             -232.76981    
    659000   1551.7547      261.86572      1289.889       319.45644     -42.970629      1.0177122      4455.7805      0              0              0              0              0             -232.22038    
    659250   1539.3432      246.6303       1292.7129      300.87038     -531.17632      1.0177122      4455.7805      0              0              0              0              0             -230.98657    
    659500   1534.4137      223.08879      1311.3249      272.15152     -4957.5485      1.0177122      4455.7805      0              0              0              0              0             -232.06506    
    659750   1494.3885      230.18239      1264.2061      280.80518     -1787.8278      1.0177122      4455.7805      0              0              0              0              0             -231.97664    
    660000   1533.8234      253.59751      1280.2259      309.36985      4342.3201      1.0177122      4455.7805      0              0              0              0              0             -233.22075    
    660250   1531.9409      247.84464      1284.0963      302.35178     -2960.3031      1.0177122      4455.7805      0              0              0              0              0             -231.81081    
    660500   1554.3673      260.54864      1293.8186      317.84971     -886.39253      1.0177122      4455.7805      0              0              0              0              0             -232.2488     
    660750   1543.018       266.87413      1276.1439      325.56633     -2096.7222      1.0177122      4455.7805      0              0              0              0              0             -231.42217    
    661000   1542.4337      258.32502      1284.1087      315.13706     -1330.9381      1.0177122      4455.7805      0              0              0              0              0             -232.94497    
    661250   1520.8116      249.84001      1270.9716      304.78598      1223.2852      1.0177122      4455.7805      0              0              0              0              0             -232.83088    
    661500   1518.0992      242.08292      1276.0163      295.32292     -1583.121       1.0177122      4455.7805      0              0              0              0              0             -232.85763    
    661750   1514.0695      242.34051      1271.729       295.63716     -1738.4201      1.0177122      4455.7805      0              0              0              0              0             -231.15486    
    662000   1504.7477      242.20611      1262.5416      295.4732       1234.471       1.0177122      4455.7805      0              0              0              0              0             -231.36624    
    662250   1546.2645      249.62386      1296.6406      304.52229     -1024.074       1.0177122      4455.7805      0              0              0              0              0             -231.74257    
    662500   1531.2937      244.6726       1286.6211      298.48214     -379.5685       1.0177122      4455.7805      0              0              0              0              0             -229.94553    
    662750   1536.0442      252.18815      1283.856       307.65053     -310.96375      1.0177122      4455.7805      0              0              0              0              0             -230.95184    
    663000   1548.6698      262.39164      1286.2782      320.09803     -3517.9307      1.0177122      4455.7805      0              0              0              0              0             -232.69448    
    663250   1531.5157      243.89624      1287.6195      297.53504     -4516.5818      1.0177122      4455.7805      0              0              0              0              0             -231.46158    
    663500   1536.9716      244.44969      1292.5219      298.2102      -2072.8754      1.0177122      4455.7805      0              0              0              0              0             -230.67853    
    663750   1538.2546      259.40529      1278.8493      316.45491     -708.05325      1.0177122      4455.7805      0              0              0              0              0             -230.84351    
    664000   1533.9984      246.7173       1287.2811      300.97651      4280.6731      1.0177122      4455.7805      0              0              0              0              0             -233.20647    
    664250   1540.5244      246.53174      1293.9926      300.75014     -4117.8327      1.0177122      4455.7805      0              0              0              0              0             -231.13307    
    664500   1585.1219      259.62472      1325.4972      316.72259     -1750.2997      1.0177122      4455.7805      0              0              0              0              0             -232.40603    
    664750   1529.6155      256.77322      1272.8423      313.24398      3337.5042      1.0177122      4455.7805      0              0              0              0              0             -231.00538    
    665000   1523.3682      241.86036      1281.5079      295.05141      83.750038      1.0177122      4455.7805      0              0              0              0              0             -230.47266    
    665250   1540.0148      260.98233      1279.0324      318.37877      2221.3372      1.0177122      4455.7805      0              0              0              0              0             -233.74066    
    665500   1512.8993      236.53069      1276.3686      288.54962     -3029.5437      1.0177122      4455.7805      0              0              0              0              0             -231.39425    
    665750   1557.8841      273.93229      1283.9518      334.17675     -894.16298      1.0177122      4455.7805      0              0              0              0              0             -230.70016    
    666000   1553.6469      266.33776      1287.3091      324.912        2446.2583      1.0177122      4455.7805      0              0              0              0              0             -233.45876    
    666250   1523.715       249.0632       1274.6518      303.83834     -4167.6958      1.0177122      4455.7805      0              0              0              0              0             -232.95462    
    666500   1538.5949      238.54688      1300.0481      291.00922     -62.167011      1.0177122      4455.7805      0              0              0              0              0             -233.74759    
    666750   1511.9008      238.23257      1273.6683      290.62578      378.16163      1.0177122      4455.7805      0              0              0              0              0             -231.0922     
    667000   1525.9992      251.01223      1274.987       306.21601      908.1844       1.0177122      4455.7805      0              0              0              0              0             -232.65297    
    667250   1552.3116      267.01659      1285.2951      325.74011     -4001.4816      1.0177122      4455.7805      0              0              0              0              0             -230.81348    
    667500   1549.6064      260.11349      1289.4929      317.31886      218.3412       1.0177122      4455.7805      0              0              0              0              0             -232.00183    
    667750   1543.2616      232.48768      1310.7739      283.61745     -9288.5269      1.0177122      4455.7805      0              0              0              0              0             -231.5292     
    668000   1571.677       259.8074       1311.8697      316.94544     -314.19267      1.0177122      4455.7805      0              0              0              0              0             -230.70575    
    668250   1570.8052      275.64126      1295.1639      336.26156      1435.6628      1.0177122      4455.7805      0              0              0              0              0             -232.26359    
    668500   1559.794       259.17051      1300.6235      316.16849      1125.8946      1.0177122      4455.7805      0              0              0              0              0             -232.79411    
    668750   1523.2016      237.93577      1285.2658      290.26371     -556.14634      1.0177122      4455.7805      0              0              0              0              0             -232.6505     
    669000   1507.7486      233.72256      1274.0261      285.12392     -345.72965      1.0177122      4455.7805      0              0              0              0              0             -233.18998    
    669250   1545.7207      265.6884       1280.0323      324.11983     -239.18124      1.0177122      4455.7805      0              0              0              0              0             -231.13598    
    669500   1519.3636      239.4068       1279.9568      292.05826      153.49425      1.0177122      4455.7805      0              0              0              0              0             -231.24229    
    669750   1527.4107      258.5937       1268.817       315.46482     -1118.9253      1.0177122      4455.7805      0              0              0              0              0             -231.8693     
    670000   1513.0632      246.2567       1266.8065      300.41462      841.72583      1.0177122      4455.7805      0              0              0              0              0             -232.95937    
    670250   1545.0467      254.20085      1290.8459      310.10588      250.88161      1.0177122      4455.7805      0              0              0              0              0             -231.68658    
    670500   1517.3656      243.06256      1274.303       296.51801     -4025.3988      1.0177122      4455.7805      0              0              0              0              0             -231.92035    
    670750   1550.1374      237.27616      1312.8613      289.45904      957.8159       1.0177122      4455.7805      0              0              0              0              0             -232.43136    
    671000   1560.193       259.51589      1300.6771      316.58983     -1209.9997      1.0177122      4455.7805      0              0              0              0              0             -232.27494    
    671250   1516.9094      240.46543      1276.444       293.3497       449.86875      1.0177122      4455.7805      0              0              0              0              0             -232.20707    
    671500   1536.8046      244.69489      1292.1097      298.50932     -2093.9647      1.0177122      4455.7805      0              0              0              0              0             -231.45536    
    671750   1561.7092      268.64525      1293.0639      327.72697     -3683.8136      1.0177122      4455.7805      0              0              0              0              0             -231.55357    
    672000   1532.3119      257.47691      1274.835       314.10243     -3671.276       1.0177122      4455.7805      0              0              0              0              0             -233.25668    
    672250   1551.1821      267.14964      1284.0325      325.90243     -297.94481      1.0177122      4455.7805      0              0              0              0              0             -231.42121    
    672500   1553.1398      249.55092      1303.5889      304.43331      763.80056      1.0177122      4455.7805      0              0              0              0              0             -232.36204    
    672750   1506.7368      236.474        1270.2628      288.48046     -1611.0339      1.0177122      4455.7805      0              0              0              0              0             -231.00283    
    673000   1528.6449      245.13517      1283.5097      299.04644     -1940.5296      1.0177122      4455.7805      0              0              0              0              0             -230.85504    
    673250   1543.4955      261.47009      1282.0255      318.97381     -4024.1249      1.0177122      4455.7805      0              0              0              0              0             -231.88282    
    673500   1534.4656      251.99343      1282.4722      307.413       -175.5161       1.0177122      4455.7805      0              0              0              0              0             -231.05545    
    673750   1520.3569      239.37608      1280.9809      292.02078     -4477.4289      1.0177122      4455.7805      0              0              0              0              0             -231.00824    
    674000   1531.9334      266.91219      1265.0212      325.61275     -2081.3473      1.0177122      4455.7805      0              0              0              0              0             -231.84548    
    674250   1531.0759      242.79238      1288.2835      296.18841     -3039.5654      1.0177122      4455.7805      0              0              0              0              0             -229.60117    
    674500   1519.0933      255.59517      1263.4981      311.80685     -787.3922       1.0177122      4455.7805      0              0              0              0              0             -230.66203    
    674750   1531.4504      249.22678      1282.2236      304.03789     -4609.3145      1.0177122      4455.7805      0              0              0              0              0             -232.18921    
    675000   1521.038       241.56549      1279.4725      294.69169      1644.8668      1.0177122      4455.7805      0              0              0              0              0             -232.38532    
    675250   1512.5003      238.0506       1274.4497      290.40379     -3349.1304      1.0177122      4455.7805      0              0              0              0              0             -232.85692    
    675500   1521.7802      232.04612      1289.7341      283.07878      3131.032       1.0177122      4455.7805      0              0              0              0              0             -232.51958    
    675750   1537.8644      251.02885      1286.8356      306.23628     -1736.2756      1.0177122      4455.7805      0              0              0              0              0             -233.01958    
    676000   1533.68        248.20595      1285.4741      302.79256      4628.9428      1.0177122      4455.7805      0              0              0              0              0             -233.01819    
    676250   1545.4755      259.39465      1286.0808      316.44192     -7169.6274      1.0177122      4455.7805      0              0              0              0              0             -231.72363    
    676500   1536.3498      247.16169      1289.1881      301.51864     -3501.3039      1.0177122      4455.7805      0              0              0              0              0             -232.76808    
    676750   1554.983       281.21988      1273.7631      343.06706     -349.66479      1.0177122      4455.7805      0              0              0              0              0             -229.97954    
    677000   1528.9501      246.45227      1282.4978      300.65319     -2250.2685      1.0177122      4455.7805      0              0              0              0              0             -230.93392    
    677250   1544.6979      256.155        1288.5429      312.4898       101.02065      1.0177122      4455.7805      0              0              0              0              0             -232.91586    
    677500   1505.4592      246.12149      1259.3377      300.24968      162.62671      1.0177122      4455.7805      0              0              0              0              0             -232.13359    
    677750   1530.5008      249.43156      1281.0692      304.2877      -1259.0593      1.0177122      4455.7805      0              0              0              0              0             -232.40801    
    678000   1534.4121      246.82017      1287.592       301.10201      772.4421       1.0177122      4455.7805      0              0              0              0              0             -233.00493    
    678250   1536.1666      249.52545      1286.6411      304.40224     -1676.5974      1.0177122      4455.7805      0              0              0              0              0             -231.92636    
    678500   1506.1828      242.77659      1263.4062      296.16914      3690.0613      1.0177122      4455.7805      0              0              0              0              0             -231.55169    
    678750   1514.1713      234.02347      1280.1478      285.491       -3899.582       1.0177122      4455.7805      0              0              0              0              0             -229.87622    
    679000   1478.8624      227.28701      1251.5754      277.27303     -3058.5768      1.0177122      4455.7805      0              0              0              0              0             -231.35044    
    679250   1536.7222      256.70568      1280.0165      313.16158      154.41397      1.0177122      4455.7805      0              0              0              0              0             -233.0465     
    679500   1553.5834      268.04786      1285.5355      326.99819     -2207.9061      1.0177122      4455.7805      0              0              0              0              0             -231.80905    
    679750   1549.4648      248.09875      1301.366       302.66178     -6772.479       1.0177122      4455.7805      0              0              0              0              0             -231.39619    
    680000   1539.2495      262.19915      1277.0504      319.86321     -1586.2549      1.0177122      4455.7805      0              0              0              0              0             -232.39431    
    680250   1510.0299      228.34352      1281.6864      278.56188     -756.474        1.0177122      4455.7805      0              0              0              0              0             -232.45568    
    680500   1541.9482      265.26799      1276.6802      323.60696     -5110.9569      1.0177122      4455.7805      0              0              0              0              0             -231.68429    
    680750   1535.3361      244.1046       1291.2315      297.78922     -2344.003       1.0177122      4455.7805      0              0              0              0              0             -232.72806    
    681000   1536.6001      247.77394      1288.8262      302.26553     -2324.7813      1.0177122      4455.7805      0              0              0              0              0             -231.65634    
    681250   1526.7883      244.94185      1281.8465      298.8106      -3317.0859      1.0177122      4455.7805      0              0              0              0              0             -232.17786    
    681500   1562.5678      272.25477      1290.313       332.1303       48.160354      1.0177122      4455.7805      0              0              0              0              0             -231.6652     
    681750   1530.5383      246.26017      1284.2781      300.41885     -2585.4757      1.0177122      4455.7805      0              0              0              0              0             -233.37393    
    682000   1545.2917      266.69918      1278.5925      325.3529       1272.0168      1.0177122      4455.7805      0              0              0              0              0             -233.92355    
    682250   1526.9962      242.53717      1284.459       295.87707     -5388.547       1.0177122      4455.7805      0              0              0              0              0             -230.78504    
    682500   1522.4886      244.63204      1277.8566      298.43266     -820.54899      1.0177122      4455.7805      0              0              0              0              0             -232.59315    
    682750   1511.6406      235.47055      1276.17        287.25633     -2373.9631      1.0177122      4455.7805      0              0              0              0              0             -232.1463     
    683000   1552.7967      264.10736      1288.6894      322.19108     -4745.5588      1.0177122      4455.7805      0              0              0              0              0             -230.74959    
    683250   1522.5737      248.69096      1273.8828      303.38424      1007.1404      1.0177122      4455.7805      0              0              0              0              0             -231.59957    
    683500   1523.0628      243.60817      1279.4546      297.1836      -2855.0639      1.0177122      4455.7805      0              0              0              0              0             -231.43511    
    683750   1509.9353      227.43044      1282.5048      277.448        861.14247      1.0177122      4455.7805      0              0              0              0              0             -232.87548    
    684000   1566.5713      268.4818       1298.0895      327.52756     -2037.1879      1.0177122      4455.7805      0              0              0              0              0             -232.82012    
    684250   1539.8484      260.1125       1279.7359      317.31765     -1967.0137      1.0177122      4455.7805      0              0              0              0              0             -231.89587    
    684500   1541.0529      265.07131      1275.9816      323.36702      1540.2462      1.0177122      4455.7805      0              0              0              0              0             -232.58955    
    684750   1491.7129      225.08743      1266.6255      274.5897      -648.9865       1.0177122      4455.7805      0              0              0              0              0             -232.92906    
    685000   1544.9892      275.89861      1269.0906      336.57551      21.21527       1.0177122      4455.7805      0              0              0              0              0             -232.82153    
    685250   1518.6046      244.20044      1274.4042      297.90613      778.52385      1.0177122      4455.7805      0              0              0              0              0             -232.19531    
    685500   1557.2774      259.20362      1298.0738      316.20889      791.0957       1.0177122      4455.7805      0              0              0              0              0             -233.66367    
    685750   1551.8221      259.50108      1292.321       316.57176     -2162.5975      1.0177122      4455.7805      0              0              0              0              0             -231.9241     
    686000   1546.0213      262.96995      1283.0513      320.80353     -694.14533      1.0177122      4455.7805      0              0              0              0              0             -230.49257    
    686250   1519.3366      238.98268      1280.354       291.54086     -3171.9393      1.0177122      4455.7805      0              0              0              0              0             -232.54977    
    686500   1559.9984      279.39947      1280.5989      340.8463       441.74807      1.0177122      4455.7805      0              0              0              0              0             -232.60847    
    686750   1524.7299      243.75313      1280.9768      297.36045     -335.58891      1.0177122      4455.7805      0              0              0              0              0             -231.86924    
    687000   1529.3489      264.73486      1264.614       322.95658     -4641.7739      1.0177122      4455.7805      0              0              0              0              0             -230.7294     
    687250   1536.7896      242.1504       1294.6392      295.40524     -2870.3872      1.0177122      4455.7805      0              0              0              0              0             -231.70724    
    687500   1522.5408      251.80438      1270.7365      307.18237     -2589.7666      1.0177122      4455.7805      0              0              0              0              0             -230.69718    
    687750   1532.5978      252.70278      1279.8951      308.27834      484.94549      1.0177122      4455.7805      0              0              0              0              0             -231.6219     
    688000   1541.0539      240.8093       1300.2446      293.76919     -2773.3199      1.0177122      4455.7805      0              0              0              0              0             -232.39671    
    688250   1531.382       262.56715      1268.8148      320.31213      1023.5125      1.0177122      4455.7805      0              0              0              0              0             -230.95765    
    688500   1544.8402      267.19659      1277.6436      325.95971     -1774.7747      1.0177122      4455.7805      0              0              0              0              0             -232.89181    
    688750   1525.8107      261.51326      1264.2975      319.02647     -3462.6629      1.0177122      4455.7805      0              0              0              0              0             -230.8363     
    689000   1521.0998      244.55525      1276.5446      298.33897     -3533.3041      1.0177122      4455.7805      0              0              0              0              0             -232.57579    
    689250   1521.1507      251.686        1269.4647      307.03795     -2335.1167      1.0177122      4455.7805      0              0              0              0              0             -232.52101    
    689500   1526.7276      247.20021      1279.5274      301.56563      3254.1237      1.0177122      4455.7805      0              0              0              0              0             -232.08114    
    689750   1511.511       249.08597      1262.4251      303.86611      1147.4625      1.0177122      4455.7805      0              0              0              0              0             -232.38941    
    690000   1531.6879      266.41584      1265.2721      325.00725     -202.63418      1.0177122      4455.7805      0              0              0              0              0             -232.1227     
    690250   1527.8301      247.09956      1280.7305      301.44284     -405.4992       1.0177122      4455.7805      0              0              0              0              0             -230.15023    
    690500   1542.4843      266.70213      1275.7822      325.3565       4142.4605      1.0177122      4455.7805      0              0              0              0              0             -232.15283    
    690750   1529.9531      256.78776      1273.1653      313.26172     -1063.8683      1.0177122      4455.7805      0              0              0              0              0             -231.43414    
    691000   1514.2546      247.78402      1266.4706      302.27783     -413.69713      1.0177122      4455.7805      0              0              0              0              0             -231.87837    
    691250   1525.2334      251.90348      1273.33        307.30327     -4232.3681      1.0177122      4455.7805      0              0              0              0              0             -231.36117    
    691500   1514.1671      229.36992      1284.7972      279.81402     -1392.7102      1.0177122      4455.7805      0              0              0              0              0             -231.18803    
    691750   1505.3392      236.55111      1268.7881      288.57453      139.94864      1.0177122      4455.7805      0              0              0              0              0             -232.50091    
    692000   1527.1547      266.5914       1260.5633      325.22141     -1820.3788      1.0177122      4455.7805      0              0              0              0              0             -231.57582    
    692250   1533.3405      251.24943      1282.0911      306.50537     -2258.5425      1.0177122      4455.7805      0              0              0              0              0             -230.27098    
    692500   1548.6926      264.26086      1284.4317      322.37834     -3120.1191      1.0177122      4455.7805      0              0              0              0              0             -231.12429    
    692750   1559.8477      261.18041      1298.6673      318.62042      2167.9607      1.0177122      4455.7805      0              0              0              0              0             -233.4574     
    693000   1534.1771      242.31491      1291.8622      295.60592     -4202.5993      1.0177122      4455.7805      0              0              0              0              0             -232.37976    
    693250   1527.6758      258.61547      1269.0603      315.49139     -4382.9169      1.0177122      4455.7805      0              0              0              0              0             -231.81404    
    693500   1543.4562      251.81388      1291.6423      307.19396     -3370.9989      1.0177122      4455.7805      0              0              0              0              0             -233.70197    
    693750   1497.6748      223.32005      1274.3547      272.43363     -3862.8168      1.0177122      4455.7805      0              0              0              0              0             -232.35494    
    694000   1571.0806      248.70408      1322.3765      303.40024     -53.095175      1.0177122      4455.7805      0              0              0              0              0             -232.25701    
    694250   1512.2558      249.53489      1262.7209      304.41376     -2279.3476      1.0177122      4455.7805      0              0              0              0              0             -231.94575    
    694500   1522.1382      253.18279      1268.9554      308.86392     -1702.9221      1.0177122      4455.7805      0              0              0              0              0             -230.60899    
    694750   1553.6658      263.53637      1290.1294      321.49451      1391.0689      1.0177122      4455.7805      0              0              0              0              0             -231.809      
    695000   1544.4204      249.36718      1295.0532      304.20916      552.27569      1.0177122      4455.7805      0              0              0              0              0             -232.57755    
    695250   1506.2947      241.20341      1265.0913      294.24999     -1156.21        1.0177122      4455.7805      0              0              0              0              0             -232.18062    
    695500   1521.693       254.3078       1267.3852      310.23635      1824.2915      1.0177122      4455.7805      0              0              0              0              0             -232.27103    
    695750   1510.8559      251.33329      1259.5226      306.60767      1513.9312      1.0177122      4455.7805      0              0              0              0              0             -231.12476    
    696000   1552.5709      267.41287      1285.158       326.22355     -7233.7081      1.0177122      4455.7805      0              0              0              0              0             -231.13706    
    696250   1559.35        259.3113       1300.0387      316.34025     -5243.6054      1.0177122      4455.7805      0              0              0              0              0             -231.5036     
    696500   1541.8241      241.04899      1300.7751      294.06161     -6587.4478      1.0177122      4455.7805      0              0              0              0              0             -231.6077     
    696750   1518.9064      243.52385      1275.3825      297.08075      889.13072      1.0177122      4455.7805      0              0              0              0              0             -232.21533    
    697000   1514.9195      227.53026      1287.3892      277.56977     -3142.892       1.0177122      4455.7805      0              0              0              0              0             -232.52307    
    697250   1540.23        249.21621      1291.0138      304.025       -5247.5895      1.0177122      4455.7805      0              0              0              0              0             -231.95622    
    697500   1544.3954      239.2583       1305.1371      291.8771      -1295.5919      1.0177122      4455.7805      0              0              0              0              0             -231.78488    
    697750   1565.7127      273.64913      1292.0635      333.83132     -2780.4312      1.0177122      4455.7805      0              0              0              0              0             -231.33716    
    698000   1519.0445      224.64327      1294.4012      274.04786     -4820.8826      1.0177122      4455.7805      0              0              0              0              0             -231.25787    
    698250   1554.0833      265.87585      1288.2074      324.3485       3048.1464      1.0177122      4455.7805      0              0              0              0              0             -233.12795    
    698500   1539.4737      254.62732      1284.8464      310.62614     -3042.1506      1.0177122      4455.7805      0              0              0              0              0             -231.88728    
    698750   1572.8726      258.14947      1314.7231      314.9229      -5557.7044      1.0177122      4455.7805      0              0              0              0              0             -231.93537    
    699000   1544.2958      249.09258      1295.2032      303.87418     -4958.9467      1.0177122      4455.7805      0              0              0              0              0             -231.93669    
    699250   1531.1207      250.11288      1281.0078      305.11887     -6839.7116      1.0177122      4455.7805      0              0              0              0              0             -230.91496    
    699500   1510.4155      249.27355      1261.1419      304.09495     -6266.1702      1.0177122      4455.7805      0              0              0              0              0             -231.75058    
    699750   1530.1134      244.57641      1285.537       298.36479     -888.9366       1.0177122      4455.7805      0              0              0              0              0             -230.42997    
    700000   1510.554       227.83334      1282.7207      277.93951     -2295.9667      1.0177122      4455.7805      0              0              0              0              0             -232.02966    
    700250   1500.1013      235.48032      1264.621       287.26824     -1475.6385      1.0177122      4455.7805      0              0              0              0              0             -230.2682     
    700500   1502.1117      222.33679      1279.7749      271.23413     -2077.5559      1.0177122      4455.7805      0              0              0              0              0             -232.02195    
    700750   1526.3116      242.42461      1283.887       295.73975     -6222.9771      1.0177122      4455.7805      0              0              0              0              0             -232.00357    
    701000   1544.3515      261.056        1283.2955      318.46865     -1425.9264      1.0177122      4455.7805      0              0              0              0              0             -231.6047     
    701250   1552.8885      267.58728      1285.3012      326.43632     -1516.8478      1.0177122      4455.7805      0              0              0              0              0             -231.58098    
    701500   1512.1927      222.90292      1289.2898      271.92477     -4848.3423      1.0177122      4455.7805      0              0              0              0              0             -232.31565    
    701750   1542.7437      266.87343      1275.8703      325.56547      849.63566      1.0177122      4455.7805      0              0              0              0              0             -231.89091    
    702000   1522.5261      253.69196      1268.8341      309.48507     -1527.5999      1.0177122      4455.7805      0              0              0              0              0             -230.63404    
    702250   1548.6291      255.05039      1293.5787      311.14226     -1713.9632      1.0177122      4455.7805      0              0              0              0              0             -230.87726    
    702500   1520.5201      231.90154      1288.6185      282.9024      -2168.3672      1.0177122      4455.7805      0              0              0              0              0             -232.77633    
    702750   1529.8601      253.47341      1276.3867      309.21846     -4067.0302      1.0177122      4455.7805      0              0              0              0              0             -230.98955    
    703000   1553.7297      264.39865      1289.3311      322.54642     -344.1054       1.0177122      4455.7805      0              0              0              0              0             -230.95009    
    703250   1521.7802      232.00841      1289.7718      283.03278     -3038.5316      1.0177122      4455.7805      0              0              0              0              0             -230.22578    
    703500   1546.3975      267.64553      1278.7519      326.50738     -1163.7354      1.0177122      4455.7805      0              0              0              0              0             -232.46256    
    703750   1548.4913      264.62242      1283.8689      322.81941      1301.2378      1.0177122      4455.7805      0              0              0              0              0             -233.15965    
    704000   1543.8244      260.10723      1283.7172      317.31122     -751.8786       1.0177122      4455.7805      0              0              0              0              0             -233.19336    
    704250   1533.5453      251.1751       1282.3702      306.41469     -15.947001      1.0177122      4455.7805      0              0              0              0              0             -232.79765    
    704500   1547.4033      252.8959       1294.5074      308.51394     -2015.0333      1.0177122      4455.7805      0              0              0              0              0             -231.51976    
    704750   1509.7906      220.47221      1289.3184      268.95948     -3890.075       1.0177122      4455.7805      0              0              0              0              0             -232.29277    
    705000   1514.0496      245.64661      1268.403       299.67035     -1110.6046      1.0177122      4455.7805      0              0              0              0              0             -231.96174    
    705250   1538.5059      273.2972       1265.2087      333.40199     -1220.3815      1.0177122      4455.7805      0              0              0              0              0             -230.79156    
    705500   1534.4919      242.01029      1292.4816      295.23432     -3900.2107      1.0177122      4455.7805      0              0              0              0              0             -233.11646    
    705750   1510.4465      240.32394      1270.1225      293.1771      -3247.0748      1.0177122      4455.7805      0              0              0              0              0             -231.18102    
    706000   1516.6477      243.52233      1273.1253      297.0789      -226.36341      1.0177122      4455.7805      0              0              0              0              0             -231.63882    
    706250   1526.8547      244.43183      1282.4229      298.18841     -3481.0065      1.0177122      4455.7805      0              0              0              0              0             -231.60487    
    706500   1527.338       251.62058      1275.7174      306.95815     -1167.4864      1.0177122      4455.7805      0              0              0              0              0             -231.50243    
    706750   1531.8904      253.08166      1278.8087      308.74055      417.69141      1.0177122      4455.7805      0              0              0              0              0             -230.83279    
    707000   1538.5978      259.69992      1278.8979      316.81434     -958.21269      1.0177122      4455.7805      0              0              0              0              0             -232.24254    
    707250   1557.8302      265.71162      1292.1186      324.14815     -2726.6002      1.0177122      4455.7805      0              0              0              0              0             -232.16302    
    707500   1551.4189      259.1246       1292.2943      316.11249     -1610.5764      1.0177122      4455.7805      0              0              0              0              0             -232.95756    
    707750   1486.4087      220.6187       1265.79        269.13818     -2323.2956      1.0177122      4455.7805      0              0              0              0              0             -231.40251    
    708000   1542.1711      254.65041      1287.5207      310.65431     -381.73156      1.0177122      4455.7805      0              0              0              0              0             -230.94966    
    708250   1524.1711      253.27719      1270.8939      308.97908     -1168.2748      1.0177122      4455.7805      0              0              0              0              0             -232.18551    
    708500   1519.8785      253.42092      1266.4576      309.15442      2583.0106      1.0177122      4455.7805      0              0              0              0              0             -232.78106    
    708750   1531.6446      247.08233      1284.5623      301.42183     -6953.9624      1.0177122      4455.7805      0              0              0              0              0             -231.29392    
    709000   1516.2117      240.73615      1275.4755      293.67996     -1432.2096      1.0177122      4455.7805      0              0              0              0              0             -232.73725    
    709250   1546.921       255.97963      1290.9414      312.27586     -2186.9553      1.0177122      4455.7805      0              0              0              0              0             -232.11308    
    709500   1523.7774      246.30109      1277.4763      300.46876      3106.9306      1.0177122      4455.7805      0              0              0              0              0             -234.00658    
    709750   1495.3587      215.81941      1279.5393      263.28342     -6866.2299      1.0177122      4455.7805      0              0              0              0              0             -232.08356    
    710000   1542.6073      272.26454      1270.3428      332.14223     -1670.0633      1.0177122      4455.7805      0              0              0              0              0             -230.79258    
    710250   1517.9548      238.34555      1279.6093      290.76361     -1960.1132      1.0177122      4455.7805      0              0              0              0              0             -230.75963    
    710500   1519.1595      254.35306      1264.8065      310.29157     -3579.21        1.0177122      4455.7805      0              0              0              0              0             -230.44875    
    710750   1530.1387      246.18753      1283.9512      300.33023      868.33755      1.0177122      4455.7805      0              0              0              0              0             -231.64862    
    711000   1545.2994      261.15627      1284.1431      318.59097     -147.82043      1.0177122      4455.7805      0              0              0              0              0             -231.30436    
    711250   1501.9012      241.23887      1260.6623      294.29324     -3178.881       1.0177122      4455.7805      0              0              0              0              0             -231.392      
    711500   1538.1352      259.61982      1278.5154      316.71661      2288.9474      1.0177122      4455.7805      0              0              0              0              0             -232.16192    
    711750   1548.7034      255.72536      1292.978       311.96567     -2117.7731      1.0177122      4455.7805      0              0              0              0              0             -230.65263    
    712000   1521.8146      240.00326      1281.8113      292.78589     -4510.5297      1.0177122      4455.7805      0              0              0              0              0             -233.7075     
    712250   1517.9304      237.70953      1280.2209      289.98771     -2442.6987      1.0177122      4455.7805      0              0              0              0              0             -233.17217    
    712500   1517.8177      234.04879      1283.7689      285.52189     -2476.2006      1.0177122      4455.7805      0              0              0              0              0             -230.68564    
    712750   1515.86        233.27659      1282.5834      284.57987      3538.8524      1.0177122      4455.7805      0              0              0              0              0             -232.30298    
    713000   1546.4938      269.22294      1277.2709      328.43169     -4259.0588      1.0177122      4455.7805      0              0              0              0              0             -232.05228    
    713250   1558.0717      271.795        1286.2767      331.56942     -1999.4665      1.0177122      4455.7805      0              0              0              0              0             -232.26348    
    713500   1510.1368      242.5626       1267.5742      295.9081      -1233.3275      1.0177122      4455.7805      0              0              0              0              0             -231.23266    
    713750   1502.3855      239.79926      1262.5862      292.53703     -4202.5529      1.0177122      4455.7805      0              0              0              0              0             -231.29078    
    714000   1524.3102      251.50785      1272.8024      306.82062     -1540.1105      1.0177122      4455.7805      0              0              0              0              0             -232.16877    
    714250   1510.9189      246.70865      1264.2103      300.96596     -372.68555      1.0177122      4455.7805      0              0              0              0              0             -230.39223    
    714500   1543.3297      240.92489      1302.4048      293.9102      -1561.5473      1.0177122      4455.7805      0              0              0              0              0             -232.68372    
    714750   1544.2371      264.42464      1279.8124      322.57813     -1540.3651      1.0177122      4455.7805      0              0              0              0              0             -232.56626    
    715000   1559.466       256.50886      1302.9572      312.92148     -3069.5905      1.0177122      4455.7805      0              0              0              0              0             -232.39483    
    715250   1535.3842      254.74008      1280.6441      310.7637      -766.18759      1.0177122      4455.7805      0              0              0              0              0             -230.95103    
    715500   1538.2279      251.70038      1286.5275      307.0555      -1350.6344      1.0177122      4455.7805      0              0              0              0              0             -234.67017    
    715750   1555.8774      271.18754      1284.6899      330.82836     -3584.3244      1.0177122      4455.7805      0              0              0              0              0             -230.99694    
    716000   1530.6654      260.90689      1269.7585      318.28675     -541.4265       1.0177122      4455.7805      0              0              0              0              0             -230.84364    
    716250   1496.5704      222.14052      1274.4299      270.99469     -3957.4227      1.0177122      4455.7805      0              0              0              0              0             -230.90787    
    716500   1534.0584      258.14977      1275.9086      314.92326     -381.37364      1.0177122      4455.7805      0              0              0              0              0             -232.14129    
    716750   1529.1225      251.64349      1277.479       306.98609     -2823.6126      1.0177122      4455.7805      0              0              0              0              0             -232.05761    
    717000   1509.4588      232.95594      1276.5028      284.18869     -3502.6936      1.0177122      4455.7805      0              0              0              0              0             -230.96403    
    717250   1563.9078      276.8355       1287.0723      337.71844     -5097.7073      1.0177122      4455.7805      0              0              0              0              0             -232.71058    
    717500   1525.135       248.76221      1276.3728      303.47115      632.85583      1.0177122      4455.7805      0              0              0              0              0             -232.31837    
    717750   1519.6652      247.15839      1272.5068      301.51461     -627.34774      1.0177122      4455.7805      0              0              0              0              0             -231.37472    
    718000   1524.9673      258.20191      1266.7654      314.98687     -1147.5572      1.0177122      4455.7805      0              0              0              0              0             -232.15498    
    718250   1551.5407      272.47491      1279.0658      332.39886     -3472.5067      1.0177122      4455.7805      0              0              0              0              0             -231.60635    
    718500   1516.0018      231.82299      1284.1788      282.80658     -4279.6867      1.0177122      4455.7805      0              0              0              0              0             -231.64615    
    718750   1541.4085      267.27672      1274.1318      326.05745     -2364.9796      1.0177122      4455.7805      0              0              0              0              0             -231.38633    
    719000   1535.1959      245.3537       1289.8422      299.31302     -4614.5081      1.0177122      4455.7805      0              0              0              0              0             -232.1303     
    719250   1551.8046      253.66978      1298.1348      309.45801      1973.9345      1.0177122      4455.7805      0              0              0              0              0             -233.02796    
    719500   1524.8945      265.00261      1259.8919      323.28322     -1058.0884      1.0177122      4455.7805      0              0              0              0              0             -232.64634    
    719750   1529.1851      246.0642       1283.1209      300.17978     -2316.7633      1.0177122      4455.7805      0              0              0              0              0             -232.62676    
    720000   1509.2398      236.38053      1272.8593      288.36644      1023.5107      1.0177122      4455.7805      0              0              0              0              0             -233.6117     
    720250   1535.4249      251.77422      1283.6507      307.14558     -2957.8649      1.0177122      4455.7805      0              0              0              0              0             -231.95647    
    720500   1535.7581      253.01013      1282.748       308.65329     -2910.7149      1.0177122      4455.7805      0              0              0              0              0             -232.60173    
    720750   1532.1517      253.03928      1279.1124      308.68886     -1696.4386      1.0177122      4455.7805      0              0              0              0              0             -233.55939    
    721000   1527.9236      252.4531       1275.4705      307.97376      1695.9372      1.0177122      4455.7805      0              0              0              0              0             -232.83583    
    721250   1520.2054      243.49428      1276.7111      297.04467     -1208.2032      1.0177122      4455.7805      0              0              0              0              0             -230.65795    
    721500   1526.8527      241.11124      1285.7414      294.13755     -1550.171       1.0177122      4455.7805      0              0              0              0              0             -232.18415    
    721750   1505.4226      237.80965      1267.613       290.10985      1917.4217      1.0177122      4455.7805      0              0              0              0              0             -230.79337    
    722000   1537.1937      256.23999      1280.9538      312.59348     -314.23421      1.0177122      4455.7805      0              0              0              0              0             -231.90852    
    722250   1520.199       233.28621      1286.9128      284.59159     -1513.212       1.0177122      4455.7805      0              0              0              0              0             -230.88411    
    722500   1527.8594      241.87365      1285.9857      295.06762     -6478.508       1.0177122      4455.7805      0              0              0              0              0             -229.71462    
    722750   1527.5145      251.41263      1276.1019      306.70447     -3737.0942      1.0177122      4455.7805      0              0              0              0              0             -232.34219    
    723000   1513.3768      243.95494      1269.4218      297.60665     -1976.4475      1.0177122      4455.7805      0              0              0              0              0             -231.92067    
    723250   1521.4907      240.16373      1281.327       292.98165     -4055.145       1.0177122      4455.7805      0              0              0              0              0             -231.84451    
    723500   1498.2451      224.70535      1273.5397      274.12359     -1312.4331      1.0177122      4455.7805      0              0              0              0              0             -232.63702    
    723750   1527.3217      246.50296      1280.8187      300.71504      179.42998      1.0177122      4455.7805      0              0              0              0              0             -233.20568    
    724000   1519.8097      236.88612      1282.9236      288.98321     -3341.4523      1.0177122      4455.7805      0              0              0              0              0             -232.10825    
    724250   1537.7383      263.57683      1274.1615      321.54387     -2277.7372      1.0177122      4455.7805      0              0              0              0              0             -232.99664    
    724500   1520.7234      227.47152      1293.2519      277.49811     -474.97412      1.0177122      4455.7805      0              0              0              0              0             -231.48396    
    724750   1529.8808      258.97366      1270.9071      315.92835     -974.63734      1.0177122      4455.7805      0              0              0              0              0             -232.35777    
    725000   1538.4063      258.75145      1279.6548      315.65726      1470.1348      1.0177122      4455.7805      0              0              0              0              0             -232.95014    
    725250   1514.8465      231.02354      1283.823       281.8313      -1178.1646      1.0177122      4455.7805      0              0              0              0              0             -233.34404    
    725500   1549.1014      269.34371      1279.7577      328.57902     -3495.1378      1.0177122      4455.7805      0              0              0              0              0             -230.3528     
    725750   1535.9158      246.13738      1289.7784      300.26906     -2804.0669      1.0177122      4455.7805      0              0              0              0              0             -232.19032    
    726000   1524.5792      248.74582      1275.8334      303.45116     -3597.8223      1.0177122      4455.7805      0              0              0              0              0             -232.15552    
    726250   1533.444       246.15834      1287.2856      300.29462     -1811.5416      1.0177122      4455.7805      0              0              0              0              0             -230.36389    
    726500   1536.6778      249.02711      1287.6507      303.79431      530.12972      1.0177122      4455.7805      0              0              0              0              0             -231.83238    
    726750   1528.6709      248.08339      1280.5875      302.64304     -273.3338       1.0177122      4455.7805      0              0              0              0              0             -232.70759    
    727000   1530.156       244.59148      1285.5645      298.38317     -2779.4071      1.0177122      4455.7805      0              0              0              0              0             -229.84615    
    727250   1520.0273      237.5284       1282.4989      289.76675     -6749.9935      1.0177122      4455.7805      0              0              0              0              0             -231.09222    
    727500   1508.8531      255.76983      1253.0833      312.01991     -1956.2705      1.0177122      4455.7805      0              0              0              0              0             -232.7419     
    727750   1538.5275      254.34038      1284.1871      310.2761      -2595.2007      1.0177122      4455.7805      0              0              0              0              0             -231.32115    
    728000   1555.8124      274.88369      1280.9287      335.33739      436.58268      1.0177122      4455.7805      0              0              0              0              0             -232.05211    
    728250   1531.9617      251.4444       1280.5173      306.74322      1396.0904      1.0177122      4455.7805      0              0              0              0              0             -232.66361    
    728500   1547.5539      248.01643      1299.5375      302.56135     -6301.8609      1.0177122      4455.7805      0              0              0              0              0             -231.52695    
    728750   1548.093       262.18559      1285.9074      319.84666     -637.40891      1.0177122      4455.7805      0              0              0              0              0             -232.26979    
    729000   1546.0156      263.85529      1282.1603      321.88357      1422.5169      1.0177122      4455.7805      0              0              0              0              0             -231.43619    
    729250   1564.674       268.71968      1295.9543      327.81776     -2371.6813      1.0177122      4455.7805      0              0              0              0              0             -230.9639     
    729500   1544.1599      281.15137      1263.0086      342.98348     -88.349941      1.0177122      4455.7805      0              0              0              0              0             -232.86265    
    729750   1540.5229      261.49932      1279.0236      319.00946     -1292.9025      1.0177122      4455.7805      0              0              0              0              0             -231.09801    
    730000   1505.7942      223.17732      1282.6169      272.25951     -223.87306      1.0177122      4455.7805      0              0              0              0              0             -231.66669    
    730250   1516.9277      237.52996      1279.3977      289.76865     -4160.0647      1.0177122      4455.7805      0              0              0              0              0             -231.5759     
    730500   1538.353       241.17928      1297.1738      294.22054     -1099.2056      1.0177122      4455.7805      0              0              0              0              0             -231.7457     
    730750   1539.8365      257.02001      1282.8165      313.54504      1485.4006      1.0177122      4455.7805      0              0              0              0              0             -231.8669     
    731000   1537.7547      277.22427      1260.5304      338.19272     -3276.0418      1.0177122      4455.7805      0              0              0              0              0             -232.19744    
    731250   1554.9307      253.42262      1301.5081      309.1565      -3748.2003      1.0177122      4455.7805      0              0              0              0              0             -230.1336     
    731500   1531.0729      244.48571      1286.5872      298.25414     -3933.8516      1.0177122      4455.7805      0              0              0              0              0             -230.7176     
    731750   1509.7954      238.52859      1271.2668      290.98691     -627.27956      1.0177122      4455.7805      0              0              0              0              0             -231.45279    
    732000   1529.1767      249.32692      1279.8498      304.16006     -3173.3786      1.0177122      4455.7805      0              0              0              0              0             -231.99737    
    732250   1535.0504      259.04789      1276.0025      316.0189      -94.127537      1.0177122      4455.7805      0              0              0              0              0             -230.83614    
    732500   1524.8779      252.75097      1272.1269      308.33713      3403.7968      1.0177122      4455.7805      0              0              0              0              0             -231.47268    
    732750   1531.6471      246.4619       1285.1852      300.66495      1577.1887      1.0177122      4455.7805      0              0              0              0              0             -232.68158    
    733000   1551.7563      261.87035      1289.886       319.4621      -3401.9349      1.0177122      4455.7805      0              0              0              0              0             -232.46139    
    733250   1532.9835      262.77405      1270.2094      320.56454     -4177.3054      1.0177122      4455.7805      0              0              0              0              0             -230.73014    
    733500   1505.6597      242.17401      1263.4857      295.43404     -4959.6593      1.0177122      4455.7805      0              0              0              0              0             -230.73651    
    733750   1517.5409      244.77072      1272.7702      298.60183     -2083.6861      1.0177122      4455.7805      0              0              0              0              0             -232.21043    
    734000   1538.2328      266.64354      1271.5893      325.28503     -4282.4183      1.0177122      4455.7805      0              0              0              0              0             -231.39027    
    734250   1537.1925      248.51621      1288.6763      303.17105      4269.1221      1.0177122      4455.7805      0              0              0              0              0             -234.1088     
    734500   1512.4209      239.96524      1272.4557      292.73951      168.40794      1.0177122      4455.7805      0              0              0              0              0             -232.27022    
    734750   1533.4323      240.24312      1293.1892      293.07851     -2917.7355      1.0177122      4455.7805      0              0              0              0              0             -231.22561    
    735000   1508.2173      234.77705      1273.4403      286.41031     -64.62975       1.0177122      4455.7805      0              0              0              0              0             -231.38229    
    735250   1544.0598      248.95208      1295.1077      303.70277     -1798.8285      1.0177122      4455.7805      0              0              0              0              0             -231.84868    
    735500   1536.7803      253.88086      1282.8994      309.71551     -1332.6825      1.0177122      4455.7805      0              0              0              0              0             -231.82142    
    735750   1558.8657      256.6352       1302.2305      313.07561     -5633.2849      1.0177122      4455.7805      0              0              0              0              0             -232.03741    
    736000   1517.9216      231.94364      1285.9779      282.95376      5250.6682      1.0177122      4455.7805      0              0              0              0              0             -233.35943    
    736250   1523.3752      242.40934      1280.9659      295.72112     -9262.4624      1.0177122      4455.7805      0              0              0              0              0             -231.18953    
    736500   1525.3799      256.28682      1269.0931      312.65061     -448.34693      1.0177122      4455.7805      0              0              0              0              0             -233.27269    
    736750   1523.0286      242.23665      1280.792       295.51046     -5668.8126      1.0177122      4455.7805      0              0              0              0              0             -231.50459    
    737000   1527.4188      257.23161      1270.1872      313.80318     -1335.6537      1.0177122      4455.7805      0              0              0              0              0             -232.25953    
    737250   1524.6533      248.23437      1276.4189      302.82722     -2998.2327      1.0177122      4455.7805      0              0              0              0              0             -232.52567    
    737500   1537.0809      249.39242      1287.6884      304.23996     -3207.2112      1.0177122      4455.7805      0              0              0              0              0             -232.078      
    737750   1539.8023      255.05189      1284.7504      311.14409      1656.2141      1.0177122      4455.7805      0              0              0              0              0             -232.12971    
    738000   1523.3525      249.37737      1273.9751      304.2216       1009.2212      1.0177122      4455.7805      0              0              0              0              0             -231.27471    
    738250   1516.0576      246.92174      1269.1358      301.22591     -1801.2379      1.0177122      4455.7805      0              0              0              0              0             -231.53567    
    738500   1502.0064      224.74817      1277.2582      274.17583     -1694.3272      1.0177122      4455.7805      0              0              0              0              0             -232.51576    
    738750   1513.5951      236.28655      1277.3085      288.25178      1654.7865      1.0177122      4455.7805      0              0              0              0              0             -232.79936    
    739000   1531.7832      252.53976      1279.2435      308.07948     -834.78307      1.0177122      4455.7805      0              0              0              0              0             -230.76608    
    739250   1527.1227      255.66         1271.4627      311.88594     -872.8775       1.0177122      4455.7805      0              0              0              0              0             -231.66247    
    739500   1549.9171      252.34001      1297.5771      307.8358      -1523.7351      1.0177122      4455.7805      0              0              0              0              0             -232.03179    
    739750   1533.9205      257.69852      1276.222       314.37277     -1397.4766      1.0177122      4455.7805      0              0              0              0              0             -233.1779     
    740000   1541.6812      264.27504      1277.4061      322.39563     -1796.2354      1.0177122      4455.7805      0              0              0              0              0             -230.3558     
    740250   1524.6289      249.43636      1275.1926      304.29357     -2022.2903      1.0177122      4455.7805      0              0              0              0              0             -231.78529    
    740500   1515.7562      237.70758      1278.0486      289.98534      2704.7481      1.0177122      4455.7805      0              0              0              0              0             -231.60182    
    740750   1514.8202      251.97103      1262.8492      307.38567     -198.20965      1.0177122      4455.7805      0              0              0              0              0             -232.31471    
    741000   1547.0965      280.58659      1266.5099      342.2945      -1441.336       1.0177122      4455.7805      0              0              0              0              0             -233.9586     
    741250   1550.9179      254.16899      1296.7489      310.06702      439.30279      1.0177122      4455.7805      0              0              0              0              0             -231.62567    
    741500   1537.9931      260.54559      1277.4475      317.84599     -448.49981      1.0177122      4455.7805      0              0              0              0              0             -232.92942    
    741750   1519.3678      242.07696      1277.2909      295.31564     -3933.2243      1.0177122      4455.7805      0              0              0              0              0             -232.03187    
    742000   1551.2887      250.22383      1301.0649      305.25421     -548.30799      1.0177122      4455.7805      0              0              0              0              0             -230.92321    
    742250   1517.54        241.50267      1276.0373      294.61506     -4509.4844      1.0177122      4455.7805      0              0              0              0              0             -232.01156    
    742500   1555.2404      266.96727      1288.2732      325.67995     -1053.8568      1.0177122      4455.7805      0              0              0              0              0             -231.27061    
    742750   1528.388       262.84733      1265.5407      320.65394      1441.5268      1.0177122      4455.7805      0              0              0              0              0             -231.47462    
    743000   1556.3157      268.65653      1287.6592      327.74072     -1893.5378      1.0177122      4455.7805      0              0              0              0              0             -232.7321     
    743250   1531.38        270.67932      1260.7007      330.20838     -1105.8236      1.0177122      4455.7805      0              0              0              0              0             -232.55171    
    743500   1520.7229      239.75576      1280.9672      292.48396      795.6717       1.0177122      4455.7805      0              0              0              0              0             -232.78184    
    743750   1522.29        239.42493      1282.8651      292.08037     -2997.3984      1.0177122      4455.7805      0              0              0              0              0             -230.27311    
    744000   1511.9289      238.55563      1273.3733      291.01989      1075.3551      1.0177122      4455.7805      0              0              0              0              0             -231.39537    
    744250   1522.5509      244.2274       1278.3235      297.93902     -3322.4996      1.0177122      4455.7805      0              0              0              0              0             -230.66656    
    744500   1539.1733      268.86227      1270.311       327.99171     -4473.3279      1.0177122      4455.7805      0              0              0              0              0             -231.82393    
    744750   1548.9371      272.45005      1276.487       332.36854      2749.208       1.0177122      4455.7805      0              0              0              0              0             -232.19325    
    745000   1534.3279      251.36861      1282.9593      306.65076     -1970.2142      1.0177122      4455.7805      0              0              0              0              0             -229.7005     
    745250   1545.0168      256.64884      1288.368       313.09225      804.95179      1.0177122      4455.7805      0              0              0              0              0             -232.01087    
    745500   1517.1864      239.59524      1277.5911      292.28813     -3398.1514      1.0177122      4455.7805      0              0              0              0              0             -229.54547    
    745750   1548.9626      276.53186      1272.4308      337.34803      1836.7703      1.0177122      4455.7805      0              0              0              0              0             -231.71551    
    746000   1556.5755      274.97622      1281.5993      335.45027      700.42945      1.0177122      4455.7805      0              0              0              0              0             -232.7685     
    746250   1530.1009      244.92664      1285.1742      298.79204     -5416.6345      1.0177122      4455.7805      0              0              0              0              0             -232.11437    
    746500   1538.5592      262.77722      1275.782       320.5684      -3296.058       1.0177122      4455.7805      0              0              0              0              0             -233.05988    
    746750   1565.0186      264.57688      1300.4417      322.76386      1224.3571      1.0177122      4455.7805      0              0              0              0              0             -232.61471    
    747000   1520.1876      247.94885      1272.2387      302.47891      419.67052      1.0177122      4455.7805      0              0              0              0              0             -229.74635    
    747250   1538.7305      241.54972      1297.1808      294.67245     -5300.2693      1.0177122      4455.7805      0              0              0              0              0             -232.19066    
    747500   1511.0812      222.58745      1288.4937      271.53992      2722.6302      1.0177122      4455.7805      0              0              0              0              0             -231.2716     
    747750   1540.1737      258.162        1282.0117      314.93818     -2652.8564      1.0177122      4455.7805      0              0              0              0              0             -232.23785    
    748000   1518.2284      250.30779      1267.9206      305.35664     -1379.1021      1.0177122      4455.7805      0              0              0              0              0             -232.05078    
    748250   1533.3291      272.6589       1260.6702      332.62331     -2576.412       1.0177122      4455.7805      0              0              0              0              0             -231.4335     
    748500   1488.2108      216.40627      1271.8045      263.99935     -456.98192      1.0177122      4455.7805      0              0              0              0              0             -232.25232    
    748750   1543.1283      237.45295      1305.6753      289.67471     -3476.0246      1.0177122      4455.7805      0              0              0              0              0             -232.169      
    749000   1552.216       262.5519       1289.6641      320.29354      443.48518      1.0177122      4455.7805      0              0              0              0              0             -232.7754     
    749250   1527.6496      247.8219       1279.8277      302.32404      456.27589      1.0177122      4455.7805      0              0              0              0              0             -232.51972    
    749500   1529.4761      259.96941      1269.5067      317.14309     -5651.8606      1.0177122      4455.7805      0              0              0              0              0             -231.63451    
    749750   1540.0685      245.41265      1294.6559      299.38494      344.68025      1.0177122      4455.7805      0              0              0              0              0             -231.21018    
    750000   1502.2854      230.50255      1271.7828      281.19574      961.8859       1.0177122      4455.7805      0              0              0              0              0             -232.19245    
    750250   1531.5626      247.76636      1283.7962      302.25629     -3917.1473      1.0177122      4455.7805      0              0              0              0              0             -232.26456    
    750500   1547.8196      262.02875      1285.7908      319.65533     -2557.4702      1.0177122      4455.7805      0              0              0              0              0             -233.11067    
    750750   1540.0395      258.21203      1281.8275      314.99922      214.73495      1.0177122      4455.7805      0              0              0              0              0             -231.9651     
    751000   1550.0026      283.56801      1266.4346      345.9316      -1760.4909      1.0177122      4455.7805      0              0              0              0              0             -231.76327    
    751250   1535.6965      250.29722      1285.3993      305.34375      2657.2284      1.0177122      4455.7805      0              0              0              0              0             -231.6017     
    751500   1520.5778      242.3019       1278.2759      295.59005      599.8091       1.0177122      4455.7805      0              0              0              0              0             -231.9362     
    751750   1529.3672      252.54479      1276.8224      308.08561      2439.1458      1.0177122      4455.7805      0              0              0              0              0             -232.97205    
    752000   1541.3111      243.48619      1297.8249      297.03481      714.7438       1.0177122      4455.7805      0              0              0              0              0             -232.76526    
    752250   1539.2377      253.81905      1285.4187      309.64011     -1811.2799      1.0177122      4455.7805      0              0              0              0              0             -232.75333    
    752500   1525.6224      230.86075      1294.7617      281.63272     -3475.8815      1.0177122      4455.7805      0              0              0              0              0             -232.15021    
    752750   1564.6029      266.72842      1297.8745      325.38858     -3034.8921      1.0177122      4455.7805      0              0              0              0              0             -232.64634    
    753000   1521.7711      255.3652       1266.4059      311.5263      -5.7421239      1.0177122      4455.7805      0              0              0              0              0             -232.41219    
    753250   1547.8661      249.29229      1298.5738      304.11781      1348.463       1.0177122      4455.7805      0              0              0              0              0             -231.7987     
    753500   1535.9163      255.48216      1280.4342      311.66898     -202.56038      1.0177122      4455.7805      0              0              0              0              0             -230.29812    
    753750   1554.1677      263.45259      1290.7151      321.39231     -939.41132      1.0177122      4455.7805      0              0              0              0              0             -230.99918    
    754000   1551.6242      261.84945      1289.7747      319.4366      -5337.7708      1.0177122      4455.7805      0              0              0              0              0             -231.67       
    754250   1534.9831      253.98643      1280.9967      309.84431      2687.4107      1.0177122      4455.7805      0              0              0              0              0             -231.71055    
    754500   1538.2557      267.45331      1270.8024      326.27289     -1359.5556      1.0177122      4455.7805      0              0              0              0              0             -230.71427    
    754750   1522.1008      242.23855      1279.8623      295.51278     -1289.0618      1.0177122      4455.7805      0              0              0              0              0             -230.78227    
    755000   1508.7896      246.81739      1261.9722      301.09862      560.46543      1.0177122      4455.7805      0              0              0              0              0             -233.3696     
    755250   1517.1898      243.19247      1273.9973      296.67649     -2210.9413      1.0177122      4455.7805      0              0              0              0              0             -232.43369    
    755500   1538.979       254.12708      1284.8519      310.01589     -2289.9003      1.0177122      4455.7805      0              0              0              0              0             -232.52922    
    755750   1539.5826      260.7068       1278.8758      318.04265     -2728.7196      1.0177122      4455.7805      0              0              0              0              0             -231.62293    
    756000   1540.2133      256.8394       1283.3738      313.32472     -1641.1804      1.0177122      4455.7805      0              0              0              0              0             -232.23919    
    756250   1533.1789      239.32133      1293.8576      291.95399     -751.91828      1.0177122      4455.7805      0              0              0              0              0             -231.49515    
    756500   1486.1646      216.09856      1270.066       263.62396      943.59453      1.0177122      4455.7805      0              0              0              0              0             -232.61155    
    756750   1510.8047      239.21924      1271.5854      291.82945     -4611.2612      1.0177122      4455.7805      0              0              0              0              0             -232.65199    
    757000   1525.6254      239.9797       1285.6457      292.75715     -3694.7013      1.0177122      4455.7805      0              0              0              0              0             -232.16765    
    757250   1525.1717      249.25578      1275.916       304.07327      547.02325      1.0177122      4455.7805      0              0              0              0              0             -233.43966    
    757500   1522.2149      233.63442      1288.5805      285.01639      391.38995      1.0177122      4455.7805      0              0              0              0              0             -231.1116     
    757750   1511.371       245.18811      1266.1829      299.11101      1383.3878      1.0177122      4455.7805      0              0              0              0              0             -232.59689    
    758000   1537.2773      244.22178      1293.0555      297.93216     -3771.8042      1.0177122      4455.7805      0              0              0              0              0             -232.96754    
    758250   1560.1608      274.21594      1285.9448      334.52279     -1536.9926      1.0177122      4455.7805      0              0              0              0              0             -230.54758    
    758500   1573.7957      276.97119      1296.8245      337.88398      2026.7746      1.0177122      4455.7805      0              0              0              0              0             -232.93863    
    758750   1514.7496      237.193        1277.5566      289.35758      1116.6653      1.0177122      4455.7805      0              0              0              0              0             -232.98679    
    759000   1546.3826      258.30629      1288.0763      315.11421      408.44872      1.0177122      4455.7805      0              0              0              0              0             -232.12071    
    759250   1520.6479      255.18045      1265.4675      311.30091      319.7935       1.0177122      4455.7805      0              0              0              0              0             -234.30327    
    759500   1531.0293      253.25131      1277.778       308.94751      1766.1316      1.0177122      4455.7805      0              0              0              0              0             -232.33612    
    759750   1548.5848      253.36124      1295.2235      309.08162      1445.8081      1.0177122      4455.7805      0              0              0              0              0             -231.31748    
    760000   1523.4778      258.49405      1264.9837      315.34326      794.19905      1.0177122      4455.7805      0              0              0              0              0             -231.92003    
    760250   1543.9942      262.73478      1281.2594      320.51663     -1053.0268      1.0177122      4455.7805      0              0              0              0              0             -232.77949    
    760500   1572.7876      260.39781      1312.3898      317.6657      -6023.2997      1.0177122      4455.7805      0              0              0              0              0             -231.5056     
    760750   1518.9137      238.15979      1280.754       290.537       -536.51417      1.0177122      4455.7805      0              0              0              0              0             -231.59426    
    761000   1520.2271      251.66731      1268.5598      307.01515     -852.20814      1.0177122      4455.7805      0              0              0              0              0             -231.89972    
    761250   1500.2066      243.15882      1257.0478      296.63544     -3052.8114      1.0177122      4455.7805      0              0              0              0              0             -231.29305    
    761500   1528.7803      252.58823      1276.192       308.13861     -4717.4876      1.0177122      4455.7805      0              0              0              0              0             -232.49707    
    761750   1523.681       255.48518      1268.1958      311.67267     -2465.7401      1.0177122      4455.7805      0              0              0              0              0             -231.10579    
    762000   1531.8558      246.38419      1285.4716      300.57014      142.08635      1.0177122      4455.7805      0              0              0              0              0             -232.89671    
    762250   1529.8111      263.57503      1266.2361      321.54168     -1916.8242      1.0177122      4455.7805      0              0              0              0              0             -232.70235    
    762500   1539.1005      268.52251      1270.5779      327.57723     -210.3881       1.0177122      4455.7805      0              0              0              0              0             -232.31131    
    762750   1533.3678      250.24101      1283.1268      305.27518     -4509.4984      1.0177122      4455.7805      0              0              0              0              0             -231.87525    
    763000   1542.691       243.51831      1299.1727      297.07398     -226.30837      1.0177122      4455.7805      0              0              0              0              0             -231.1703     
    763250   1507.5203      252.78736      1254.7329      308.38153      3051.2066      1.0177122      4455.7805      0              0              0              0              0             -231.61854    
    763500   1521.3541      242.1675       1279.1866      295.42611     -7118.2137      1.0177122      4455.7805      0              0              0              0              0             -231.67152    
    763750   1518.461       253.37221      1265.0888      309.095       -340.38021      1.0177122      4455.7805      0              0              0              0              0             -231.94922    
    764000   1534.749       247.41805      1287.331       301.83138     -5091.14        1.0177122      4455.7805      0              0              0              0              0             -231.14155    
    764250   1520.9896      249.2159       1271.7737      304.02462     -1326.2478      1.0177122      4455.7805      0              0              0              0              0             -232.18961    
    764500   1545.9907      253.53792      1292.4528      309.29716     -3820.4726      1.0177122      4455.7805      0              0              0              0              0             -230.60621    
    764750   1522.8092      226.07365      1296.7355      275.79281     -217.11593      1.0177122      4455.7805      0              0              0              0              0             -231.67136    
    765000   1509.604       242.55049      1267.0535      295.89332     -6053.1907      1.0177122      4455.7805      0              0              0              0              0             -231.93859    
    765250   1524.3978      244.58525      1279.8126      298.37557     -693.3594       1.0177122      4455.7805      0              0              0              0              0             -233.19629    
    765500   1517.5646      255.25605      1262.3085      311.39314      807.66601      1.0177122      4455.7805      0              0              0              0              0             -230.89892    
    765750   1516.6911      242.3316       1274.3595      295.62629      749.49975      1.0177122      4455.7805      0              0              0              0              0             -233.79388    
    766000   1524.4279      250.4655       1273.9624      305.54904     -1469.9013      1.0177122      4455.7805      0              0              0              0              0             -231.16771    
    766250   1505.6688      239.57445      1266.0944      292.26278     -2278.3752      1.0177122      4455.7805      0              0              0              0              0             -231.96174    
    766500   1523.8201      242.76924      1281.0508      296.16018     -83.371943      1.0177122      4455.7805      0              0              0              0              0             -233.01692    
    766750   1525.6108      234.42852      1291.1823      285.98513      276.80228      1.0177122      4455.7805      0              0              0              0              0             -232.89232    
    767000   1537.3118      264.65507      1272.6567      322.85924     -4524.8904      1.0177122      4455.7805      0              0              0              0              0             -231.61273    
    767250   1530.5693      243.92685      1286.6425      297.57238      434.47409      1.0177122      4455.7805      0              0              0              0              0             -232.47385    
    767500   1543.3043      250.75104      1292.5533      305.89737     -2778.715       1.0177122      4455.7805      0              0              0              0              0             -232.21677    
    767750   1518.3634      248.28345      1270.08        302.8871       3042.2556      1.0177122      4455.7805      0              0              0              0              0             -231.48272    
    768000   1524.641       246.63246      1278.0086      300.87301     -2164.8841      1.0177122      4455.7805      0              0              0              0              0             -231.78435    
    768250   1512.0949      228.24974      1283.8452      278.44748     -2560.6434      1.0177122      4455.7805      0              0              0              0              0             -232.04635    
    768500   1523.2859      236.31411      1286.9718      288.2854      -2777.2563      1.0177122      4455.7805      0              0              0              0              0             -232.52968    
    768750   1519.8127      244.67088      1275.1418      298.48003     -1302.15        1.0177122      4455.7805      0              0              0              0              0             -232.35244    
    769000   1538.1789      241.63523      1296.5437      294.77677     -3980.5706      1.0177122      4455.7805      0              0              0              0              0             -230.39594    
    769250   1510.5376      237.73434      1272.8033      290.01798     -2212.6715      1.0177122      4455.7805      0              0              0              0              0             -233.33868    
    769500   1545.2967      264.42562      1280.8711      322.57933     -2334.7127      1.0177122      4455.7805      0              0              0              0              0             -232.25949    
    769750   1538.2305      257.17949      1281.0511      313.73959     -5756.3581      1.0177122      4455.7805      0              0              0              0              0             -229.2691     
    770000   1546.9789      249.17079      1297.8081      303.96959     -1773.7238      1.0177122      4455.7805      0              0              0              0              0             -231.76984    
    770250   1523.6408      245.67568      1277.9651      299.70582      1291.6638      1.0177122      4455.7805      0              0              0              0              0             -231.94847    
    770500   1536.3805      239.20301      1297.1775      291.80965      25.772669      1.0177122      4455.7805      0              0              0              0              0             -230.94725    
    770750   1513.8161      247.61628      1266.1998      302.0732      -861.69804      1.0177122      4455.7805      0              0              0              0              0             -232.38336    
    771000   1540.314       286.55304      1253.761       349.57312     -1276.3093      1.0177122      4455.7805      0              0              0              0              0             -233.23202    
    771250   1566.5952      273.64565      1292.9495      333.82708     -4416.5782      1.0177122      4455.7805      0              0              0              0              0             -232.73802    
    771500   1554.5228      274.54302      1279.9798      334.92179     -1875.9728      1.0177122      4455.7805      0              0              0              0              0             -232.89112    
    771750   1549.6817      264.72898      1284.9527      322.9494      -3214.4091      1.0177122      4455.7805      0              0              0              0              0             -229.88915    
    772000   1522.3146      236.42298      1285.8916      288.41822     -4920.4331      1.0177122      4455.7805      0              0              0              0              0             -230.22322    
    772250   1523.336       248.84738      1274.4887      303.57505     -1150.7279      1.0177122      4455.7805      0              0              0              0              0             -232.4784     
    772500   1518.0091      236.03454      1281.9745      287.94436      2080.2448      1.0177122      4455.7805      0              0              0              0              0             -232.32151    
    772750   1549.4684      271.13308      1278.3353      330.76193     -3354.1717      1.0177122      4455.7805      0              0              0              0              0             -230.26333    
    773000   1513.2268      245.89221      1267.3346      299.96997     -3156.0132      1.0177122      4455.7805      0              0              0              0              0             -231.05586    
    773250   1521.7624      261.9068       1259.8556      319.50655     -4766.8249      1.0177122      4455.7805      0              0              0              0              0             -232.69971    
    773500   1526.7746      236.77569      1289.9989      288.8485       94.598435      1.0177122      4455.7805      0              0              0              0              0             -233.74926    
    773750   1530.6046      270.41966      1260.1849      329.89161     -791.69634      1.0177122      4455.7805      0              0              0              0              0             -232.54766    
    774000   1560.8426      274.23738      1286.6052      334.54894      103.37894      1.0177122      4455.7805      0              0              0              0              0             -230.53653    
    774250   1520.57        256.60557      1263.9645      313.03946     -386.37311      1.0177122      4455.7805      0              0              0              0              0             -232.00544    
    774500   1522.1172      239.81828      1282.2989      292.56023     -2863.9672      1.0177122      4455.7805      0              0              0              0              0             -232.93935    
    774750   1542.6217      249.18075      1293.4409      303.98174      195.66245      1.0177122      4455.7805      0              0              0              0              0             -232.08294    
    775000   1534.0361      244.14549      1289.8906      297.8391      -1140.5567      1.0177122      4455.7805      0              0              0              0              0             -231.64559    
    775250   1541.2666      269.13803      1272.1286      328.32811     -3171.9523      1.0177122      4455.7805      0              0              0              0              0             -231.23796    
    775500   1535.8644      240.51552      1295.3489      293.41081     -6968.3689      1.0177122      4455.7805      0              0              0              0              0             -230.44931    
    775750   1564.4487      257.53601      1306.9127      314.17453     -1000.6978      1.0177122      4455.7805      0              0              0              0              0             -232.69631    
    776000   1563.4829      264.86696      1298.616       323.11773      1515.225       1.0177122      4455.7805      0              0              0              0              0             -233.17899    
    776250   1530.6555      251.35129      1279.3042      306.62963     -348.05163      1.0177122      4455.7805      0              0              0              0              0             -231.55052    
    776500   1531.9127      252.98176      1278.931       308.61868      387.10086      1.0177122      4455.7805      0              0              0              0              0             -232.24963    
    776750   1523.4893      253.4446       1270.0447      309.18331     -1427.1197      1.0177122      4455.7805      0              0              0              0              0             -230.60173    
    777000   1526.9047      247.3364       1279.5683      301.73177     -2041.8208      1.0177122      4455.7805      0              0              0              0              0             -231.79656    
    777250   1549.7327      253.39391      1296.3388      309.12148      1188.5651      1.0177122      4455.7805      0              0              0              0              0             -233.12607    
    777500   1554.34        251.2058       1303.1342      306.45214     -4777.7375      1.0177122      4455.7805      0              0              0              0              0             -231.08863    
    777750   1523.0697      247.43891      1275.6308      301.85682     -277.77166      1.0177122      4455.7805      0              0              0              0              0             -231.41416    
    778000   1544.3522      255.57474      1288.7775      311.78192      2367.2098      1.0177122      4455.7805      0              0              0              0              0             -230.83335    
    778250   1513.4886      231.80479      1281.6839      282.78438     -1218.0994      1.0177122      4455.7805      0              0              0              0              0             -233.21356    
    778500   1548.5199      255.55995      1292.96        311.76388     -4757.7146      1.0177122      4455.7805      0              0              0              0              0             -231.36133    
    778750   1552.241       257.99766      1294.2433      314.73771      352.065        1.0177122      4455.7805      0              0              0              0              0             -232.58491    
    779000   1503.6234      238.2634       1265.36        290.6634       1289.6042      1.0177122      4455.7805      0              0              0              0              0             -232.37546    
    779250   1549.2865      246.52726      1302.7593      300.74468     -1420.9485      1.0177122      4455.7805      0              0              0              0              0             -230.87926    
    779500   1553.2218      275.09113      1278.1307      335.59045      1592.5656      1.0177122      4455.7805      0              0              0              0              0             -232.83622    
    779750   1547.6014      258.55203      1289.0493      315.41399     -2684.8236      1.0177122      4455.7805      0              0              0              0              0             -231.63058    
    780000   1538.582       255.42123      1283.1607      311.59465      2726.349       1.0177122      4455.7805      0              0              0              0              0             -232.82327    
    780250   1527.9494      257.72082      1270.2286      314.39998      227.67575      1.0177122      4455.7805      0              0              0              0              0             -232.59582    
    780500   1536.5873      251.31136      1285.2759      306.58092     -2871.7198      1.0177122      4455.7805      0              0              0              0              0             -231.29149    
    780750   1522.2392      245.65334      1276.5859      299.67856      3459.3638      1.0177122      4455.7805      0              0              0              0              0             -232.97979    
    781000   1509.1981      233.4127       1275.7853      284.74591     -5260.3266      1.0177122      4455.7805      0              0              0              0              0             -230.5883     
    781250   1521.032       236.85049      1284.1815      288.93975      2331.4289      1.0177122      4455.7805      0              0              0              0              0             -231.20879    
    781500   1554.5198      242.98044      1311.5393      296.41783     -5233.0744      1.0177122      4455.7805      0              0              0              0              0             -231.53003    
    781750   1531.6098      248.13702      1283.4728      302.70847     -2203.6199      1.0177122      4455.7805      0              0              0              0              0             -231.39264    
    782000   1528.7843      252.66415      1276.1201      308.23123     -7286.5048      1.0177122      4455.7805      0              0              0              0              0             -230.99585    
    782250   1538.8437      266.87364      1271.97        325.56573     -3058.9701      1.0177122      4455.7805      0              0              0              0              0             -233.15959    
    782500   1542.5556      251.51534      1291.0402      306.82977     -6411.4397      1.0177122      4455.7805      0              0              0              0              0             -231.03948    
    782750   1536.9735      248.43383      1288.5397      303.07055     -892.65532      1.0177122      4455.7805      0              0              0              0              0             -232.05036    
    783000   1531.6096      240.07848      1291.5311      292.87765     -462.06775      1.0177122      4455.7805      0              0              0              0              0             -232.57918    
    783250   1534.1774      245.49129      1288.6861      299.48088     -1510.0525      1.0177122      4455.7805      0              0              0              0              0             -231.93243    
    783500   1532.3207      267.23636      1265.0843      326.00822     -5288.0187      1.0177122      4455.7805      0              0              0              0              0             -231.18777    
    783750   1529.1791      262.55242      1266.6266      320.29417      6377.4751      1.0177122      4455.7805      0              0              0              0              0             -232.41289    
    784000   1544.1001      266.06612      1278.034       324.58062     -4098.945       1.0177122      4455.7805      0              0              0              0              0             -231.79943    
    784250   1549.5611      254.42907      1295.132       310.38429      401.75531      1.0177122      4455.7805      0              0              0              0              0             -233.0604     
    784500   1518.9959      240.36673      1278.6292      293.22929     -4221.928       1.0177122      4455.7805      0              0              0              0              0             -230.47581    
    784750   1539.3177      261.38635      1277.9313      318.87165     -4201.4721      1.0177122      4455.7805      0              0              0              0              0             -231.18853    
    785000   1543.0361      242.50514      1300.5309      295.838       -1559.4602      1.0177122      4455.7805      0              0              0              0              0             -232.17026    
    785250   1541.9204      255.58792      1286.3325      311.798       -1541.9677      1.0177122      4455.7805      0              0              0              0              0             -233.19416    
    785500   1528.9549      260.30774      1268.6472      317.55583      2241.1717      1.0177122      4455.7805      0              0              0              0              0             -231.8969     
    785750   1561.77        261.34936      1300.4207      318.82653     -656.09411      1.0177122      4455.7805      0              0              0              0              0             -233.41943    
    786000   1531.5284      256.05371      1275.4747      312.36623      1062.425       1.0177122      4455.7805      0              0              0              0              0             -232.77128    
    786250   1569.3892      266.37358      1303.0157      324.95569     -620.95575      1.0177122      4455.7805      0              0              0              0              0             -232.26729    
    786500   1541.0627      246.1639       1294.8988      300.3014      -2002.972       1.0177122      4455.7805      0              0              0              0              0             -232.4958     
    786750   1538.1126      261.9603       1276.1523      319.57183      4108.9107      1.0177122      4455.7805      0              0              0              0              0             -231.98208    
    787000   1549.2418      259.26036      1289.9815      316.2781      -1837.9856      1.0177122      4455.7805      0              0              0              0              0             -231.40841    
    787250   1527.2949      265.35656      1261.9383      323.71501      141.09519      1.0177122      4455.7805      0              0              0              0              0             -229.31602    
    787500   1536.6797      268.23336      1268.4463      327.22448     -508.3315       1.0177122      4455.7805      0              0              0              0              0             -231.87573    
    787750   1515.7258      231.99673      1283.7291      283.01853     -1318.7486      1.0177122      4455.7805      0              0              0              0              0             -232.69771    
    788000   1525.1407      254.16634      1270.9744      310.06379     -1474.9885      1.0177122      4455.7805      0              0              0              0              0             -232.20855    
    788250   1543.1511      250.69697      1292.4542      305.83142      3283.1642      1.0177122      4455.7805      0              0              0              0              0             -232.51447    
    788500   1541.8853      246.83397      1295.0514      301.11884     -1816.465       1.0177122      4455.7805      0              0              0              0              0             -231.16991    
    788750   1510.4319      247.22944      1263.2024      301.60129     -2257.9322      1.0177122      4455.7805      0              0              0              0              0             -231.54122    
    789000   1506.0639      241.1749       1264.889       294.21521     -1533.8         1.0177122      4455.7805      0              0              0              0              0             -231.56154    
    789250   1530.4401      230.48803      1299.952       281.17802      1052.5206      1.0177122      4455.7805      0              0              0              0              0             -231.62461    
    789500   1527.0139      252.94811      1274.0658      308.57763     -1919.8945      1.0177122      4455.7805      0              0              0              0              0             -231.63918    
    789750   1503.2361      211.99697      1291.2391      258.62033     -1657.6872      1.0177122      4455.7805      0              0              0              0              0             -232.94629    
    790000   1517.4179      255.45478      1261.9632      311.63558      1842.6555      1.0177122      4455.7805      0              0              0              0              0             -233.40605    
    790250   1507.2097      243.6857       1263.524       297.27819     -3312.7236      1.0177122      4455.7805      0              0              0              0              0             -232.89324    
    790500   1547.6084      262.21076      1285.3977      319.87737      1519.994       1.0177122      4455.7805      0              0              0              0              0             -232.31189    
    790750   1535.1742      252.76408      1282.4101      308.35313      841.59103      1.0177122      4455.7805      0              0              0              0              0             -232.46171    
    791000   1537.8739      258.20715      1279.6668      314.99327      5880.3877      1.0177122      4455.7805      0              0              0              0              0             -231.6921     
    791250   1554.4338      251.15848      1303.2754      306.39442     -3792.87        1.0177122      4455.7805      0              0              0              0              0             -231.86636    
    791500   1542.0544      250.84268      1291.2117      306.00917     -3503.4211      1.0177122      4455.7805      0              0              0              0              0             -231.34174    
    791750   1511.4763      223.192        1288.2843      272.27743     -2077.6534      1.0177122      4455.7805      0              0              0              0              0             -231.64954    
    792000   1531.3031      262.00719      1269.2959      319.62903      1691.2184      1.0177122      4455.7805      0              0              0              0              0             -230.773      
    792250   1530.2109      256.18679      1274.0242      312.52858     -789.61037      1.0177122      4455.7805      0              0              0              0              0             -231.03775    
    792500   1527.0312      258.77975      1268.2514      315.69179     -467.27103      1.0177122      4455.7805      0              0              0              0              0             -231.22636    
    792750   1519.8919      237.65881      1282.2331      289.92584     -5449.0053      1.0177122      4455.7805      0              0              0              0              0             -231.04863    
    793000   1540.9729      256.11402      1284.8589      312.43981      1176.8724      1.0177122      4455.7805      0              0              0              0              0             -230.60541    
    793250   1512.2482      244.26563      1267.9826      297.98566      2522.7705      1.0177122      4455.7805      0              0              0              0              0             -230.94787    
    793500   1512.9475      233.44634      1279.5011      284.78694      67.200813      1.0177122      4455.7805      0              0              0              0              0             -231.59529    
    793750   1539.1764      250.42574      1288.7507      305.50053     -2702.0019      1.0177122      4455.7805      0              0              0              0              0             -232.16803    
    794000   1526.2894      232.2544       1294.035       283.33287     -2245.427       1.0177122      4455.7805      0              0              0              0              0             -231.54684    
    794250   1528.4162      244.09406      1284.3221      297.77635     -817.86982      1.0177122      4455.7805      0              0              0              0              0             -231.79276    
    794500   1539.5904      250.50064      1289.0898      305.5919       261.78255      1.0177122      4455.7805      0              0              0              0              0             -230.97253    
    794750   1544.4472      262.84512      1281.6021      320.65124     -3778.7889      1.0177122      4455.7805      0              0              0              0              0             -230.00299    
    795000   1531.9175      254.55385      1277.3636      310.53651     -3034.5377      1.0177122      4455.7805      0              0              0              0              0             -231.94922    
    795250   1529.8003      243.90284      1285.8975      297.54309     -357.37673      1.0177122      4455.7805      0              0              0              0              0             -234.26075    
    795500   1532.6971      254.12448      1278.5726      310.01272      412.72218      1.0177122      4455.7805      0              0              0              0              0             -231.87514    
    795750   1542.8288      258.92125      1283.9075      315.86442     -351.65664      1.0177122      4455.7805      0              0              0              0              0             -231.96751    
    796000   1519.6726      244.73352      1274.939       298.55645     -2681.7962      1.0177122      4455.7805      0              0              0              0              0             -233.41585    
    796250   1509.2606      243.68207      1265.5785      297.27377     -4058.3819      1.0177122      4455.7805      0              0              0              0              0             -232.44891    
    796500   1528.2839      260.64228      1267.6416      317.96395     -4600.625       1.0177122      4455.7805      0              0              0              0              0             -230.83662    
    796750   1504.7405      230.77789      1273.9626      281.53164     -394.84184      1.0177122      4455.7805      0              0              0              0              0             -231.10101    
    797000   1506.8744      223.39551      1283.4789      272.52569     -1525.7863      1.0177122      4455.7805      0              0              0              0              0             -234.06289    
    797250   1534.8675      241.98443      1292.883       295.20277     -673.53061      1.0177122      4455.7805      0              0              0              0              0             -232.02921    
    797500   1551.2984      276.55957      1274.7388      337.38183      2327.6002      1.0177122      4455.7805      0              0              0              0              0             -232.52295    
    797750   1560.5741      254.82337      1305.7507      310.86531     -1797.529       1.0177122      4455.7805      0              0              0              0              0             -231.90927    
    798000   1537.2243      252.72713      1284.4972      308.30806     -781.0051       1.0177122      4455.7805      0              0              0              0              0             -232.24752    
    798250   1536.099       253.39731      1282.7017      309.12563     -296.75413      1.0177122      4455.7805      0              0              0              0              0             -231.21023    
    798500   1517.9301      248.09243      1269.8376      302.65407     -1259.1012      1.0177122      4455.7805      0              0              0              0              0             -230.17961    
    798750   1521.0687      239.49905      1281.5696      292.17079      3565.9551      1.0177122      4455.7805      0              0              0              0              0             -232.87357    
    799000   1512.7491      227.17413      1285.5749      277.13532     -2020.8499      1.0177122      4455.7805      0              0              0              0              0             -232.19788    
    799250   1524.8737      246.30359      1278.5701      300.47182     -5163.5787      1.0177122      4455.7805      0              0              0              0              0             -232.68849    
    799500   1539.103       254.09916      1285.0038      309.98183     -836.55909      1.0177122      4455.7805      0              0              0              0              0             -230.7859     
    799750   1516.0653      236.23323      1279.8321      288.18673      712.78588      1.0177122      4455.7805      0              0              0              0              0             -232.43252    
    800000   1532.6239      246.53652      1286.0874      300.75597     -1483.2444      1.0177122      4455.7805      0              0              0              0              0             -232.05155    
Loop time of 96.1224 on 4 procs for 800000 steps with 276 atoms

Performance: 719.083 ns/day, 0.033 hours/ns, 8322.719 timesteps/s
99.5% CPU use with 4 MPI tasks x no OpenMP threads

MPI task timing breakdown:
Section |  min time  |  avg time  |  max time  |%varavg| %total
---------------------------------------------------------------
Pair    | 56.5       | 61.435     | 66.118     |  56.3 | 63.91
Bond    | 4.0249     | 4.33       | 4.6479     |  11.5 |  4.50
Neigh   | 0.45427    | 0.45443    | 0.45462    |   0.0 |  0.47
Comm    | 20.755     | 25.524     | 30.493     |  87.3 | 26.55
Output  | 0.038871   | 0.067533   | 0.096546   |  10.0 |  0.07
Modify  | 2.9502     | 2.9676     | 2.9891     |   0.8 |  3.09
Other   |            | 1.345      |            |       |  1.40

Nlocal:             69 ave          73 max          65 min
Histogram: 1 1 0 0 0 0 0 0 1 1
Nghost:         3708.5 ave        3746 max        3674 min
Histogram: 1 1 0 0 0 0 0 1 0 1
Neighs:        27098.2 ave       28900 max       25226 min
Histogram: 1 1 0 0 0 0 0 0 1 1

Total # of neighbors = 108393
Ave neighs/atom = 392.72826
Ave special neighs/atom = 6.4347826
Neighbor list builds = 834
Dangerous builds = 0

unfix			f1
unfix			f2

Total wall time: 0:02:33
