
#------------------------------------------------------------------------------#
# simulation settings
#------------------------------------------------------------------------------#

##### simulation variables

variable        seed 	equal  20902
variable        T       equal  300	    #K
variable        p       equal  0.0 	#bar
variable        damp_T  equal  100 		  	#K
variable        damp_P  equal  1000.0	  	#bar
variable        dT      equal  1.0 		 	#fs
variable        kb      equal  0.0019872041

## system setup ##

units           real
atom_style      full
boundary        p p p

pair_style      lj/cut/coul/long 12.500
bond_style      harmonic
angle_style     hybrid cosine/periodic fourier
dihedral_style  harmonic
improper_style  fourier
kspace_style 	ewald 0.000001

dielectric 	 	1.0
pair_modify 	tail yes mix arithmetic
special_bonds 	lj/coul 0.0 0.0 1.0

read_data 	 	../data.emin_sod-4c_Zn-2c_mim_fe
Reading data file ...
  triclinic box = (4.5054746 4.3760097 4.4164229) to (20.786525 20.913779 20.965143) with tilt (-0.95270579 -0.51398262 -1.0127119)
  1 by 2 by 2 MPI processor grid
  reading atoms ...
  276 atoms
  reading velocities ...
  276 velocities
  scanning bonds ...
  3 = max bonds/atom
  scanning angles ...
  6 = max angles/atom
  scanning dihedrals ...
  10 = max dihedrals/atom
  scanning impropers ...
  4 = max impropers/atom
  reading bonds ...
  312 bonds
  reading angles ...
  576 angles
  reading dihedrals ...
  624 dihedrals
  reading impropers ...
  360 impropers
Finding 1-2 1-3 1-4 neighbors ...
  special bond factors lj:    0        0        1       
  special bond factors coul:  0        0        1       
     4 = max # of 1-2 neighbors
     8 = max # of 1-3 neighbors
    12 = max # of special neighbors
  special bonds CPU = 0.000 seconds
  read_data CPU = 0.003 seconds
include 	 	../non_bonded_sod-4c_Zn-2c_mim.param
### Parameters for Equilibration ###

### Parameters for MOF ###

mass 1 65.380000000
mass 2 14.006700000
mass 3 12.010700000
mass 4 1.007940000
mass 5 12.010700000


bond_coeff 1 165.837318 1.881712
bond_coeff 2 663.718927 1.345073
bond_coeff 3 369.943935 1.486000
bond_coeff 4 462.655054 1.379256
bond_coeff 5 357.440381 1.081418
bond_coeff 6 331.069389 1.109401

angle_coeff 1 fourier 197.524216 0.343737 0.374972 0.281246
angle_coeff 2 cosine/periodic 45.889625 -1 3
angle_coeff 3 cosine/periodic 120.000516 -1 3
angle_coeff 4 cosine/periodic 212.442573 -1 3
angle_coeff 5 cosine/periodic 136.548728 -1 3
angle_coeff 6 cosine/periodic 153.699352 -1 3
angle_coeff 7 cosine/periodic 79.786967 -1 3
angle_coeff 8 cosine/periodic 57.289016 -1 3
angle_coeff 9 fourier 121.777217 0.343737 0.374972 0.281246
angle_coeff 10 fourier 75.498766 0.343737 0.374972 0.281246

dihedral_coeff 1 3.368555 -1 2
dihedral_coeff 2 0.166667 1 3

improper_coeff 1 2.000000 1.000000 -1.000000 0.000000 0

pair_coeff 1 1 0.124 2.46155
pair_coeff 1 2 0.0924986 2.86112
pair_coeff 1 3 0.114105 2.9462
pair_coeff 1 4 0.0738647 2.51634
pair_coeff 1 5 0.114105 2.9462
pair_coeff 2 2 0.069 3.26069
pair_coeff 2 3 0.0851176 3.34577
pair_coeff 2 4 0.0550999 2.91591
pair_coeff 2 5 0.0851176 3.34577
pair_coeff 3 3 0.105 3.43085
pair_coeff 3 4 0.0679706 3.00099
pair_coeff 3 5 0.105 3.43085
pair_coeff 4 4 0.044 2.57113
pair_coeff 4 5 0.0679706 3.00099
pair_coeff 5 5 0.105 3.43085

group			fram type < 6
276 atoms in group fram

#------------------------------------------------------------------------------#
# ti/spring definition
#------------------------------------------------------------------------------#

reset_timestep	0

variable		t_s equal 1000000
variable		t_eq equal 500000

variable        t_eq equal ${t_eq}-1
variable        t_eq equal 500000-1
variable        t_s equal ${t_s}+1
variable        t_s equal 1000000+1

fix             fs1 fram ti/spring 10 ${t_s} ${t_eq} function 2
fix             fs1 fram ti/spring 10 1000001 ${t_eq} function 2
fix             fs1 fram ti/spring 10 1000001 499999 function 2

variable        dE equal f_fs1
variable        lambda equal f_fs1[1]

fix				f1 all nve
fix 			f2 all langevin ${T} ${T} ${damp_T} ${seed} zero yes
fix 			f2 all langevin 300 ${T} ${damp_T} ${seed} zero yes
fix 			f2 all langevin 300 300 ${damp_T} ${seed} zero yes
fix 			f2 all langevin 300 300 100 ${seed} zero yes
fix 			f2 all langevin 300 300 100 20902 zero yes
compute 		c1 all temp/com
fix_modify		f2 temp c1

thermo_style	custom step etotal ke pe temp press density vol evdwl etail ecoul elong epair f_fs1
thermo 			1000

#------------------------------------------------------------------------------#
# switching
#------------------------------------------------------------------------------#

### forward integration, save to forward.dat

run             ${t_eq}
run             499999

CITE-CITE-CITE-CITE-CITE-CITE-CITE-CITE-CITE-CITE-CITE-CITE-CITE

Your simulation uses code contributions which should be cited:

- ti/spring command:

@article{freitas2016,
  author={Freitas, Rodrigo and Asta, Mark and de Koning, Maurice},
  title={Nonequilibrium free-energy calculation of solids using LAMMPS},
  journal={Computational Materials Science},
  volume={112},
  pages={333--341},
  year={2016},
  publisher={Elsevier}
}

CITE-CITE-CITE-CITE-CITE-CITE-CITE-CITE-CITE-CITE-CITE-CITE-CITE

Ewald initialization ...
  using 12-bit tables for long-range coulomb (../kspace.cpp:342)
  G vector (1/distance) = 0.24281392
  estimated absolute RMS force accuracy = 0.00037231444
  estimated relative force accuracy = 1.1212139e-06
  KSpace vectors: actual max1d max3d = 131 4 364
                  kxmax kymax kzmax  = 4 4 4
Generated 0 of 10 mixed pair_coeff terms from arithmetic mixing rule
Neighbor list info ...
  update every 1 steps, delay 10 steps, check yes
  max neighbors/atom: 2000, page size: 100000
  master list distance cutoff = 14.5
  ghost atom cutoff = 14.5
  binsize = 7.25, bins = 3 3 3
  1 neighbor lists, perpetual/occasional/extra = 1 0 0
  (1) pair lj/cut/coul/long, perpetual
      attributes: half, newton on
      pair build: half/bin/newton/tri
      stencil: half/bin/3d/tri
      bin: standard
WARNING: Inconsistent image flags (../domain.cpp:819)
Per MPI rank memory allocation (min/avg/max) = 20.72 | 20.72 | 20.73 Mbytes
   Step         TotEng         KinEng         PotEng          Temp          Press         Density         Volume         E_vdwl         E_tail         E_coul         E_long         E_pair         f_fs1     
         0  -404.11072      236.8846      -640.99532      288.98137      2330.6998      1.0177122      4455.7805     -161.77947     -4.6924513     -680.98253     -891.56651     -1734.3285      0            
      1000  -122.71131      260.09043     -382.80175      317.29073      3552.0356      1.0177122      4455.7805     -143.43843     -4.6924513     -679.16309     -891.44717     -1714.0487      0            
      2000  -129.1414       244.93204     -374.07344      298.79863     -923.94738      1.0177122      4455.7805     -147.89259     -4.6924513     -677.43069     -891.39481     -1716.7181      0            
      3000  -120.36368      260.69804     -381.06172      318.03196      1744.4106      1.0177122      4455.7805     -145.21471     -4.6924513     -682.60775     -891.50076     -1719.3232      0            
      4000  -156.166        240.86114     -397.02714      293.83244      771.72844      1.0177122      4455.7805     -139.62559     -4.6924513     -681.14936     -891.4028      -1712.1778      0            
      5000  -128.59206      259.72114     -388.3132       316.84022     -2480.0038      1.0177122      4455.7805     -144.43116     -4.6924513     -678.83556     -891.54355     -1714.8103      0            
      6000  -136.85209      250.5966      -387.44869      305.70896      871.61173      1.0177122      4455.7805     -144.46284     -4.6924513     -681.1956      -891.15932     -1716.8178      0            
      7000  -163.8767       226.24345     -390.12015      275.99996     -2146.2968      1.0177122      4455.7805     -139.22749     -4.6924513     -678.2042      -891.38693     -1708.8186      0            
      8000  -140.93438      249.36052     -390.2949       304.20104      3582.6531      1.0177122      4455.7805     -152.67762     -4.6924513     -680.23634     -891.36924     -1724.2832      0            
      9000  -139.34318      246.06159     -385.40477      300.1766      -1354.0148      1.0177122      4455.7805     -145.29625     -4.6924513     -679.23653     -891.53696     -1716.0697      0            
     10000  -154.17674      248.0986      -402.27534      302.66159     -1156.8999      1.0177122      4455.7805     -147.57788     -4.6924513     -682.26221     -891.49977     -1721.3399      0            
     11000  -145.35695      252.44976     -397.8067       307.96968      90.371512      1.0177122      4455.7805     -151.4509      -4.6924513     -678.66898     -891.44314     -1721.563       0            
     12000  -146.66669      229.86879     -376.53547      280.4226      -592.19858      1.0177122      4455.7805     -148.77486     -4.6924513     -680.10191     -891.51023     -1720.387       0            
     13000  -139.62572      247.23383     -386.85955      301.60665     -87.515775      1.0177122      4455.7805     -140.3944      -4.6924513     -683.59993     -891.6297      -1715.624       0            
     14000  -145.24801      256.18333     -401.43134      312.52435      4525.9532      1.0177122      4455.7805     -143.2208      -4.6924513     -679.52115     -891.47549     -1714.2174      0            
     15000  -141.45975      251.73843     -393.19818      307.10191      679.54784      1.0177122      4455.7805     -144.88716     -4.6924513     -683.21262     -891.42806     -1719.5278      0            
     16000  -94.999226      270.50741     -365.50664      329.99865     -3650.2213      1.0177122      4455.7805     -139.46914     -4.6924513     -678.88119     -891.59235     -1709.9427      0            
     17000  -130.18377      255.28715     -385.47092      311.43109      3697.1025      1.0177122      4455.7805     -135.33841     -4.6924513     -683.84212     -891.57366     -1710.7542      0            
     18000  -132.30384      250.06445     -382.36829      305.05979     -1958.8936      1.0177122      4455.7805     -137.09227     -4.6924513     -680.81139     -891.36773     -1709.2714      0            
     19000  -183.71756      220.26132     -403.97888      268.70222      5464.8462      1.0177122      4455.7805     -135.62859     -4.6924513     -681.6021      -891.40673     -1708.6374      0            
     20000  -148.90672      248.47707     -397.3838       303.12331      4215.5804      1.0177122      4455.7805     -141.36469     -4.6924513     -683.10768     -891.52366     -1715.996       0            
     21000  -101.78328      262.19164     -363.97492      319.85404     -2920.6595      1.0177122      4455.7805     -142.00667     -4.6924513     -676.93999     -891.47087     -1710.4175      0            
     22000  -102.74701      283.12999     -385.87701      345.39725     -982.22627      1.0177122      4455.7805     -146.81027     -4.6924513     -680.08804     -891.48086     -1718.3792      0            
     23000  -112.03038      254.63629     -366.66667      310.63709     -3173.6654      1.0177122      4455.7805     -143.02818     -4.6924513     -675.3765      -891.46585     -1709.8705      0            
     24000  -127.73487      244.60652     -372.34138      298.40152      2003.8727      1.0177122      4455.7805     -146.30882     -4.6924513     -678.63523     -891.62138     -1716.5654      0            
     25000  -127.90056      249.48234     -377.3829       304.34966     -8.4965282      1.0177122      4455.7805     -143.78113     -4.6924513     -678.69894     -891.62496     -1714.105       0            
     26000  -113.142        264.25439     -377.39639      322.37045      2863.714       1.0177122      4455.7805     -140.17722     -4.6924513     -680.95937     -891.40461     -1712.5412      0            
     27000  -120.4908       238.5188      -359.00961      290.97497     -2367.2762      1.0177122      4455.7805     -140.18821     -4.6924513     -679.88116     -891.51313     -1711.5825      0            
     28000  -139.57274      264.19577     -403.76851      322.29893      1961.7208      1.0177122      4455.7805     -138.94601     -4.6924513     -681.03062     -891.65329     -1711.6299      0            
     29000  -115.56337      256.88229     -372.44565      313.37703     -945.41153      1.0177122      4455.7805     -141.08026     -4.6924513     -680.71004     -891.59751     -1713.3878      0            
     30000  -106.79662      267.15098     -373.9476       325.90406      1307.2462      1.0177122      4455.7805     -152.61773     -4.6924513     -679.58897     -891.36334     -1723.57        0            
     31000  -141.63514      245.57419     -387.20933      299.58201     -1750.633       1.0177122      4455.7805     -139.10756     -4.6924513     -679.94721     -891.41608     -1710.4709      0            
     32000  -147.7553       250.59646     -398.35175      305.70879      4391.8326      1.0177122      4455.7805     -135.60349     -4.6924513     -679.08923     -891.42136     -1706.1141      0            
     33000  -115.95156      242.35042     -358.30198      295.64925     -1866.8012      1.0177122      4455.7805     -144.37197     -4.6924513     -683.37242     -891.51867     -1719.2631      0            
     34000  -131.14047      260.79109     -391.93157      318.14548      1936.5482      1.0177122      4455.7805     -144.92783     -4.6924513     -677.51326     -891.44029     -1713.8814      0            
     35000  -112.77519      257.75454     -370.52973      314.44111     -866.23072      1.0177122      4455.7805     -144.34809     -4.6924513     -681.66932     -891.42496     -1717.4424      0            
     36000  -132.28427      254.81333     -387.0976       310.85306      1237.0192      1.0177122      4455.7805     -144.73811     -4.6924513     -680.12803     -891.48782     -1716.354       0            
     37000  -133.15811      248.9611      -382.11921      303.71378      1552.1948      1.0177122      4455.7805     -143.85177     -4.6924513     -680.49895     -891.51359     -1715.8643      0            
     38000  -136.09582      252.57036     -388.66618      308.11681     -1938.5217      1.0177122      4455.7805     -148.4833      -4.6924513     -674.88301     -891.49492     -1714.8612      0            
     39000  -146.70673      236.61305     -383.31978      288.65009      3164.828       1.0177122      4455.7805     -136.75336     -4.6924513     -679.76262     -891.45069     -1707.9667      0            
     40000  -143.60296      252.00233     -395.60529      307.42386      2247.3419      1.0177122      4455.7805     -139.71272     -4.6924513     -681.23406     -891.55518     -1712.502       0            
     41000  -135.30679      240.92092     -376.22771      293.90537      888.8805       1.0177122      4455.7805     -149.35224     -4.6924513     -681.55734     -891.56994     -1722.4795      0            
     42000  -122.4943       265.02438     -387.51868      323.30977      1935.7824      1.0177122      4455.7805     -151.99316     -4.6924513     -677.45285     -891.31268     -1720.7587      0            
     43000  -135.36137      247.04363     -382.405        301.37461     -4211.9634      1.0177122      4455.7805     -148.64344     -4.6924513     -680.53201     -891.47764     -1720.6531      0            
     44000  -172.4552       226.64394     -399.09914      276.48853      1157.0582      1.0177122      4455.7805     -147.54678     -4.6924513     -678.95929     -891.46488     -1717.9709      0            
     45000  -115.02308      266.08326     -381.10634      324.60153      113.07867      1.0177122      4455.7805     -143.45553     -4.6924513     -680.60485     -891.41842     -1715.4788      0            
     46000  -113.85754      262.57764     -376.43518      320.32493     -3466.4833      1.0177122      4455.7805     -145.73165     -4.6924513     -681.21693     -891.47276     -1718.4213      0            
     47000  -147.6943       246.49017     -394.18446      300.69943      2379.7951      1.0177122      4455.7805     -146.97955     -4.6924513     -681.62532     -891.4141      -1720.019       0            
     48000  -148.84065      237.79859     -386.63924      290.09636      920.78938      1.0177122      4455.7805     -145.93002     -4.6924513     -681.60638     -891.47094     -1719.0073      0            
     49000  -130.99166      266.5593      -397.55096      325.18226      892.81751      1.0177122      4455.7805     -144.50746     -4.6924513     -680.02275     -891.588       -1716.1182      0            
     50000  -107.55081      276.26631     -383.81712      337.02408      197.554        1.0177122      4455.7805     -146.28076     -4.6924513     -677.71054     -891.67697     -1715.6683      0            
     51000  -136.46443      257.21553     -393.67996      313.78356      1156.2442      1.0177122      4455.7805     -139.06188     -4.6924513     -680.07524     -891.62207     -1710.7592      0            
     52000  -142.03553      242.62681     -384.66235      295.98643      2769.5182      1.0177122      4455.7805     -141.77965     -4.6924513     -680.00624     -891.45481     -1713.2407      0            
     53000  -121.45483      247.39644     -368.85127      301.80502     -3256.6749      1.0177122      4455.7805     -141.26883     -4.6924513     -678.72873     -891.37423     -1711.3718      0            
     54000  -139.51582      235.91241     -375.42822      287.79536      1745.1411      1.0177122      4455.7805     -129.49893     -4.6924513     -679.55463     -891.55433     -1700.6079      0            
     55000  -120.17465      260.77136     -380.94602      318.12141      3062.0803      1.0177122      4455.7805     -138.13325     -4.6924513     -681.60325     -891.41665     -1711.1531      0            
     56000  -135.28801      250.0853      -385.37332      305.08522      4216.3957      1.0177122      4455.7805     -143.81569     -4.6924513     -679.99019     -891.56811     -1715.374       0            
     57000  -128.17522      253.10666     -381.28188      308.77106      2499.4014      1.0177122      4455.7805     -134.3476      -4.6924513     -684.0297      -891.46209     -1709.8394      0            
     58000  -130.199        251.17599     -381.37499      306.41578      1869.2392      1.0177122      4455.7805     -134.45712     -4.6924513     -679.84869     -891.48536     -1705.7912      0            
     59000  -145.74914      248.89807     -394.64722      303.63689      1198.185       1.0177122      4455.7805     -139.36827     -4.6924513     -678.87526     -891.49431     -1709.7378      0            
     60000  -148.20316      249.52502     -397.72818      304.40172      7061.5665      1.0177122      4455.7805     -132.20266     -4.6924513     -684.42012     -891.54701     -1708.1698      0            
     61000  -175.1106       232.63855     -407.74915      283.80149     -1052.383       1.0177122      4455.7805     -146.28696     -4.6924513     -680.53999     -891.581       -1718.4079      0            
     62000  -118.65776      269.24438     -387.90213      328.45785      2472.1295      1.0177122      4455.7805     -150.39659     -4.6924513     -681.97211     -891.54877     -1723.9175      0            
     63000  -144.11176      253.87798     -397.98974      309.71201      4726.5482      1.0177122      4455.7805     -135.2307      -4.6924513     -684.2173      -891.55718     -1711.0052      0            
     64000  -129.08003      251.99841     -381.07844      307.41907      842.95293      1.0177122      4455.7805     -138.59068     -4.6924513     -679.35561     -891.54917     -1709.4955      0            
     65000  -134.23572      254.59931     -388.83503      310.59197     -734.61987      1.0177122      4455.7805     -135.92669     -4.6924513     -680.73196     -891.30326     -1707.9619      0            
     66000  -142.50327      229.46656     -371.96983      279.93192      6142.5337      1.0177122      4455.7805     -147.67037     -4.6924513     -680.29216     -891.49806     -1719.4606      0            
     67000  -141.3213       256.75989     -398.08119      313.22772     -4792.6619      1.0177122      4455.7805     -140.03293     -4.6924513     -680.34269     -891.50222     -1711.8778      0            
     68000  -142.32716      244.5685      -386.89566      298.35514      2211.244       1.0177122      4455.7805     -146.93609     -4.6924513     -676.62751     -891.56782     -1715.1314      0            
     69000  -132.46002      256.57592     -389.03594      313.00328     -47.414446      1.0177122      4455.7805     -150.91839     -4.6924513     -676.9691      -891.52309     -1719.4106      0            
     70000  -147.24074      248.86342     -396.10417      303.59462      3635.1667      1.0177122      4455.7805     -143.62004     -4.6924513     -680.90175     -891.40745     -1715.9292      0            
     71000  -165.60569      228.97112     -394.57681      279.32751     -2004.1048      1.0177122      4455.7805     -145.768       -4.6924513     -676.73395     -891.57169     -1714.0736      0            
     72000  -166.89764      235.92871     -402.82634      287.81524     -412.71434      1.0177122      4455.7805     -144.3373      -4.6924513     -681.76917     -891.60222     -1717.7087      0            
     73000  -133.59303      244.60279     -378.19582      298.39697     -3401.5972      1.0177122      4455.7805     -149.91066     -4.6924513     -680.06852     -891.47144     -1721.4506      0            
     74000  -152.60596      252.37943     -404.9854       307.88389      3136.4312      1.0177122      4455.7805     -148.16561     -4.6924513     -679.64656     -891.4531      -1719.2653      0            
     75000  -121.68827      258.26457     -379.95284      315.06332      1398.9352      1.0177122      4455.7805     -141.12713     -4.6924513     -680.80832     -891.4034      -1713.3388      0            
     76000  -143.22116      245.79041     -389.01157      299.84578      6609.5143      1.0177122      4455.7805     -135.57606     -4.6924513     -677.75225     -891.4282      -1704.7565      0            
     77000  -127.73232      249.73321     -377.46553      304.6557      -4418.7781      1.0177122      4455.7805     -155.74873     -4.6924513     -676.41686     -891.33176     -1723.4974      0            
     78000  -133.39629      250.43809     -383.83438      305.5156       1095.4653      1.0177122      4455.7805     -145.13658     -4.6924513     -682.3951      -891.69486     -1719.2265      0            
     79000  -128.24616      259.34382     -387.58998      316.37991      668.90121      1.0177122      4455.7805     -143.5616      -4.6924513     -678.27522     -891.55708     -1713.3939      0            
     80000  -179.491        228.83317     -408.32417      279.15922      636.23767      1.0177122      4455.7805     -150.68266     -4.6924513     -678.89338     -891.43567     -1721.0117      0            
     81000  -157.44416      252.10353     -409.54769      307.54731      3105.4665      1.0177122      4455.7805     -158.6142      -4.6924513     -678.48371     -891.48956     -1728.5875      0            
     82000  -127.07936      266.36883     -393.44819      324.9499      -3779.9775      1.0177122      4455.7805     -146.85366     -4.6924513     -676.93753     -891.25746     -1715.0486      0            
     83000  -118.3386       265.63814     -383.97674      324.05851     -1042.5444      1.0177122      4455.7805     -146.78332     -4.6924513     -680.63638     -891.64989     -1719.0696      0            
     84000  -135.02293      269.67032     -404.69325      328.97747      4217.3096      1.0177122      4455.7805     -138.2139      -4.6924513     -679.82233     -891.62938     -1709.6656      0            
     85000  -116.73747      249.42075     -366.15822      304.27452      4635.9713      1.0177122      4455.7805     -144.50288     -4.6924513     -680.24754     -891.35459     -1716.105       0            
     86000  -120.38988      253.00839     -373.39827      308.65117      4255.6693      1.0177122      4455.7805     -138.28234     -4.6924513     -683.12677     -891.53279     -1712.9419      0            
     87000  -148.86973      240.91952     -389.78924      293.90365      3607.9938      1.0177122      4455.7805     -132.23463     -4.6924513     -686.53585     -891.54304     -1710.3135      0            
     88000  -175.0875       246.38254     -421.47004      300.56813      2005.6493      1.0177122      4455.7805     -148.60106     -4.6924513     -681.07687     -891.58594     -1721.2639      0            
     89000  -165.95501      211.29594     -377.25095      257.76513     -2964.8071      1.0177122      4455.7805     -148.47096     -4.6924513     -678.07057     -891.43175     -1717.9733      0            
     90000  -112.83973      255.306       -368.14573      311.45408      4188.7377      1.0177122      4455.7805     -146.01673     -4.6924513     -682.44444     -891.58677     -1720.0479      0            
     91000  -137.99082      246.18877     -384.17959      300.33175      4369.6857      1.0177122      4455.7805     -142.18311     -4.6924513     -684.64642     -891.60271     -1718.4322      0            
     92000  -165.40321      236.18319     -401.5864       288.12569      9.0573197      1.0177122      4455.7805     -149.71937     -4.6924513     -676.44768     -891.47416     -1717.6412      0            
     93000  -134.05612      245.53852     -379.59464      299.53849      209.97303      1.0177122      4455.7805     -147.85027     -4.6924513     -683.85619     -891.52059     -1723.227       0            
     94000  -134.07568      242.35384     -376.42952      295.65342     -2483.7015      1.0177122      4455.7805     -147.62795     -4.6924513     -679.96574     -891.37092     -1718.9646      0            
     95000  -136.87274      249.9982      -386.87095      304.97897      5067.6145      1.0177122      4455.7805     -147.99418     -4.6924513     -678.24927     -891.45988     -1717.7033      0            
     96000  -138.08927      249.26573     -387.355        304.08541     -82.547999      1.0177122      4455.7805     -144.48891     -4.6924513     -677.11927     -891.42283     -1713.031       0            
     97000  -126.32114      246.11894     -372.44008      300.24656     -1659.8909      1.0177122      4455.7805     -136.05255     -4.6924513     -676.61028     -891.51172     -1704.1746      0            
     98000  -101.86158      276.48752     -378.3491       337.29394      1292.7039      1.0177122      4455.7805     -143.93299     -4.6924513     -679.6943      -891.5852      -1715.2125      0            
     99000  -135.01533      259.50143     -394.51676      316.57219      712.00812      1.0177122      4455.7805     -147.66324     -4.6924513     -680.72552     -891.51894     -1719.9077      0            
    100000  -105.3245       263.49564     -368.82014      321.44482      1999.0628      1.0177122      4455.7805     -144.98997     -4.6924513     -677.49028     -891.32354     -1713.8038      0            
    101000  -95.365684      276.38376     -371.74944      337.16736     -1763.4552      1.0177122      4455.7805     -152.2468      -4.6924513     -678.36664     -891.37597     -1721.9894      0            
    102000  -149.78858      251.87618     -401.66477      307.26996      1469.4306      1.0177122      4455.7805     -142.0882      -4.6924513     -679.17657     -891.44173     -1712.7065      0            
    103000  -157.06715      231.53317     -388.60032      282.45302      328.74571      1.0177122      4455.7805     -150.81104     -4.6924513     -679.24124     -891.58008     -1721.6324      0            
    104000  -115.16397      265.01732     -380.18128      323.30116      7964.7896      1.0177122      4455.7805     -147.35983     -4.6924513     -684.45601     -891.52757     -1723.3434      0            
    105000  -107.24626      275.46711     -382.71337      336.04911      165.81574      1.0177122      4455.7805     -152.84841     -4.6924513     -682.13146     -891.57804     -1726.5579      0            
    106000  -133.85828      251.03732     -384.8956       306.24661      659.14267      1.0177122      4455.7805     -150.99126     -4.6924513     -678.14635     -891.29326     -1720.4309      0            
    107000  -116.67039      265.97531     -382.64571      324.46984     -238.1514       1.0177122      4455.7805     -142.40508     -4.6924513     -679.77416     -891.6766      -1713.8558      0            
    108000  -145.61713      251.40412     -397.02125      306.69408      3758.8388      1.0177122      4455.7805     -146.10135     -4.6924513     -683.22087     -891.39413     -1720.7164      0            
    109000  -118.73609      265.70276     -384.43885      324.13735      6365.0202      1.0177122      4455.7805     -138.32891     -4.6924513     -677.67162     -891.46719     -1707.4677      0            
    110000  -135.94209      256.25334     -392.19543      312.60976     -684.35166      1.0177122      4455.7805     -139.47124     -4.6924513     -680.15762     -891.45085     -1711.0797      0            
    111000  -131.00394      269.59045     -400.59439      328.88003      2584.382       1.0177122      4455.7805     -135.83558     -4.6924513     -679.74757     -891.4865      -1707.0697      0            
    112000  -114.10698      256.17138     -370.27837      312.50978     -1901.7898      1.0177122      4455.7805     -150.34583     -4.6924513     -681.45777     -891.43883     -1723.2424      0            
    113000  -110.86506      269.67816     -380.54322      328.98703      2511.7008      1.0177122      4455.7805     -133.35319     -4.6924513     -682.19306     -891.43268     -1706.9789      0            
    114000  -118.99295      260.98782     -379.98077      318.38548      563.36153      1.0177122      4455.7805     -135.97966     -4.6924513     -677.43029     -891.47902     -1704.889       0            
    115000  -130.76328      246.80187     -377.56515      301.07969      5481.2837      1.0177122      4455.7805     -143.95448     -4.6924513     -681.6323      -891.68325     -1717.27        0            
    116000  -126.5105       273.49952     -400.01002      333.6488       3002.694       1.0177122      4455.7805     -151.01638     -4.6924513     -677.24374     -891.47822     -1719.7384      0            
    117000  -105.76854      264.46998     -370.23852      322.63345      196.75162      1.0177122      4455.7805     -149.19941     -4.6924513     -679.87609     -891.51174     -1720.5872      0            
    118000  -153.34119      236.99596     -390.33716      289.11722     -1511.3599      1.0177122      4455.7805     -145.95164     -4.6924513     -680.24806     -891.42597     -1717.6257      0            
    119000  -143.26249      236.40202     -379.66451      288.39265      1327.0417      1.0177122      4455.7805     -141.03611     -4.6924513     -680.08951     -891.39255     -1712.5182      0            
    120000  -98.189195      262.7312      -360.92039      320.51226     -3616.6972      1.0177122      4455.7805     -137.74385     -4.6924513     -676.4627      -891.40832     -1705.6149      0            
    121000  -131.00863      245.55308     -376.56171      299.55625      131.31356      1.0177122      4455.7805     -143.27912     -4.6924513     -681.1149      -891.52502     -1715.919       0            
    122000  -111.80238      252.53215     -364.33452      308.07019      2817.52        1.0177122      4455.7805     -148.57661     -4.6924513     -681.91643     -891.51464     -1722.0077      0            
    123000  -110.3074       248.58001     -358.88741      303.24888      3041.2089      1.0177122      4455.7805     -143.83968     -4.6924513     -681.51501     -891.53723     -1716.8919      0            
    124000  -149.19244      245.06984     -394.26228      298.96674     -1165.4251      1.0177122      4455.7805     -147.66702     -4.6924513     -679.30974     -891.47445     -1718.4512      0            
    125000  -136.67046      249.47927     -386.14973      304.3459      -1507.1786      1.0177122      4455.7805     -141.71145     -4.6924513     -679.30178     -891.32963     -1712.3429      0            
    126000  -134.44562      260.64001     -395.08563      317.96117     -1251.3093      1.0177122      4455.7805     -154.70579     -4.6924513     -677.81202     -891.41634     -1723.9342      0            
    127000  -147.79111      225.75302     -373.54413      275.40167      1529.7565      1.0177122      4455.7805     -154.47323     -4.6924513     -676.85936     -891.60448     -1722.9371      0            
    128000  -155.14835      252.30145     -407.4498       307.78876     -69.689198      1.0177122      4455.7805     -150.4672      -4.6924513     -682.72497     -891.37263     -1724.5648      0            
    129000  -104.94262      249.76378     -354.7064       304.69299      529.67695      1.0177122      4455.7805     -136.41848     -4.6924513     -676.41563     -891.51638     -1704.3505      0            
    130000  -161.63741      250.71354     -412.35095      305.85163      2743.6629      1.0177122      4455.7805     -150.37522     -4.6924513     -682.44986     -891.45198     -1724.2771      0            
    131000  -154.50853      243.28842     -397.79695      296.79354     -1221.7918      1.0177122      4455.7805     -141.62912     -4.6924513     -679.59456     -891.54631     -1712.77        0            
    132000  -147.37082      251.00387     -398.37468      306.2058      -694.70089      1.0177122      4455.7805     -148.92199     -4.6924513     -680.1263      -891.57093     -1720.6192      0            
    133000  -119.38826      264.75296     -384.14122      322.97866      5358.6949      1.0177122      4455.7805     -144.41096     -4.6924513     -682.61854     -891.54538     -1718.5749      0            
    134000  -154.71639      236.94726     -391.66365      289.0578       2278.888       1.0177122      4455.7805     -146.37313     -4.6924513     -682.59845     -891.50907     -1720.4807      0            
    135000  -169.96217      221.64059     -391.60276      270.38482      3117.1237      1.0177122      4455.7805     -137.51952     -4.6924513     -679.0707      -891.41115     -1708.0014      0            
    136000  -154.37365      229.20292     -383.57657      279.61029      1356.4636      1.0177122      4455.7805     -142.44894     -4.6924513     -684.10665     -891.59017     -1718.1458      0            
    137000  -103.64893      248.28133     -351.93026      302.88452      2739.3209      1.0177122      4455.7805     -143.72654     -4.6924513     -680.96155     -891.55836     -1716.2465      0            
    138000  -158.63109      247.92579     -406.55687      302.45078     -2561.0645      1.0177122      4455.7805     -151.86377     -4.6924513     -679.92356     -891.51345     -1723.3008      0            
    139000  -144.38558      254.85007     -399.23565      310.89788      1475.8011      1.0177122      4455.7805     -149.6614      -4.6924513     -681.44386     -891.42578     -1722.531       0            
    140000  -147.36563      242.2167      -389.58233      295.48612      923.2037       1.0177122      4455.7805     -145.52419     -4.6924513     -677.86478     -891.32344     -1714.7124      0            
    141000  -137.88085      241.60798     -379.48882      294.74352      1478.6161      1.0177122      4455.7805     -147.04534     -4.6924513     -684.2057      -891.59584     -1722.8469      0            
    142000  -121.68214      259.32663     -381.00877      316.35895      1789.4645      1.0177122      4455.7805     -149.1404      -4.6924513     -681.69222     -891.5361      -1722.3687      0            
    143000  -140.17751      222.73411     -362.91162      271.71883      3029.9484      1.0177122      4455.7805     -144.52345     -4.6924513     -679.74774     -891.52402     -1715.7952      0            
    144000  -145.47898      234.92043     -380.39941      286.58522      5840.867       1.0177122      4455.7805     -141.32154     -4.6924513     -683.46638     -891.45934     -1716.2473      0            
    145000  -160.39247      232.7934      -393.18587      283.99041     -3123.3985      1.0177122      4455.7805     -142.78111     -4.6924513     -680.51082     -891.43103     -1714.723       0            
    146000  -146.88335      222.82413     -369.70748      271.82865     -1465.6833      1.0177122      4455.7805     -144.25817     -4.6924513     -679.90777     -891.50215     -1715.6681      0            
    147000  -158.90274      228.48514     -387.38787      278.73465      4357.8743      1.0177122      4455.7805     -137.93886     -4.6924513     -679.48886     -891.5578      -1708.9855      0            
    148000  -132.75349      256.30562     -389.05912      312.67355      1540.6734      1.0177122      4455.7805     -143.75944     -4.6924513     -679.15069     -891.58584     -1714.496       0            
    149000  -147.27958      250.3091      -397.58868      305.35824      452.60212      1.0177122      4455.7805     -151.11943     -4.6924513     -678.0608      -891.34943     -1720.5297      0            
    150000  -155.91702      228.9519      -384.86892      279.30407      396.24104      1.0177122      4455.7805     -143.92103     -4.6924513     -682.79929     -891.51766     -1718.238       0            
    151000  -156.86925      238.83971     -395.70896      291.36645      2605.1401      1.0177122      4455.7805     -143.07812     -4.6924513     -684.23148     -891.6102      -1718.9198      0            
    152000  -149.01642      236.5823      -385.59872      288.61258     -2003.8208      1.0177122      4455.7805     -146.93357     -4.6924513     -678.46492     -891.48225     -1716.8807      0            
    153000  -140.29457      242.26349     -382.55806      295.5432       1444.8567      1.0177122      4455.7805     -149.57398     -4.6924513     -679.3098      -891.2411      -1720.1249      0            
    154000  -164.60714      231.19199     -395.79912      282.0368      -1242.4983      1.0177122      4455.7805     -144.46334     -4.6924513     -679.30712     -891.26477     -1715.0352      0            
    155000  -163.63567      229.53654     -393.17221      280.01728      700.50954      1.0177122      4455.7805     -148.61219     -4.6924513     -677.84336     -891.3883      -1717.8438      0            
    156000  -138.87521      235.81231     -374.68752      287.67325      3904.2573      1.0177122      4455.7805     -146.76384     -4.6924513     -682.11156     -891.44729     -1720.3227      0            
    157000  -106.35951      248.50934     -354.86886      303.16267      5753.7887      1.0177122      4455.7805     -140.47728     -4.6924513     -681.75335     -891.42635     -1713.657       0            
    158000  -133.12095      253.13123     -386.25219      308.80103      843.48981      1.0177122      4455.7805     -145.08134     -4.6924513     -680.12387     -891.33658     -1716.5418      0            
    159000  -133.91994      245.7953      -379.71524      299.85174     -3559.2982      1.0177122      4455.7805     -143.70873     -4.6924513     -677.57344     -891.57695     -1712.8591      0            
    160000  -137.13469      250.9931      -388.12779      306.19267     -1114.6596      1.0177122      4455.7805     -145.10473     -4.6924513     -677.03927     -891.73358     -1713.8776      0            
    161000  -115.83696      264.26843     -380.10539      322.38757      3170.076       1.0177122      4455.7805     -145.58179     -4.6924513     -678.66485     -891.39576     -1715.6424      0            
    162000  -132.48134      248.05772     -380.53907      302.61173     -3506.1858      1.0177122      4455.7805     -134.34431     -4.6924513     -679.15051     -891.43318     -1704.928       0            
    163000  -143.39197      245.35175     -388.74372      299.31064      2574.7243      1.0177122      4455.7805     -145.75986     -4.6924513     -679.52551     -891.62239     -1716.9078      0            
    164000  -132.79639      258.31957     -391.11595      315.13041      2066.781       1.0177122      4455.7805     -140.09544     -4.6924513     -679.9915      -891.36253     -1711.4495      0            
    165000  -146.82606      252.58248     -399.40854      308.13159      3700.5554      1.0177122      4455.7805     -149.6285      -4.6924513     -680.9075      -891.49767     -1722.0337      0            
    166000  -127.83515      251.86184     -379.69699      307.25247      1318.3822      1.0177122      4455.7805     -147.17295     -4.6924513     -682.24061     -891.60723     -1721.0208      0            
    167000  -137.62588      259.19198     -396.81786      316.19468      3499.437       1.0177122      4455.7805     -143.90773     -4.6924513     -680.99496     -891.4755      -1716.3782      0            
    168000  -102.08193      287.2397      -389.32163      350.41078      142.03928      1.0177122      4455.7805     -148.8284      -4.6924513     -675.89248     -891.56974     -1716.2906      0            
    169000  -146.62919      244.27346     -390.90265      297.99521      1869.6014      1.0177122      4455.7805     -150.22678     -4.6924513     -675.16777     -891.43775     -1716.8323      0            
    170000  -129.80631      235.85206     -365.65837      287.72174      1402.6015      1.0177122      4455.7805     -146.78831     -4.6924513     -680.99895     -891.5875      -1719.3748      0            
    171000  -131.80069      239.41241     -371.2131       292.0651       1243.9041      1.0177122      4455.7805     -152.29436     -4.6924513     -679.11778     -891.3789      -1722.791       0            
    172000  -138.38821      252.92093     -391.30914      308.54447     -1509.7417      1.0177122      4455.7805     -139.66416     -4.6924513     -678.70264     -891.57384     -1709.9406      0            
    173000  -142.39378      245.55319     -387.94697      299.55639     -2565.8779      1.0177122      4455.7805     -149.791       -4.6924513     -679.46516     -891.38232     -1720.6385      0            
    174000  -141.25185      244.07306     -385.32491      297.75074     -2141.7796      1.0177122      4455.7805     -142.84981     -4.6924513     -678.19203     -891.68066     -1712.7225      0            
    175000  -133.54902      258.5998      -392.14882      315.47227      4122.6094      1.0177122      4455.7805     -136.34991     -4.6924513     -680.52482     -891.36331     -1708.238       0            
    176000  -143.48829      249.49168     -392.97997      304.36105      564.71799      1.0177122      4455.7805     -147.77364     -4.6924513     -681.95448     -891.6588      -1721.3869      0            
    177000  -127.46761      238.45547     -365.92308      290.8977       5550.9269      1.0177122      4455.7805     -143.41192     -4.6924513     -679.87797     -891.38887     -1714.6788      0            
    178000  -144.02661      250.00851     -394.03512      304.99154     -369.21147      1.0177122      4455.7805     -150.40661     -4.6924513     -680.86528     -891.4766      -1722.7485      0            
    179000  -124.67083      258.61218     -383.28302      315.48737     -3926.4554      1.0177122      4455.7805     -148.00905     -4.6924513     -680.27587     -891.40309     -1719.688       0            
    180000  -142.61254      232.23402     -374.84656      283.30801      2256.2919      1.0177122      4455.7805     -136.47975     -4.6924513     -679.15321     -891.55612     -1707.1891      0            
    181000  -89.923521      276.60975     -366.53327      337.44305      3058.0501      1.0177122      4455.7805     -141.01007     -4.6924513     -682.23265     -891.40538     -1714.6481      0            
    182000  -124.19974      254.84255     -379.04229      310.88871     -2789.6165      1.0177122      4455.7805     -136.05764     -4.6924513     -678.32794     -891.48352     -1705.8691      0            
    183000  -120.84521      262.63869     -383.4839       320.39941      794.09833      1.0177122      4455.7805     -152.7485      -4.6924513     -678.55114     -891.45633     -1722.756       0            
    184000  -119.78074      257.04696     -376.8277       313.57793      791.21942      1.0177122      4455.7805     -136.83199     -4.6924513     -678.54515     -891.40354     -1706.7807      0            
    185000  -132.59063      260.21076     -392.80139      317.43752      60.663425      1.0177122      4455.7805     -135.9843      -4.6924513     -680.70766     -891.57486     -1708.2668      0            
    186000  -135.41733      248.00214     -383.41947      302.54392      82.708133      1.0177122      4455.7805     -147.13682     -4.6924513     -681.4706      -891.35067     -1719.9581      0            
    187000  -132.7585       256.14413     -388.90263      312.47653      1938.3987      1.0177122      4455.7805     -143.05469     -4.6924513     -679.94487     -891.46708     -1714.4666      0            
    188000  -155.23682      254.62949     -409.86631      310.62879      1624.3093      1.0177122      4455.7805     -139.44401     -4.6924513     -680.72595     -891.4844      -1711.6544      0            
    189000  -158.70752      233.05073     -391.75826      284.30433      1840.4325      1.0177122      4455.7805     -138.67854     -4.6924513     -680.79897     -891.42558     -1710.9031      0            
    190000  -104.3672       284.70475     -389.07195      347.31834      2544.6683      1.0177122      4455.7805     -144.01053     -4.6924513     -681.51195     -891.48944     -1717.0119      0            
    191000  -156.00565      245.60763     -401.61328      299.6228       5782.2806      1.0177122      4455.7805     -143.22426     -4.6924513     -679.94086     -891.51688     -1714.682       0            
    192000  -108.24272      263.36966     -371.61239      321.29114     -193.5142       1.0177122      4455.7805     -148.80713     -4.6924513     -678.44749     -891.49838     -1718.753       0            
    193000  -121.58465      277.18714     -398.7718       338.14743      3788.9532      1.0177122      4455.7805     -139.98814     -4.6924513     -681.86228     -891.39019     -1713.2406      0            
    194000  -145.33049      241.84298     -387.17347      295.03022      7888.7419      1.0177122      4455.7805     -144.77416     -4.6924513     -681.63233     -891.54676     -1717.9532      0            
    195000  -143.664        241.70868     -385.37268      294.86637      3573.8155      1.0177122      4455.7805     -149.19492     -4.6924513     -680.5851      -891.51057     -1721.2906      0            
    196000  -135.71726      244.14486     -379.86212      297.83833     -4011.5175      1.0177122      4455.7805     -145.01512     -4.6924513     -678.3652      -891.64709     -1715.0274      0            
    197000  -143.76073      239.90611     -383.66683      292.66737     -3890.4096      1.0177122      4455.7805     -133.25737     -4.6924513     -681.51617     -891.53284     -1706.3064      0            
    198000  -108.52978      271.89292     -380.4227       331.68887      5020.0313      1.0177122      4455.7805     -142.34708     -4.6924513     -681.83013     -891.57247     -1715.7497      0            
    199000  -118.30138      255.01284     -373.31422      311.09645      1260.4848      1.0177122      4455.7805     -145.7109      -4.6924513     -680.89794     -891.41288     -1718.0217      0            
    200000  -110.8289       271.56726     -382.39616      331.29159      4821.4454      1.0177122      4455.7805     -132.20952     -4.6924513     -681.38245     -891.45842     -1705.0504      0            
    201000  -124.82158      264.42789     -389.24948      322.5821      -3932.0936      1.0177122      4455.7805     -150.34572     -4.6924513     -680.90077     -891.39564     -1722.6421      0            
    202000  -140.02622      247.20636     -387.23259      301.57313      5577.7753      1.0177122      4455.7805     -140.43143     -4.6924513     -683.09561     -891.5894      -1715.1164      0            
    203000  -140.75421      258.80945     -399.56366      315.72802      1566.6417      1.0177122      4455.7805     -155.02134     -4.6924513     -678.82317     -891.53093     -1725.3754      0            
    204000  -152.76041      248.99814     -401.75855      303.75897      4671.8504      1.0177122      4455.7805     -140.30019     -4.6924513     -678.74475     -891.49677     -1710.5417      0            
    205000  -135.52152      256.70188     -392.22341      313.15695     -136.0104       1.0177122      4455.7805     -154.07158     -4.6924513     -680.96901     -891.62151     -1726.6621      0            
    206000  -111.88818      255.51474     -367.40292      311.70872     -273.90031      1.0177122      4455.7805     -142.61718     -4.6924513     -678.52082     -891.55037     -1712.6884      0            
    207000  -140.33776      232.92725     -373.265        284.15369      1720.8394      1.0177122      4455.7805     -140.37053     -4.6924513     -678.58149     -891.60934     -1710.5614      0            
    208000  -158.97901      231.73211     -390.71113      282.69572     -1118.6311      1.0177122      4455.7805     -143.71647     -4.6924513     -680.79683     -891.39149     -1715.9048      0            
    209000  -120.7172       274.05745     -394.77465      334.32943      3273.0245      1.0177122      4455.7805     -141.56927     -4.6924513     -684.59643     -891.71311     -1717.8788      0            
    210000  -128.99211      265.79127     -394.78338      324.24532      231.45544      1.0177122      4455.7805     -142.17817     -4.6924513     -680.2678      -891.47503     -1713.921       0            
    211000  -133.79963      247.29407     -381.0937       301.68013      917.25255      1.0177122      4455.7805     -141.10809     -4.6924513     -677.54521     -891.5408      -1710.1941      0            
    212000  -126.09305      238.05384     -364.14689      290.40775      3403.4855      1.0177122      4455.7805     -144.99686     -4.6924513     -678.82202     -891.36394     -1715.1828      0            
    213000  -160.04079      220.05795     -380.09875      268.45412      2076.4966      1.0177122      4455.7805     -140.60374     -4.6924513     -681.02925     -891.42739     -1713.0604      0            
    214000  -130.80845      260.76945     -391.5779       318.11908      1480.894       1.0177122      4455.7805     -153.92471     -4.6924513     -679.44885     -891.51328     -1724.8868      0            
    215000  -128.87027      238.32915     -367.19942      290.74361     -432.3187       1.0177122      4455.7805     -153.24435     -4.6924513     -681.19926     -891.54688     -1725.9905      0            
    216000  -112.31551      252.22471     -364.54022      307.69514     -2531.0097      1.0177122      4455.7805     -144.81762     -4.6924513     -681.39524     -891.4111      -1717.624       0            
    217000  -164.73254      238.82366     -403.5562       291.34686      974.20594      1.0177122      4455.7805     -139.03667     -4.6924513     -683.54973     -891.3982      -1713.9846      0            
    218000  -111.19058      267.14095     -378.33153      325.89182     -692.35779      1.0177122      4455.7805     -142.53664     -4.6924513     -681.03308     -891.47268     -1715.0424      0            
    219000  -149.83335      240.48834     -390.32169      293.37765     -1397.3484      1.0177122      4455.7805     -153.35587     -4.6924513     -677.6987      -891.5825      -1722.6371      0            
    220000  -146.0904       251.28203     -397.37242      306.54514      4086.9988      1.0177122      4455.7805     -145.35201     -4.6924513     -677.29407     -891.30462     -1713.9507      0            
    221000  -176.65039      228.87352     -405.52391      279.20845      794.94619      1.0177122      4455.7805     -148.49268     -4.6924513     -679.99346     -891.42764     -1719.9138      0            
    222000  -141.97927      251.00003     -392.9793       306.20112      2712.1814      1.0177122      4455.7805     -138.28875     -4.6924513     -676.78846     -891.4841      -1706.5613      0            
    223000  -127.08891      250.10977     -377.19869      305.11507     -1106.972       1.0177122      4455.7805     -139.4427      -4.6924513     -682.08855     -891.33212     -1712.8634      0            
    224000  -127.70947      269.8265      -397.53597      329.16799     -1506.0282      1.0177122      4455.7805     -147.89959     -4.6924513     -678.56705     -891.4529      -1717.9195      0            
    225000  -123.19804      271.10869     -394.30673      330.73217      1789.0726      1.0177122      4455.7805     -149.4858      -4.6924513     -678.09605     -891.57568     -1719.1575      0            
    226000  -135.80031      245.34481     -381.14513      299.30218     -2199.8036      1.0177122      4455.7805     -153.99037     -4.6924513     -675.76277     -891.43306     -1721.1862      0            
    227000  -91.182145      261.94736     -353.12951      319.55604     -3949.6301      1.0177122      4455.7805     -143.62125     -4.6924513     -680.46731     -891.49383     -1715.5824      0            
    228000  -110.35549      264.03277     -374.38826      322.10008     -2638.4872      1.0177122      4455.7805     -139.65098     -4.6924513     -679.51982     -891.44062     -1710.6114      0            
    229000  -164.40525      226.59228     -390.99753      276.4255       2810.645       1.0177122      4455.7805     -141.16695     -4.6924513     -680.3298      -891.3378      -1712.8346      0            
    230000  -95.588706      258.33419     -353.92289      315.14824      0.57068193     1.0177122      4455.7805     -148.82801     -4.6924513     -677.31548     -891.4472      -1717.5907      0            
    231000  -128.11998      254.79843     -382.91841      310.83488     -112.68252      1.0177122      4455.7805     -146.42505     -4.6924513     -677.31753     -891.63007     -1715.3726      0            
    232000  -151.08145      243.17213     -394.25358      296.65167      3691.411       1.0177122      4455.7805     -139.99843     -4.6924513     -678.63037     -891.51755     -1710.1464      0            
    233000  -152.45473      241.00504     -393.45977      294.00799      4810.9375      1.0177122      4455.7805     -145.57541     -4.6924513     -684.67913     -891.58133     -1721.8359      0            
    234000  -137.24406      257.01791     -394.26198      313.54249      1209.3527      1.0177122      4455.7805     -143.36297     -4.6924513     -682.20942     -891.46541     -1717.0378      0            
    235000  -110.03073      276.60587     -386.6366       337.43831      830.98065      1.0177122      4455.7805     -146.39435     -4.6924513     -679.10968     -891.49118     -1716.9952      0            
    236000  -85.305165      270.72258     -356.02774      330.26114      3297.9187      1.0177122      4455.7805     -150.13933     -4.6924513     -682.45882     -891.54475     -1724.1429      0            
    237000  -139.98811      265.21679     -405.20489      323.5445       3198.2184      1.0177122      4455.7805     -140.81778     -4.6924513     -681.91526     -891.52508     -1714.2581      0            
    238000  -131.27716      239.51678     -370.79394      292.19242     -480.28909      1.0177122      4455.7805     -145.19574     -4.6924513     -678.45805     -891.50099     -1715.1548      0            
    239000  -112.61372      276.64622     -389.25994      337.48754      299.30957      1.0177122      4455.7805     -144.91676     -4.6924513     -681.01446     -891.40501     -1717.3362      0            
    240000  -135.09722      235.74125     -370.83847      287.58656      1628.8917      1.0177122      4455.7805     -145.91333     -4.6924513     -681.74772     -891.45814     -1719.1192      0            
    241000  -102.68034      273.56941     -376.24975      333.73406      2503.1183      1.0177122      4455.7805     -137.76991     -4.6924513     -680.18991     -891.49187     -1709.4517      0            
    242000  -121.90488      261.01881     -382.92369      318.42327      4806.446       1.0177122      4455.7805     -140.02837     -4.6924513     -679.91559     -891.5432      -1711.4872      0            
    243000  -155.47023      240.72399     -396.19422      293.66513      4745.5506      1.0177122      4455.7805     -142.43034     -4.6924513     -682.09633     -891.46013     -1715.9868      0            
    244000  -140.84758      248.75938     -389.60695      303.46769     -62.656936      1.0177122      4455.7805     -148.69573     -4.6924513     -677.70011     -891.4424      -1717.8382      0            
    245000  -136.10533      245.58653     -381.69187      299.59707      1474.9542      1.0177122      4455.7805     -150.06884     -4.6924513     -680.59104     -891.49558     -1722.1555      0            
    246000  -125.63513      241.36388     -366.99901      294.44575      249.69012      1.0177122      4455.7805     -143.12741     -4.6924513     -678.54733     -891.53476     -1713.2095      0            
    247000  -158.20633      259.65143     -417.85776      316.75518     -30.431899      1.0177122      4455.7805     -142.44425     -4.6924513     -680.32573     -891.35982     -1714.1298      0            
    248000  -140.21076      246.08871     -386.29947      300.20968      290.03356      1.0177122      4455.7805     -139.22686     -4.6924513     -681.2243      -891.53218     -1711.9833      0            
    249000  -166.59792      226.79122     -393.38913      276.6682       6093.715       1.0177122      4455.7805     -152.69449     -4.6924513     -680.85988     -891.52665     -1725.081       0            
    250000  -132.22636      245.90282     -378.12918      299.98291      3333.8726      1.0177122      4455.7805     -136.48579     -4.6924513     -680.31467     -891.64006     -1708.4405      0            
    251000  -135.36927      257.84706     -393.21633      314.55398     -1272.1881      1.0177122      4455.7805     -154.08752     -4.6924513     -680.1553      -891.38063     -1725.6234      0            
    252000  -141.67048      249.90051     -391.57099      304.85979      3548.0962      1.0177122      4455.7805     -143.58003     -4.6924513     -681.41489     -891.40897     -1716.4039      0            
    253000  -137.43673      226.62415     -364.06087      276.46438      3410.8337      1.0177122      4455.7805     -144.80811     -4.6924513     -679.08036     -891.4755      -1715.364       0            
    254000  -141.06916      245.04182     -386.11098      298.93256      939.11264      1.0177122      4455.7805     -146.86342     -4.6924513     -677.97593     -891.51389     -1716.3532      0            
    255000  -117.81794      272.72928     -390.54722      332.70917      5371.5603      1.0177122      4455.7805     -141.13894     -4.6924513     -681.88384     -891.62428     -1714.6471      0            
    256000  -137.601        249.74968     -387.35067      304.67578     -4446.8405      1.0177122      4455.7805     -146.69535     -4.6924513     -679.47119     -891.36897     -1717.5355      0            
    257000  -137.11391      252.54995     -389.66386      308.09191      3208.1551      1.0177122      4455.7805     -144.65282     -4.6924513     -678.98751     -891.49166     -1715.132       0            
    258000  -152.11974      230.85792     -382.97765      281.62926      4251.7394      1.0177122      4455.7805     -149.83459     -4.6924513     -682.6049      -891.38292     -1723.8224      0            
    259000  -116.41108      258.11019     -374.52127      314.87498      5066.3646      1.0177122      4455.7805     -135.03072     -4.6924513     -680.05093     -891.59958     -1706.6812      0            
    260000  -121.18662      256.15892     -377.34554      312.49458      2496.5055      1.0177122      4455.7805     -146.88258     -4.6924513     -681.0616      -891.40573     -1719.3499      0            
    261000  -117.67095      250.98823     -368.65918      306.18673      4816.1888      1.0177122      4455.7805     -138.54274     -4.6924513     -680.91534     -891.52609     -1710.9842      0            
    262000  -127.63958      260.61607     -388.25565      317.93197      4594.8448      1.0177122      4455.7805     -147.91665     -4.6924513     -678.7477      -891.48737     -1718.1517      0            
    263000  -149.8339       238.63099     -388.46488      291.11182      2101.1209      1.0177122      4455.7805     -142.21        -4.6924513     -685.33934     -891.57904     -1719.1284      0            
    264000  -125.07286      246.03657     -371.10944      300.14608      213.93139      1.0177122      4455.7805     -136.72517     -4.6924513     -681.83471     -891.49723     -1710.0571      0            
    265000  -135.33059      252.40718     -387.73777      307.91774      353.85353      1.0177122      4455.7805     -132.06063     -4.6924513     -679.82841     -891.35371     -1703.2427      0            
    266000  -144.9566       252.76591     -397.7225       308.35536      2518.5682      1.0177122      4455.7805     -145.96927     -4.6924513     -680.32283     -891.70003     -1717.9921      0            
    267000  -151.56616      240.86786     -392.43402      293.84064     -2208.8587      1.0177122      4455.7805     -147.66543     -4.6924513     -677.17146     -891.36647     -1716.2034      0            
    268000  -132.74447      257.61929     -390.36376      314.27612      3476.7912      1.0177122      4455.7805     -137.66345     -4.6924513     -681.40622     -891.45981     -1710.5295      0            
    269000  -136.19998      247.95009     -384.15007      302.48042     -2594.1024      1.0177122      4455.7805     -150.70518     -4.6924513     -677.53474     -891.41898     -1719.6589      0            
    270000  -150.10787      250.00095     -400.10882      304.98233      2879.8848      1.0177122      4455.7805     -147.93422     -4.6924513     -680.17772     -891.40431     -1719.5163      0            
    271000  -132.14806      254.85482     -387.00288      310.90368      779.80196      1.0177122      4455.7805     -143.2513      -4.6924513     -679.93653     -891.59052     -1714.7783      0            
    272000  -127.39638      249.49407     -376.89045      304.36396     -1550.5696      1.0177122      4455.7805     -145.38118     -4.6924513     -679.60931     -891.40679     -1716.3973      0            
    273000  -140.95033      252.77645     -393.72678      308.36822     -398.04761      1.0177122      4455.7805     -144.16427     -4.6924513     -678.89054     -891.55565     -1714.6105      0            
    274000  -134.16609      231.57091     -365.737        282.49906     -53.607283      1.0177122      4455.7805     -147.77875     -4.6924513     -680.71033     -891.38365     -1719.8727      0            
    275000  -180.51167      223.0699      -403.58157      272.12847      1715.7956      1.0177122      4455.7805     -145.62925     -4.6924513     -682.50353     -891.54613     -1719.6789      0            
    276000  -105.93809      265.64863     -371.58672      324.07131      358.51005      1.0177122      4455.7805     -135.02176     -4.6924513     -685.53096     -891.50187     -1712.0546      0            
    277000  -134.7771       255.38885     -390.16595      311.55516      2355.338       1.0177122      4455.7805     -149.47058     -4.6924513     -677.08767     -891.37787     -1717.9361      0            
    278000  -161.10045      227.72331     -388.82376      277.80528     -5001.0453      1.0177122      4455.7805     -147.13224     -4.6924513     -679.3381      -891.59855     -1718.0689      0            
    279000  -147.82455      262.99964     -410.82419      320.83974      550.93983      1.0177122      4455.7805     -144.7451      -4.6924513     -680.46226     -891.44551     -1716.6529      0            
    280000  -139.85528      251.98213     -391.83741      307.3992       2735.1501      1.0177122      4455.7805     -143.72892     -4.6924513     -678.78373     -891.38019     -1713.8928      0            
    281000  -132.80368      239.96399     -372.76767      292.73799     -1335.0196      1.0177122      4455.7805     -144.43111     -4.6924513     -680.07346     -891.49349     -1715.9981      0            
    282000  -108.81782      285.65784     -394.47567      348.48104      1268.6635      1.0177122      4455.7805     -146.51203     -4.6924513     -682.07072     -891.30557     -1719.8883      0            
    283000  -114.61332      266.33088     -380.9442       324.9036      -1730.6864      1.0177122      4455.7805     -145.51965     -4.6924513     -680.04379     -891.47829     -1717.0417      0            
    284000  -126.21684      250.03517     -376.252        305.02406      4799.1472      1.0177122      4455.7805     -146.9425      -4.6924513     -677.89082     -891.69905     -1716.5324      0            
    285000  -136.66087      236.77195     -373.43282      288.84393      2763.7502      1.0177122      4455.7805     -148.12056     -4.6924513     -679.79434     -891.28258     -1719.1975      0            
    286000  -141.53549      236.41025     -377.94574      288.4027       2243.8887      1.0177122      4455.7805     -147.42309     -4.6924513     -678.29121     -891.5542      -1717.2685      0            
    287000  -113.37472      265.0345      -378.40922      323.32212     -3262.5803      1.0177122      4455.7805     -144.52496     -4.6924513     -678.0126      -891.50725     -1714.0448      0            
    288000  -139.63849      241.02419     -380.66269      294.03135      2736.4695      1.0177122      4455.7805     -147.54665     -4.6924513     -683.33588     -891.69364     -1722.5762      0            
    289000  -142.84056      250.21586     -393.05642      305.2445       2565.0175      1.0177122      4455.7805     -152.94439     -4.6924513     -682.58975     -891.55939     -1727.0935      0            
    290000  -121.75321      251.96973     -373.72294      307.38409      3186.3074      1.0177122      4455.7805     -129.85834     -4.6924513     -684.25898     -891.55351     -1705.6708      0            
    291000  -169.80797      243.70939     -413.51736      297.30709      4338.406       1.0177122      4455.7805     -142.52456     -4.6924513     -679.78585     -891.54667     -1713.8571      0            
    292000  -113.83738      251.83377     -365.67114      307.21822      999.26717      1.0177122      4455.7805     -149.00021     -4.6924513     -679.49391     -891.60891     -1720.103       0            
    293000  -124.58782      275.73195     -400.31977      336.3722       299.89027      1.0177122      4455.7805     -148.88927     -4.6924513     -679.99221     -891.47623     -1720.3577      0            
    294000  -146.27824      230.98151     -377.25975      281.78003      2458.416       1.0177122      4455.7805     -138.32143     -4.6924513     -680.64396     -891.49232     -1710.4577      0            
    295000  -113.51849      257.82624     -371.34474      314.52859      1708.3356      1.0177122      4455.7805     -136.32439     -4.6924513     -681.14814     -891.51469     -1708.9872      0            
    296000  -151.75661      247.17554     -398.93215      301.53553      845.76327      1.0177122      4455.7805     -140.74147     -4.6924513     -676.26026     -891.56795     -1708.5697      0            
    297000  -123.17062      260.61556     -383.78618      317.93135      3185.4551      1.0177122      4455.7805     -137.40355     -4.6924513     -678.62297     -891.46106     -1707.4876      0            
    298000  -160.74883      228.24361     -388.99243      278.44         1563.3356      1.0177122      4455.7805     -146.09769     -4.6924513     -677.8366      -891.52067     -1715.455       0            
    299000  -141.11531      261.9806      -403.09591      319.59659     -119.55651      1.0177122      4455.7805     -146.86417     -4.6924513     -680.31721     -891.39577     -1718.5771      0            
    300000  -127.15178      258.72675     -385.87853      315.62713      2230.2823      1.0177122      4455.7805     -140.6293      -4.6924513     -677.52324     -891.43847     -1709.591       0            
    301000  -114.87741      250.59103     -365.46843      305.70217      2633.4735      1.0177122      4455.7805     -138.57759     -4.6924513     -682.67477     -891.6266      -1712.879       0            
    302000  -148.64491      237.47622     -386.12113      289.70309     -3990.7564      1.0177122      4455.7805     -149.68027     -4.6924513     -679.30977     -891.36739     -1720.3574      0            
    303000  -130.58504      254.36799     -384.95304      310.30978      4499.8926      1.0177122      4455.7805     -138.52684     -4.6924513     -680.23028     -891.52022     -1710.2773      0            
    304000  -153.52168      244.29961     -397.82129      298.02712     -3985.5319      1.0177122      4455.7805     -141.45467     -4.6924513     -677.56141     -891.42264     -1710.4387      0            
    305000  -121.3953       254.69455     -376.08985      310.70816      332.44454      1.0177122      4455.7805     -149.76555     -4.6924513     -678.76459     -891.40904     -1719.9392      0            
    306000  -126.84796      246.08488     -372.93283      300.20501      1987.4393      1.0177122      4455.7805     -137.49814     -4.6924513     -681.78447     -891.38128     -1710.6639      0            
    307000  -146.99141      245.92169     -392.9131       300.00593      2759.0194      1.0177122      4455.7805     -140.2924      -4.6924513     -678.15373     -891.57762     -1710.0238      0            
    308000  -130.29692      264.81272     -395.10965      323.05157     -3023.0445      1.0177122      4455.7805     -149.27686     -4.6924513     -680.83221     -891.53628     -1721.6453      0            
    309000  -142.52742      251.12179     -393.64921      306.34966     -1630.7484      1.0177122      4455.7805     -150.40563     -4.6924513     -678.8972      -891.52065     -1720.8235      0            
    310000  -140.78278      248.53043     -389.31321      303.18839     -628.77642      1.0177122      4455.7805     -153.04923     -4.6924513     -681.52868     -891.4937      -1726.0716      0            
    311000  -141.89328      250.45234     -392.34562      305.53298     -4308.3158      1.0177122      4455.7805     -144.30313     -4.6924513     -676.54597     -891.3689      -1712.218       0            
    312000  -129.07249      250.34972     -379.42222      305.4078      -1554.1658      1.0177122      4455.7805     -142.61323     -4.6924513     -680.40274     -891.54297     -1714.5589      0            
    313000  -145.5137       242.38299     -387.89669      295.68898      1517.8415      1.0177122      4455.7805     -143.94662     -4.6924513     -680.30228     -891.5191      -1715.768       0            
    314000  -141.04828      243.81766     -384.86594      297.43917      3827.7126      1.0177122      4455.7805     -139.52048     -4.6924513     -681.5219      -891.40923     -1712.4516      0            
    315000  -132.99858      250.48063     -383.47921      305.56749      359.79533      1.0177122      4455.7805     -142.20565     -4.6924513     -682.56135     -891.5508      -1716.3178      0            
    316000  -140.23068      249.75388     -389.98456      304.68091      5480.3415      1.0177122      4455.7805     -138.97453     -4.6924513     -681.71807     -891.45923     -1712.1518      0            
    317000  -129.3628       246.64178     -376.00458      300.88439     -5756.6782      1.0177122      4455.7805     -155.26527     -4.6924513     -678.549       -891.49022     -1725.3045      0            
    318000  -110.47302      268.74413     -379.21715      327.84759     -2088.4168      1.0177122      4455.7805     -144.53482     -4.6924513     -679.46328     -891.47688     -1715.475       0            
    319000  -90.894992      267.95587     -358.85086      326.88597      2114.3054      1.0177122      4455.7805     -139.44841     -4.6924513     -682.12647     -891.51069     -1713.0856      0            
    320000  -132.74656      251.70169     -384.44825      307.0571      -2215.3203      1.0177122      4455.7805     -147.24286     -4.6924513     -681.4198      -891.40051     -1720.0632      0            
    321000  -163.16941      253.19839     -416.3678       308.88295      4398.9608      1.0177122      4455.7805     -147.88594     -4.6924513     -676.60699     -891.52311     -1716.016       0            
    322000  -111.01465      259.6718      -370.68645      316.78002      1383.3326      1.0177122      4455.7805     -141.74526     -4.6924513     -681.78631     -891.37118     -1714.9027      0            
    323000  -119.44747      251.57971     -371.02717      306.90829     -623.18832      1.0177122      4455.7805     -148.18752     -4.6924513     -679.40588     -891.49962     -1719.093       0            
    324000  -114.88801      265.43471     -380.32271      323.81034      2476.2443      1.0177122      4455.7805     -137.33595     -4.6924513     -681.68896     -891.39581     -1710.4207      0            
    325000  -148.19301      241.52747     -389.72048      294.64531     -6002.7804      1.0177122      4455.7805     -152.13681     -4.6924513     -677.1028      -891.55645     -1720.7961      0            
    326000  -151.01768      239.52485     -390.54253      292.20227      5709.8733      1.0177122      4455.7805     -143.03209     -4.6924513     -684.20172     -891.44349     -1718.6773      0            
    327000  -155.1674       235.59138     -390.75878      287.40373      1336.1608      1.0177122      4455.7805     -160.62422     -4.6924513     -678.35063     -891.23245     -1730.2073      0            
    328000  -152.14156      227.87292     -380.01448      277.9878       1448.3692      1.0177122      4455.7805     -139.54103     -4.6924513     -680.9858      -891.32815     -1711.855       0            
    329000  -133.04152      241.66475     -374.70627      294.81278      4176.5008      1.0177122      4455.7805     -138.44231     -4.6924513     -686.5539      -891.45305     -1716.4493      0            
    330000  -154.93048      234.83775     -389.76824      286.48436     -385.34862      1.0177122      4455.7805     -145.76718     -4.6924513     -681.14908     -891.60864     -1718.5249      0            
    331000  -159.92161      238.15651     -398.07811      290.53299     -2745.1296      1.0177122      4455.7805     -141.08735     -4.6924513     -679.53883     -891.56193     -1712.1881      0            
    332000  -130.3221       243.03648     -373.35857      296.48619      4401.2959      1.0177122      4455.7805     -147.35338     -4.6924513     -680.53381     -891.49138     -1719.3786      0            
    333000  -141.51986      241.70588     -383.22574      294.86296      4141.5198      1.0177122      4455.7805     -144.72349     -4.6924513     -683.28322     -891.55505     -1719.5617      0            
    334000  -121.39416      261.81494     -383.2091       319.3945       4147.8132      1.0177122      4455.7805     -148.60687     -4.6924513     -679.89703     -891.51516     -1720.0191      0            
    335000  -156.74091      236.86134     -393.60225      288.95299      1192.0605      1.0177122      4455.7805     -141.34614     -4.6924513     -679.58571     -891.51754     -1712.4494      0            
    336000  -126.98521      262.79941     -389.78462      320.59547      6205.238       1.0177122      4455.7805     -140.28848     -4.6924513     -680.77418     -891.50211     -1712.5648      0            
    337000  -135.0523       248.00863     -383.06092      302.55184     -2041.9757      1.0177122      4455.7805     -147.46057     -4.6924513     -679.22849     -891.39636     -1718.0854      0            
    338000  -150.34931      239.99903     -390.34833      292.78073     -2347.9716      1.0177122      4455.7805     -146.20996     -4.6924513     -679.52714     -891.52925     -1717.2664      0            
    339000  -120.32666      266.62309     -386.94975      325.26008      1719.6636      1.0177122      4455.7805     -150.37272     -4.6924513     -683.08082     -891.49918     -1724.9527      0            
    340000  -128.1708       265.01755     -393.18834      323.30144      2757.8807      1.0177122      4455.7805     -150.19291     -4.6924513     -676.98509     -891.44323     -1718.6212      0            
    341000  -154.85708      245.19565     -400.05273      299.12021      2219.648       1.0177122      4455.7805     -143.86936     -4.6924513     -679.13802     -891.38949     -1714.3969      0            
    342000  -161.2699       231.00014     -392.27004      281.80276      292.74428      1.0177122      4455.7805     -140.62697     -4.6924513     -683.709       -891.40613     -1715.7421      0            
    343000  -161.08759      240.82816     -401.91575      293.7922       81.174398      1.0177122      4455.7805     -150.33051     -4.6924513     -679.1856      -891.44201     -1720.9581      0            
    344000  -134.91292      245.6904      -380.60332      299.72378      2729.8198      1.0177122      4455.7805     -142.7888      -4.6924513     -678.09874     -891.63933     -1712.5269      0            
    345000  -102.62043      267.25341     -369.87384      326.02902      1903.5441      1.0177122      4455.7805     -147.57744     -4.6924513     -679.14582     -891.4792      -1718.2024      0            
    346000  -129.83594      260.30953     -390.14547      317.55801      5247.0239      1.0177122      4455.7805     -140.30469     -4.6924513     -682.59454     -891.5568      -1714.456       0            
    347000  -142.46491      242.20309     -384.668        295.46951      3072.8456      1.0177122      4455.7805     -151.92696     -4.6924513     -679.26452     -891.42813     -1722.6196      0            
    348000  -160.38893      243.53306     -403.92199      297.09198     -1614.7684      1.0177122      4455.7805     -147.22867     -4.6924513     -678.89033     -891.49865     -1717.6177      0            
    349000  -136.68858      234.49612     -371.18471      286.0676       1134.4126      1.0177122      4455.7805     -148.83127     -4.6924513     -678.05441     -891.78421     -1718.6699      0            
    350000  -121.22192      262.94725     -384.16917      320.77583      1377.4262      1.0177122      4455.7805     -149.26989     -4.6924513     -678.26486     -891.42917     -1718.9639      0            
    351000  -144.75127      238.06126     -382.81253      290.4168       1838.9632      1.0177122      4455.7805     -150.25038     -4.6924513     -680.56389     -891.4278      -1722.2421      0            
    352000  -115.25025      263.69796     -378.94821      321.69164     -662.20324      1.0177122      4455.7805     -134.34654     -4.6924513     -680.1252      -891.35647     -1705.8282      0            
    353000  -108.25479      263.38044     -371.63523      321.30429      3571.3025      1.0177122      4455.7805     -134.07336     -4.6924513     -683.41281     -891.41423     -1708.9004      0            
    354000  -114.3621       258.30783     -372.66994      315.11609     -97.992919      1.0177122      4455.7805     -140.04534     -4.6924513     -678.84224     -891.57639     -1710.464       0            
    355000  -148.43345      252.31253     -400.74598      307.80227      2641.5193      1.0177122      4455.7805     -145.82575     -4.6924513     -678.28865     -891.63219     -1715.7466      0            
    356000  -143.78127      244.00846     -387.78974      297.67194     -1301.0603      1.0177122      4455.7805     -140.87794     -4.6924513     -678.31278     -891.52308     -1710.7138      0            
    357000  -126.78969      257.62438     -384.41408      314.28233     -1708.2974      1.0177122      4455.7805     -137.27128     -4.6924513     -680.03353     -891.49517     -1708.8         0            
    358000  -137.14782      252.11518     -389.263        307.56153      3820.4416      1.0177122      4455.7805     -146.00302     -4.6924513     -678.11335     -891.3945      -1715.5109      0            
    359000  -153.76633      239.0186      -392.78493      291.58469     -1668.4161      1.0177122      4455.7805     -153.3148      -4.6924513     -679.07073     -891.32649     -1723.712       0            
    360000  -138.80078      254.57691     -393.37769      310.56464      4925.1329      1.0177122      4455.7805     -137.53961     -4.6924513     -682.65627     -891.48107     -1711.6769      0            
    361000  -169.74986      220.98084     -390.7307       269.57997      457.07915      1.0177122      4455.7805     -146.71545     -4.6924513     -678.65634     -891.5656      -1716.9374      0            
    362000  -150.04916      232.04379     -382.09295      283.07594     -776.36155      1.0177122      4455.7805     -144.78117     -4.6924513     -682.76827     -891.48082     -1719.0303      0            
    363000  -134.47246      248.17131     -382.64376      302.75029     -2861.6203      1.0177122      4455.7805     -139.67391     -4.6924513     -676.54616     -891.57027     -1707.7903      0            
    364000  -137.555        245.05971     -382.61471      298.95438      368.16906      1.0177122      4455.7805     -145.44299     -4.6924513     -679.51927     -891.66129     -1716.6236      0            
    365000  -138.9477       256.81304     -395.76075      313.29256      6988.8736      1.0177122      4455.7805     -148.25692     -4.6924513     -681.0634      -891.36476     -1720.6851      0            
    366000  -113.92699      249.50189     -363.42887      304.3735       3510.716       1.0177122      4455.7805     -134.22724     -4.6924513     -679.92875     -891.51577     -1705.6718      0            
    367000  -156.15278      245.97382     -402.1266       300.06953      1166.9718      1.0177122      4455.7805     -134.15084     -4.6924513     -683.13788     -891.32613     -1708.6149      0            
    368000  -124.97646      254.46581     -379.44227      310.42911     -2163.9649      1.0177122      4455.7805     -147.05579     -4.6924513     -676.13756     -891.39957     -1714.5929      0            
    369000  -144.00397      234.32271     -378.32667      285.85604      4009.7592      1.0177122      4455.7805     -140.73694     -4.6924513     -679.50005     -891.44681     -1711.6838      0            
    370000  -117.37545      265.68938     -383.06483      324.12102     -679.84815      1.0177122      4455.7805     -150.54107     -4.6924513     -678.22564     -891.47876     -1720.2455      0            
    371000  -135.44941      247.41309     -382.8625       301.82533      1161.0862      1.0177122      4455.7805     -144.34102     -4.6924513     -680.4111      -891.61711     -1716.3692      0            
    372000  -134.12702      236.98901     -371.11603      289.10873     -2807.5894      1.0177122      4455.7805     -146.66664     -4.6924513     -680.17107     -891.28689     -1718.1246      0            
    373000  -132.76246      256.90023     -389.66269      313.39892     -1418.3433      1.0177122      4455.7805     -142.08024     -4.6924513     -683.14307     -891.39786     -1716.6212      0            
    374000  -156.58637      234.97422     -391.5606       286.65084      1452.0247      1.0177122      4455.7805     -140.21559     -4.6924513     -678.37602     -891.54476     -1710.1364      0            
    375000  -147.41915      248.29142     -395.71057      302.89683      2323.4121      1.0177122      4455.7805     -137.67829     -4.6924513     -683.54745     -891.46383     -1712.6896      0            
    376000  -153.91683      237.31453     -391.23136      289.50585     -1503.4817      1.0177122      4455.7805     -149.64399     -4.6924513     -677.39884     -891.36911     -1718.4119      0            
    377000  -138.93798      252.76505     -391.70303      308.35432      2592.5335      1.0177122      4455.7805     -143.44026     -4.6924513     -681.55214     -891.52018     -1716.5126      0            
    378000  -126.91202      271.14072     -398.05274      330.77124      594.33747      1.0177122      4455.7805     -148.23693     -4.6924513     -681.02655     -891.4434      -1720.7069      0            
    379000  -133.36455      246.07295     -379.43751      300.19046     -2327.9022      1.0177122      4455.7805     -150.66291     -4.6924513     -679.12337     -891.53321     -1721.3195      0            
    380000  -133.37943      245.51059     -378.89002      299.50442      1129.2052      1.0177122      4455.7805     -138.55073     -4.6924513     -678.05383     -891.46947     -1708.074       0            
    381000  -148.60617      225.84679     -374.45296      275.51606      7422.542       1.0177122      4455.7805     -150.0459      -4.6924513     -681.2713      -891.28761     -1722.6048      0            
    382000  -99.103196      258.21046     -357.31365      314.9973       2738.854       1.0177122      4455.7805     -144.87736     -4.6924513     -681.94088     -891.39961     -1718.2178      0            
    383000  -123.45897      251.05779     -374.51676      306.27158     -1725.4138      1.0177122      4455.7805     -150.84642     -4.6924513     -679.24701     -891.3318      -1721.4252      0            
    384000  -131.98615      244.70418     -376.69033      298.52066     -404.03353      1.0177122      4455.7805     -149.48507     -4.6924513     -677.12397     -891.44714     -1718.0562      0            
    385000  -123.31631      254.72141     -378.03772      310.74093      1939.7493      1.0177122      4455.7805     -156.22779     -4.6924513     -679.84425     -891.49953     -1727.5716      0            
    386000  -147.44152      249.70897     -397.15049      304.62613      2566.7675      1.0177122      4455.7805     -144.89573     -4.6924513     -681.06489     -891.64481     -1717.6054      0            
    387000  -144.50915      246.59017     -391.09932      300.82143      35.951764      1.0177122      4455.7805     -147.53807     -4.6924513     -681.55173     -891.65897     -1720.7488      0            
    388000  -119.99273      260.31182     -380.30455      317.5608       213.99694      1.0177122      4455.7805     -131.52989     -4.6924513     -680.72966     -891.4079      -1703.6675      0            
    389000  -102.46506      251.70776     -354.17282      307.0645       3700.023       1.0177122      4455.7805     -141.13214     -4.6924513     -681.61214     -891.45022     -1714.1945      0            
    390000  -140.4171       245.92841     -386.34551      300.01412     -2360.8341      1.0177122      4455.7805     -138.29531     -4.6924513     -676.84148     -891.4676      -1706.6044      0            
    391000  -135.70895      246.75092     -382.45987      301.01752      4044.4358      1.0177122      4455.7805     -145.15147     -4.6924513     -681.33709     -891.5601      -1718.0487      0            
    392000  -96.653468      274.0975      -370.75097      334.3783       4996.6853      1.0177122      4455.7805     -138.42812     -4.6924513     -682.21104     -891.44747     -1712.0866      0            
    393000  -141.86778      234.57318     -376.44096      286.1616       6598.481       1.0177122      4455.7805     -145.8644      -4.6924513     -683.05437     -891.48796     -1720.4067      0            
    394000  -157.93138      230.45391     -388.38529      281.1364       6675.0217      1.0177122      4455.7805     -144.50325     -4.6924513     -679.22049     -891.39051     -1715.1142      0            
    395000  -126.15717      244.54515     -370.70232      298.32666      2755.4612      1.0177122      4455.7805     -146.05324     -4.6924513     -681.82524     -891.55833     -1719.4368      0            
    396000  -154.93209      235.07347     -390.00557      286.77192      4966.2541      1.0177122      4455.7805     -156.31222     -4.6924513     -681.01559     -891.25761     -1728.5854      0            
    397000  -110.45437      257.17705     -367.63142      313.73662     -2339.993       1.0177122      4455.7805     -158.16348     -4.6924513     -676.74802     -891.52326     -1726.4348      0            
    398000  -146.49768      237.81583     -384.31351      290.11739      2222.927       1.0177122      4455.7805     -148.62207     -4.6924513     -677.91615     -891.57206     -1718.1103      0            
    399000  -143.85106      253.87561     -397.72667      309.70911     -1097.2618      1.0177122      4455.7805     -150.59411     -4.6924513     -677.6768      -891.58496     -1719.8559      0            
    400000  -126.52137      246.21014     -372.73151      300.35781     -3369.6129      1.0177122      4455.7805     -144.9269      -4.6924513     -679.10343     -891.30685     -1715.3372      0            
    401000  -136.59021      244.97894     -381.56916      298.85585      876.14666      1.0177122      4455.7805     -149.12838     -4.6924513     -678.36195     -891.56171     -1719.052       0            
    402000  -130.6671       256.09364     -386.76074      312.41495     -1655.0687      1.0177122      4455.7805     -151.12511     -4.6924513     -678.58541     -891.3977      -1721.1082      0            
    403000  -127.74796      250.47973     -378.2277       305.5664       3138.2179      1.0177122      4455.7805     -137.9754      -4.6924513     -681.44218     -891.41449     -1710.8321      0            
    404000  -129.1958       248.37904     -377.57484      303.00371      1719.769       1.0177122      4455.7805     -158.92236     -4.6924513     -679.5406      -891.44031     -1729.9033      0            
    405000  -151.7392       246.30162     -398.04082      300.46942     -802.6563       1.0177122      4455.7805     -158.29944     -4.6924513     -677.38667     -891.47112     -1727.1572      0            
    406000  -128.83199      258.24708     -387.07906      315.04198      3019.9793      1.0177122      4455.7805     -147.94698     -4.6924513     -676.10727     -891.48543     -1715.5397      0            
    407000  -168.28977      230.88274     -399.1725       281.65954     -522.328        1.0177122      4455.7805     -139.27651     -4.6924513     -684.41401     -891.58144     -1715.272       0            
    408000  -144.5728       241.93896     -386.51177      295.1473       4335.7316      1.0177122      4455.7805     -144.98375     -4.6924513     -675.98072     -891.48921     -1712.4537      0            
    409000  -91.862558      272.84303     -364.70559      332.84794      877.22024      1.0177122      4455.7805     -145.17334     -4.6924513     -679.93094     -891.57372     -1716.678       0            
    410000  -161.13672      238.21056     -399.34728      290.59893      3720.7273      1.0177122      4455.7805     -152.28727     -4.6924513     -676.26643     -891.32263     -1719.8763      0            
    411000  -129.15025      245.92366     -375.07392      300.00834      5569.5359      1.0177122      4455.7805     -145.46128     -4.6924513     -684.76112     -891.41185     -1721.6343      0            
    412000  -122.39814      260.61459     -383.01273      317.93016     -122.92583      1.0177122      4455.7805     -136.69566     -4.6924513     -679.97249     -891.51174     -1708.1799      0            
    413000  -151.29123      250.02162     -401.31285      305.00754      356.10319      1.0177122      4455.7805     -141.46528     -4.6924513     -679.44439     -891.38989     -1712.2996      0            
    414000  -139.0548       245.62685     -384.68166      299.64625      1592.3734      1.0177122      4455.7805     -146.46695     -4.6924513     -681.62965     -891.58529     -1719.6819      0            
    415000  -131.7917       259.01382     -390.80552      315.97734      2646.8969      1.0177122      4455.7805     -140.30368     -4.6924513     -679.41651     -891.40046     -1711.1207      0            
    416000  -118.12881      280.37403     -398.50284      342.03519      2239.6674      1.0177122      4455.7805     -154.93033     -4.6924513     -684.13459     -891.34863     -1730.4135      0            
    417000  -125.36133      267.41372     -392.77504      326.22458      3160.8786      1.0177122      4455.7805     -144.36456     -4.6924513     -683.46512     -891.57133     -1719.401       0            
    418000  -129.90556      251.82976     -381.73531      307.21332     -2712.9785      1.0177122      4455.7805     -144.34036     -4.6924513     -680.57522     -891.28893     -1716.2045      0            
    419000  -152.17934      234.08444     -386.26378      285.56538      1492.5507      1.0177122      4455.7805     -145.97789     -4.6924513     -681.45806     -891.38564     -1718.8216      0            
    420000  -110.89324      267.75163     -378.64487      326.63681      1348.6488      1.0177122      4455.7805     -153.07166     -4.6924513     -682.77832     -891.45556     -1727.3055      0            
    421000  -144.98261      238.26269     -383.2453       290.66252      3492.2159      1.0177122      4455.7805     -140.25502     -4.6924513     -680.37894     -891.40403     -1712.038       0            
    422000  -90.619756      287.60052     -378.22028      350.85096     -885.72115      1.0177122      4455.7805     -142.85726     -4.6924513     -682.34991     -891.48249     -1716.6897      0            
    423000  -144.31848      240.11823     -384.43671      292.92614      4035.1064      1.0177122      4455.7805     -149.4598      -4.6924513     -679.53674     -891.72344     -1720.72        0            
    424000  -152.03043      215.78344     -367.81387      263.23954     -244.26743      1.0177122      4455.7805     -145.6156      -4.6924513     -683.50316     -891.62143     -1720.7402      0            
    425000  -153.73162      246.11763     -399.84924      300.24496      904.98462      1.0177122      4455.7805     -146.89079     -4.6924513     -681.48237     -891.44943     -1719.8226      0            
    426000  -142.12445      242.16293     -384.28738      295.42052     -851.75721      1.0177122      4455.7805     -145.40165     -4.6924513     -679.20284     -891.72946     -1716.3339      0            
    427000  -152.59675      219.12335     -371.7201       267.31397      79.708524      1.0177122      4455.7805     -138.7951      -4.6924513     -677.92616     -891.51597     -1708.2372      0            
    428000  -181.48041      228.58107     -410.06148      278.85168      763.92463      1.0177122      4455.7805     -156.25085     -4.6924513     -677.91185     -891.38105     -1725.5438      0            
    429000  -133.3105       257.65043     -390.96093      314.31411      1877.9599      1.0177122      4455.7805     -136.65714     -4.6924513     -683.81728     -891.6133      -1712.0877      0            
    430000  -129.47657      254.26126     -383.73783      310.17958     -1042.8787      1.0177122      4455.7805     -133.37004     -4.6924513     -682.52783     -891.56297     -1707.4608      0            
    431000  -120.51813      256.17217     -376.69029      312.51074     -2811.6188      1.0177122      4455.7805     -146.0599      -4.6924513     -679.51877     -891.59434     -1717.173       0            
    432000  -124.80672      257.59522     -382.40194      314.24676      293.96342      1.0177122      4455.7805     -148.51854     -4.6924513     -678.0011      -891.54717     -1718.0668      0            
    433000  -132.34235      238.58901     -370.93136      291.06061      7301.5761      1.0177122      4455.7805     -141.60956     -4.6924513     -682.52784     -891.44034     -1715.5777      0            
    434000  -137.11051      236.45116     -373.56166      288.45259      1337.6782      1.0177122      4455.7805     -134.06685     -4.6924513     -679.13341     -891.4447      -1704.645       0            
    435000  -168.38163      234.37267     -402.75429      285.91699      2412.3101      1.0177122      4455.7805     -141.59315     -4.6924513     -681.31306     -891.47926     -1714.3855      0            
    436000  -144.69524      249.51986     -394.2151       304.39543      578.48893      1.0177122      4455.7805     -145.37659     -4.6924513     -681.46631     -891.46928     -1718.3122      0            
    437000  -155.75164      230.12076     -385.8724       280.72999      4797.6358      1.0177122      4455.7805     -148.2865      -4.6924513     -679.37026     -891.33325     -1718.99        0            
    438000  -126.71923      257.53717     -384.2564       314.17594     -2289.511       1.0177122      4455.7805     -139.8817      -4.6924513     -680.31986     -891.62973     -1711.8313      0            
    439000  -151.38295      240.14434     -391.52729      292.958        2145.1353      1.0177122      4455.7805     -140.29673     -4.6924513     -681.04399     -891.44078     -1712.7815      0            
    440000  -123.41006      265.55109     -388.96115      323.95232      4305.9165      1.0177122      4455.7805     -143.38931     -4.6924513     -677.98335     -891.3379      -1712.7106      0            
    441000  -133.41989      252.33116     -385.75105      307.825        1659.6107      1.0177122      4455.7805     -147.74217     -4.6924513     -680.79839     -891.35783     -1719.8984      0            
    442000  -149.44379      252.35384     -401.79763      307.85266     -2072.9246      1.0177122      4455.7805     -156.48811     -4.6924513     -681.82522     -891.49976     -1729.8131      0            
    443000  -148.19631      242.96816     -391.16447      296.40284     -4314.4124      1.0177122      4455.7805     -150.43531     -4.6924513     -681.09303     -891.51364     -1723.042       0            
    444000  -127.96497      257.019       -384.98398      313.54382     -946.43904      1.0177122      4455.7805     -150.7061      -4.6924513     -678.25441     -891.55788     -1720.5184      0            
    445000  -86.489229      286.6529      -373.14213      349.69493      2112.0977      1.0177122      4455.7805     -143.49608     -4.6924513     -676.84015     -891.49247     -1711.8287      0            
    446000  -118.9844       268.57022     -387.55462      327.63543     -635.67197      1.0177122      4455.7805     -145.58686     -4.6924513     -679.22561     -891.61226     -1716.4247      0            
    447000  -176.56027      242.21888     -418.77915      295.48879      2889.4892      1.0177122      4455.7805     -145.13232     -4.6924513     -682.09492     -891.39629     -1718.6235      0            
    448000  -143.08657      242.4092      -385.49577      295.72096      5444.7953      1.0177122      4455.7805     -142.28934     -4.6924513     -679.90205     -891.42039     -1713.6118      0            
    449000  -123.194        257.77637     -380.97037      314.46775      6678.0959      1.0177122      4455.7805     -149.54192     -4.6924513     -681.85733     -891.43051     -1722.8298      0            
    450000  -132.64928      240.77301     -373.42229      293.72493     -311.5831       1.0177122      4455.7805     -138.17437     -4.6924513     -679.61256     -891.59216     -1709.3791      0            
    451000  -136.33898      239.24109     -375.58008      291.8561       283.52442      1.0177122      4455.7805     -151.40857     -4.6924513     -680.1556      -891.45588     -1723.0201      0            
    452000  -148.78593      246.45787     -395.2438       300.66003      20.743449      1.0177122      4455.7805     -137.99389     -4.6924513     -681.77491     -891.64492     -1711.4137      0            
    453000  -121.92968      265.63515     -387.56483      324.05487      1720.5739      1.0177122      4455.7805     -145.70461     -4.6924513     -679.8482      -891.45054     -1717.0034      0            
    454000  -165.34652      236.9282      -402.27472      289.03455      1266.5092      1.0177122      4455.7805     -143.90604     -4.6924513     -679.59509     -891.57836     -1715.0795      0            
    455000  -150.01323      246.78985     -396.80307      301.06501      881.04551      1.0177122      4455.7805     -142.82078     -4.6924513     -677.61665     -891.44485     -1711.8823      0            
    456000  -136.8085       246.50024     -383.30873      300.71171      860.0908       1.0177122      4455.7805     -146.64211     -4.6924513     -680.63294     -891.65232     -1718.9274      0            
    457000  -122.14216      245.10915     -367.25131      299.01469      1404.7185      1.0177122      4455.7805     -141.84104     -4.6924513     -678.47107     -891.45007     -1711.7622      0            
    458000  -147.03869      246.63722     -393.67591      300.87882      2515.4258      1.0177122      4455.7805     -147.44081     -4.6924513     -680.92339     -891.6014      -1719.9656      0            
    459000  -171.38815      231.375       -402.76315      282.26007      4109.9788      1.0177122      4455.7805     -149.7014      -4.6924513     -679.05621     -891.55881     -1720.3164      0            
    460000  -133.37732      241.94613     -375.32345      295.15605      1095.4736      1.0177122      4455.7805     -148.38155     -4.6924513     -678.98002     -891.39572     -1718.7573      0            
    461000  -134.44526      256.41733     -390.8626       312.80982      1097.1255      1.0177122      4455.7805     -144.49753     -4.6924513     -679.49431     -891.37729     -1715.3691      0            
    462000  -131.20049      244.53174     -375.73223      298.31029     -761.87498      1.0177122      4455.7805     -143.61554     -4.6924513     -680.06842     -891.42738     -1715.1113      0            
    463000  -111.06397      267.98283     -379.0468       326.91886     -5858.0133      1.0177122      4455.7805     -146.13092     -4.6924513     -679.84882     -891.54748     -1717.5272      0            
    464000  -147.45247      242.32242     -389.77489      295.61509      4137.1727      1.0177122      4455.7805     -145.05434     -4.6924513     -680.1381      -891.49253     -1716.685       0            
    465000  -144.48823      242.46047     -386.9487       295.78351     -1394.9368      1.0177122      4455.7805     -152.75989     -4.6924513     -679.06241     -891.54402     -1723.3663      0            
    466000  -146.06495      242.90365     -388.96859      296.32414     -150.172        1.0177122      4455.7805     -145.84001     -4.6924513     -678.92443     -891.50374     -1716.2682      0            
    467000  -156.44027      248.11336     -404.55363      302.6796      -2133.2612      1.0177122      4455.7805     -148.5857      -4.6924513     -680.27067     -891.61238     -1720.4687      0            
    468000  -152.46492      250.01339     -402.47832      304.9975       5668.6361      1.0177122      4455.7805     -143.8092      -4.6924513     -678.07106     -891.36506     -1713.2453      0            
    469000  -138.47408      242.03721     -380.51129      295.26715      4834.4884      1.0177122      4455.7805     -141.60209     -4.6924513     -678.48075     -891.73168     -1711.8145      0            
    470000  -172.57157      238.56268     -411.13425      291.02849     -1799.6555      1.0177122      4455.7805     -148.4414      -4.6924513     -682.30129     -891.53285     -1722.2755      0            
    471000  -151.41893      232.98792     -384.40685      284.2277      -1851.1392      1.0177122      4455.7805     -138.07242     -4.6924513     -681.92594     -891.66346     -1711.6618      0            
    472000  -124.35283      248.70864     -373.06147      303.4058       4699.7735      1.0177122      4455.7805     -142.02629     -4.6924513     -680.86328     -891.56069     -1714.4503      0            
    473000  -154.38046      240.32819     -394.70865      293.18229      212.18211      1.0177122      4455.7805     -143.16317     -4.6924513     -679.646       -891.37622     -1714.1854      0            
    474000  -122.40109      260.39037     -382.79146      317.65663     -1824.8858      1.0177122      4455.7805     -143.56154     -4.6924513     -681.8885      -891.41572     -1716.8658      0            
    475000  -141.80076      243.70947     -385.51023      297.30719     -149.32635      1.0177122      4455.7805     -151.77577     -4.6924513     -681.14987     -891.5431      -1724.4687      0            
    476000  -131.00821      266.25236     -397.26057      324.80781     -1439.0314      1.0177122      4455.7805     -150.21333     -4.6924513     -681.0288      -891.48485     -1722.727       0            
    477000  -155.60698      238.78924     -394.39622      291.30488      1132.3437      1.0177122      4455.7805     -134.14335     -4.6924513     -684.35749     -891.44056     -1709.9414      0            
    478000  -120.50271      261.91434     -382.41705      319.51576      427.35606      1.0177122      4455.7805     -140.64921     -4.6924513     -679.82068     -891.45164     -1711.9215      0            
    479000  -167.05632      239.8315      -406.88783      292.57636     -1290.3667      1.0177122      4455.7805     -136.8512      -4.6924513     -680.315       -891.54174     -1708.7079      0            
    480000  -151.58524      234.65849     -386.24373      286.26568      1630.3914      1.0177122      4455.7805     -146.83624     -4.6924513     -679.97201     -891.55531     -1718.3636      0            
    481000  -137.94353      252.96632     -390.90985      308.59985      2026.5386      1.0177122      4455.7805     -139.56388     -4.6924513     -677.4098      -891.49655     -1708.4702      0            
    482000  -149.20644      236.42177     -385.62822      288.41675     -1000.3933      1.0177122      4455.7805     -147.81723     -4.6924513     -681.53076     -891.48173     -1720.8297      0            
    483000  -148.90695      237.27195     -386.1789       289.4539       2628.7371      1.0177122      4455.7805     -143.29114     -4.6924513     -682.78564     -891.40613     -1717.4829      0            
    484000  -116.98326      258.24528     -375.22854      315.03979      1342.8008      1.0177122      4455.7805     -141.27359     -4.6924513     -679.40395     -891.50768     -1712.1852      0            
    485000  -139.68853      246.13355     -385.82209      300.26439     -64.224583      1.0177122      4455.7805     -147.1054      -4.6924513     -683.48419     -891.52357     -1722.1132      0            
    486000  -118.64332      264.48065     -383.12397      322.64646      459.53613      1.0177122      4455.7805     -134.94422     -4.6924513     -681.54353     -891.55395     -1708.0417      0            
    487000  -160.03639      234.4809      -394.51729      286.04903     -1914.2165      1.0177122      4455.7805     -145.23262     -4.6924513     -680.79476     -891.52254     -1717.5499      0            
    488000  -163.83697      216.31909     -380.15606      263.89298     -229.32159      1.0177122      4455.7805     -124.35459     -4.6924513     -679.01982     -891.58001     -1694.9544      0            
    489000  -131.95426      268.23604     -400.1903       327.22776      2442.8498      1.0177122      4455.7805     -133.11831     -4.6924513     -681.7307      -891.44947     -1706.2985      0            
    490000  -130.64347      260.32594     -390.96941      317.57803      3657.0806      1.0177122      4455.7805     -146.23304     -4.6924513     -676.44636     -891.70864     -1714.388       0            
    491000  -170.61276      243.2097      -413.82246      296.6975       390.36404      1.0177122      4455.7805     -144.34364     -4.6924513     -679.12949     -891.22641     -1714.6995      0            
    492000  -148.96759      244.20943     -393.17701      297.9171       740.50609      1.0177122      4455.7805     -148.61144     -4.6924513     -679.16958     -891.50947     -1719.2905      0            
    493000  -165.33171      245.76498     -411.09669      299.81476      2367.0231      1.0177122      4455.7805     -146.27918     -4.6924513     -679.92709     -891.39084     -1717.5971      0            
    494000  -134.21761      259.64006     -393.85767      316.74131     -4551.8179      1.0177122      4455.7805     -140.45126     -4.6924513     -680.04926     -891.50759     -1712.0081      0            
    495000  -156.84382      257.76047     -414.60429      314.44834      5239.004       1.0177122      4455.7805     -144.06231     -4.6924513     -678.74406     -891.34204     -1714.1484      0            
    496000  -156.74791      255.98142     -412.72933      312.27804     -1926.2711      1.0177122      4455.7805     -142.04001     -4.6924513     -680.40144     -891.65027     -1714.0917      0            
    497000  -121.28449      265.10397     -386.38846      323.40687     -2511.0354      1.0177122      4455.7805     -152.27447     -4.6924513     -681.76629     -891.39312     -1725.4339      0            
    498000  -129.89083      244.60437     -374.4952       298.3989       2857.6726      1.0177122      4455.7805     -137.06926     -4.6924513     -680.25189     -891.55166     -1708.8728      0            
    499000  -148.61902      248.34772     -396.96673      302.9655       2000.381       1.0177122      4455.7805     -147.81639     -4.6924513     -679.01859     -891.55437     -1718.3894      0            
    499999  -120.84583      247.0776      -367.92344      301.41606      3098.6923      1.0177122      4455.7805     -147.01012     -4.6924513     -680.36199     -891.34687     -1718.719       661.82036    
Loop time of 98.6371 on 4 procs for 499999 steps with 276 atoms

Performance: 437.968 ns/day, 0.055 hours/ns, 5069.076 timesteps/s
99.8% CPU use with 4 MPI tasks x no OpenMP threads

MPI task timing breakdown:
Section |  min time  |  avg time  |  max time  |%varavg| %total
---------------------------------------------------------------
Pair    | 52.466     | 56.966     | 61.058     |  54.0 | 57.75
Bond    | 2.4786     | 2.6918     | 2.9344     |  10.4 |  2.73
Kspace  | 15.594     | 19.38      | 23.436     |  84.2 | 19.65
Neigh   | 4.5354     | 4.5361     | 4.5367     |   0.0 |  4.60
Comm    | 12.404     | 12.943     | 13.472     |  14.4 | 13.12
Output  | 0.0041907  | 0.0044121  | 0.0050588  |   0.6 |  0.00
Modify  | 1.5776     | 1.5929     | 1.6133     |   1.0 |  1.61
Other   |            | 0.5223     |            |       |  0.53

Nlocal:             69 ave          78 max          60 min
Histogram: 1 0 0 1 0 0 1 0 0 1
Nghost:         3666.5 ave        3684 max        3649 min
Histogram: 1 0 1 0 0 0 0 1 0 1
Neighs:        27349.2 ave       30984 max       23717 min
Histogram: 1 0 1 0 0 0 0 1 0 1

Total # of neighbors = 109397
Ave neighs/atom = 396.36594
Ave special neighs/atom = 6.4347826
Neighbor list builds = 8163
Dangerous builds = 0
fix             f4 all print 1 "${dE} ${lambda}" title "# dE lambda"                 screen no file forward.dat
run             ${t_s}
run             1000001
Ewald initialization ...
  using 12-bit tables for long-range coulomb (../kspace.cpp:342)
  G vector (1/distance) = 0.24281392
  estimated absolute RMS force accuracy = 0.00037231444
  estimated relative force accuracy = 1.1212139e-06
  KSpace vectors: actual max1d max3d = 131 4 364
                  kxmax kymax kzmax  = 4 4 4
Generated 0 of 10 mixed pair_coeff terms from arithmetic mixing rule
WARNING: Inconsistent image flags (../domain.cpp:819)
Per MPI rank memory allocation (min/avg/max) = 20.72 | 20.72 | 20.73 Mbytes
   Step         TotEng         KinEng         PotEng          Temp          Press         Density         Volume         E_vdwl         E_tail         E_coul         E_long         E_pair         f_fs1     
    499999  -120.84583      247.0776      -367.92344      301.41606      3098.6923      1.0177122      4455.7805     -147.01012     -4.6924513     -680.36199     -891.34687     -1718.719       661.82036    
    500000  -123.27897      259.02876     -382.30773      315.99557      2405.5556      1.0177122      4455.7805     -145.98413     -4.6924513     -680.28962     -891.36513     -1717.6389      662.03402    
    501000  -144.6717       248.42205     -393.09375      303.05618      3593.9749      1.0177122      4455.7805     -139.65739     -4.6924513     -680.32323     -891.57954     -1711.5602      667.42449    
    502000  -119.06845      252.38167     -371.45012      307.88662      3331.693       1.0177122      4455.7805     -142.28802     -4.6924513     -682.84281     -891.53107     -1716.6619      677.88848    
    503000  -137.41487      256.51947     -393.93435      312.93443      1711.2526      1.0177122      4455.7805     -140.8006      -4.6924513     -678.41282     -891.49585     -1710.7093      700.4233     
    504000  -110.21856      258.77503     -368.99359      315.68603     -499.09389      1.0177122      4455.7805     -143.21162     -4.6924513     -681.9001      -891.60022     -1716.7119      689.27348    
    505000  -164.63218      239.82602     -404.4582       292.56968     -1101.1957      1.0177122      4455.7805     -142.19838     -4.6924513     -677.06723     -891.67214     -1710.9378      707.88635    
    506000  -153.88932      232.80445     -386.69377      284.00389     -3701.6352      1.0177122      4455.7805     -148.40664     -4.6924513     -680.00619     -891.45131     -1719.8641      592.11995    
    507000  -162.7059       244.65859     -407.36448      298.46504      3678.2538      1.0177122      4455.7805     -144.98815     -4.6924513     -677.12009     -891.53803     -1713.6463      615.99181    
    508000  -152.22435      244.58544     -396.80979      298.3758      -180.00451      1.0177122      4455.7805     -149.84566     -4.6924513     -680.06193     -891.49631     -1721.4039      653.92859    
    509000  -151.74409      227.70501     -379.4491       277.78295      3720.6051      1.0177122      4455.7805     -141.25447     -4.6924513     -678.64338     -891.55141     -1711.4493      689.96952    
    510000  -140.18884      231.93988     -372.12872      282.94917     -385.21849      1.0177122      4455.7805     -147.73063     -4.6924513     -679.46064     -891.53681     -1718.7281      714.97029    
    511000  -121.78692      261.16473     -382.95165      318.60128      6219.6727      1.0177122      4455.7805     -143.80932     -4.6924513     -683.45009     -891.6795      -1718.9389      790.58457    
    512000  -158.06281      236.12403     -394.18684      288.05353      2748.8151      1.0177122      4455.7805     -140.82021     -4.6924513     -678.113       -891.54006     -1710.4733      841.83955    
    513000  -165.95043      225.95781     -391.90824      275.6515       5690.7794      1.0177122      4455.7805     -148.00027     -4.6924513     -681.8498      -891.55536     -1721.4054      782.56172    
    514000  -122.7686       250.80883     -373.57743      305.96787      4689.6853      1.0177122      4455.7805     -142.28874     -4.6924513     -683.19478     -891.40551     -1716.889       787.91224    
    515000  -163.90556      249.06549     -412.97105      303.84113      1890.5096      1.0177122      4455.7805     -147.13057     -4.6924513     -682.33442     -891.51811     -1720.9831      769.81672    
    516000  -163.16311      239.40837     -402.57148      292.06017     -4061.9561      1.0177122      4455.7805     -151.22355     -4.6924513     -679.89294     -891.47534     -1722.5918      754.28311    
    517000  -162.80008      230.41296     -393.21304      281.08644      2904.7468      1.0177122      4455.7805     -151.3651      -4.6924513     -680.19827     -891.44649     -1723.0099      825.30067    
    518000  -119.70434      256.05975     -375.76409      312.3736       2168.4786      1.0177122      4455.7805     -131.96908     -4.6924513     -683.62957     -891.50447     -1707.1031      759.23242    
    519000  -149.83583      239.62932     -389.46516      292.32972      2138.5049      1.0177122      4455.7805     -150.25118     -4.6924513     -682.87942     -891.51314     -1724.6437      753.74842    
    520000  -154.20496      245.65847     -399.86343      299.68483      1525.2456      1.0177122      4455.7805     -146.94092     -4.6924513     -679.78723     -891.47508     -1718.2032      816.10455    
    521000  -105.52267      278.15063     -383.6733       339.3228       4650.9419      1.0177122      4455.7805     -137.21331     -4.6924513     -677.43834     -891.56169     -1706.2133      861.36948    
    522000  -140.41841      247.80699     -388.2254       302.30585      3841.3355      1.0177122      4455.7805     -143.83202     -4.6924513     -680.66257     -891.58441     -1716.079       657.558      
    523000  -123.69323      261.08313     -384.77636      318.50174      1000.4853      1.0177122      4455.7805     -140.79346     -4.6924513     -682.05636     -891.4093      -1714.2591      689.90364    
    524000  -130.04888      253.1456      -383.19448      308.81856     -535.81952      1.0177122      4455.7805     -151.11578     -4.6924513     -683.8156      -891.36679     -1726.2982      699.31611    
    525000  -114.88616      267.68614     -382.57231      326.55692     -307.35193      1.0177122      4455.7805     -147.5493      -4.6924513     -677.46525     -891.47425     -1716.4888      680.7522     
    526000  -156.71654      247.26943     -403.98597      301.65008     -2125.0234      1.0177122      4455.7805     -146.50044     -4.6924513     -680.16402     -891.70452     -1718.369       678.92595    
    527000  -130.07736      249.08728     -379.16464      303.86771      4705.7698      1.0177122      4455.7805     -138.07816     -4.6924513     -681.64387     -891.43055     -1711.1526      572.81022    
    528000  -158.55467      223.09369     -381.64836      272.15749      798.52204      1.0177122      4455.7805     -140.25055     -4.6924513     -679.85915     -891.53964     -1711.6493      594.23808    
    529000  -135.78778      249.70532     -385.4931       304.62167      3540.7415      1.0177122      4455.7805     -141.95949     -4.6924513     -679.61748     -891.55248     -1713.1294      663.50867    
    530000  -148.40204      247.65532     -396.05736      302.12083      278.94407      1.0177122      4455.7805     -150.20583     -4.6924513     -680.72602     -891.47125     -1722.4031      634.29402    
    531000  -139.66782      251.98138     -391.64921      307.3983      -436.53751      1.0177122      4455.7805     -148.77792     -4.6924513     -678.69434     -891.5307      -1719.003       714.29331    
    532000  -150.21726      237.12723     -387.34449      289.27735      5316.4938      1.0177122      4455.7805     -136.38507     -4.6924513     -681.39276     -891.53184     -1709.3097      709.35064    
    533000  -125.60585      264.44864     -390.05449      322.60741      1107.9619      1.0177122      4455.7805     -146.94458     -4.6924513     -681.00387     -891.46974     -1719.4182      652.64265    
    534000  -126.28044      243.18374     -369.46418      296.66584     -145.50485      1.0177122      4455.7805     -145.48427     -4.6924513     -678.69025     -891.50245     -1715.677       693.30695    
    535000  -128.60724      247.99003     -376.59727      302.52915      634.60066      1.0177122      4455.7805     -137.47435     -4.6924513     -683.22419     -891.6828      -1712.3813      552.0406     
    536000  -105.16661      270.01162     -375.17823      329.39382     -877.93035      1.0177122      4455.7805     -150.17816     -4.6924513     -679.85886     -891.51257     -1721.5496      654.89899    
    537000  -138.26858      255.60153     -393.87011      311.8146      -1307.108       1.0177122      4455.7805     -151.54772     -4.6924513     -678.11543     -891.52557     -1721.1887      609.7511     
    538000  -159.28567      237.32808     -396.61375      289.52237     -1948.7983      1.0177122      4455.7805     -146.3721      -4.6924513     -679.07355     -891.37279     -1716.8184      536.20146    
    539000  -138.91697      265.01756     -403.93453      323.30146      3695.9132      1.0177122      4455.7805     -150.03927     -4.6924513     -679.34189     -891.51265     -1720.8938      611.54949    
    540000  -149.74929      243.02128     -392.77058      296.46765      722.2052       1.0177122      4455.7805     -145.1217      -4.6924513     -679.70229     -891.57923     -1716.4032      678.08338    
    541000  -114.39804      255.0281      -369.42614      311.11506      1528.4689      1.0177122      4455.7805     -146.87825     -4.6924513     -675.99499     -891.49661     -1714.3699      632.37613    
    542000  -146.55834      247.28112     -393.83946      301.66433      226.88938      1.0177122      4455.7805     -145.14643     -4.6924513     -676.7969      -891.61072     -1713.554       696.97045    
    543000  -155.16209      226.63652     -381.79862      276.47948      3367.7212      1.0177122      4455.7805     -153.78259     -4.6924513     -675.03277     -891.44232     -1720.2577      709.6481     
    544000  -148.8496       254.58486     -403.43445      310.57434      5504.0867      1.0177122      4455.7805     -150.0975      -4.6924513     -677.98394     -891.60203     -1719.6835      683.15513    
    545000  -108.1051       268.23977     -376.34488      327.23231     -1746.8123      1.0177122      4455.7805     -142.30464     -4.6924513     -679.89029     -891.43574     -1713.6307      737.25375    
    546000  -141.227        233.85735     -375.08434      285.28834      628.98733      1.0177122      4455.7805     -150.43866     -4.6924513     -679.32904     -891.56082     -1721.3285      734.77998    
    547000  -151.73147      252.52636     -404.25783      308.06313      4523.8379      1.0177122      4455.7805     -142.20384     -4.6924513     -682.2218      -891.47526     -1715.9009      681.60321    
    548000  -111.61075      253.0305      -364.64125      308.67814     -363.72747      1.0177122      4455.7805     -145.6265      -4.6924513     -677.13183     -891.58979     -1714.3481      672.19112    
    549000  -153.11493      233.82365     -386.93858      285.24723     -2303.6666      1.0177122      4455.7805     -143.94031     -4.6924513     -679.26217     -891.59546     -1714.7979      718.83696    
    550000  -152.08129      245.50982     -397.59111      299.50348      1035.8816      1.0177122      4455.7805     -152.27113     -4.6924513     -682.64236     -891.44717     -1726.3607      663.02653    
    551000  -128.3496       250.44358     -378.79317      305.52229     -2958.8185      1.0177122      4455.7805     -152.97808     -4.6924513     -681.09809     -891.43777     -1725.5139      711.10236    
    552000  -137.1514       251.673       -388.8244       307.02209      1230.6724      1.0177122      4455.7805     -145.40213     -4.6924513     -679.78585     -891.6284      -1716.8164      717.27345    
    553000  -113.08521      259.49401     -372.57921      316.56313      5311.938       1.0177122      4455.7805     -132.4534      -4.6924513     -685.50714     -891.43031     -1709.3908      627.91622    
    554000  -132.82721      258.15757     -390.98479      314.93279      3913.587       1.0177122      4455.7805     -140.92005     -4.6924513     -680.3783      -891.52555     -1712.8239      665.23406    
    555000  -153.11504      256.29518     -409.41022      312.66081     -1862.7256      1.0177122      4455.7805     -147.58651     -4.6924513     -678.67782     -891.33668     -1717.601       735.59709    
    556000  -135.37982      250.86061     -386.24043      306.03104     -2314.9148      1.0177122      4455.7805     -141.99031     -4.6924513     -679.39197     -891.48306     -1712.8653      697.85811    
    557000  -135.96492      248.94911     -384.91403      303.69916      3308.1223      1.0177122      4455.7805     -141.3405      -4.6924513     -682.13481     -891.5673      -1715.0426      709.73585    
    558000  -123.35035      268.79311     -392.14346      327.90733      256.47758      1.0177122      4455.7805     -145.50005     -4.6924513     -679.16359     -891.53215     -1716.1958      728.55493    
    559000  -125.96404      257.32843     -383.29246      313.92129      3786.4744      1.0177122      4455.7805     -134.74272     -4.6924513     -679.15822     -891.54644     -1705.4474      766.01829    
    560000  -101.10152      269.50075     -370.60226      328.7706       5378.503       1.0177122      4455.7805     -138.70909     -4.6924513     -678.4626      -891.68757     -1708.8593      763.14104    
    561000  -141.62088      257.72503     -399.34592      314.40512      3909.3779      1.0177122      4455.7805     -145.82428     -4.6924513     -677.31567     -891.34222     -1714.4822      676.39333    
    562000  -142.53739      245.19449     -387.73188      299.1188       7136.2585      1.0177122      4455.7805     -147.11344     -4.6924513     -680.12624     -891.26143     -1718.5011      564.56212    
    563000  -144.92662      242.44734     -387.37396      295.76748      5973.2398      1.0177122      4455.7805     -145.07003     -4.6924513     -678.48426     -891.59979     -1715.1541      503.35431    
    564000  -134.81702      243.41643     -378.23344      296.9497       1820.0471      1.0177122      4455.7805     -146.33746     -4.6924513     -680.85635     -891.47765     -1718.6715      552.93989    
    565000  -149.21167      234.9816      -384.19327      286.65984     -1747.0376      1.0177122      4455.7805     -140.60596     -4.6924513     -678.51189     -891.40456     -1710.5224      602.13142    
    566000  -96.224222      271.22744     -367.45166      330.87704      1684.552       1.0177122      4455.7805     -145.89041     -4.6924513     -681.02884     -891.33105     -1718.2503      497.90759    
    567000  -147.66541      239.89718     -387.56259      292.65648     -3754.7485      1.0177122      4455.7805     -151.93019     -4.6924513     -680.61925     -891.44404     -1723.9935      561.41783    
    568000  -145.19605      227.26248     -372.45853      277.2431       6818.1823      1.0177122      4455.7805     -137.17631     -4.6924513     -681.1644      -891.50697     -1709.8477      601.97303    
    569000  -122.5476       253.39555     -375.94315      309.12347      876.55355      1.0177122      4455.7805     -140.13947     -4.6924513     -678.93221     -891.58184     -1710.6535      550.72248    
    570000  -123.41431      262.23645     -385.65076      319.90871     -1342.7964      1.0177122      4455.7805     -144.65631     -4.6924513     -680.10365     -891.45147     -1716.2114      572.91997    
    571000  -133.9188       235.70277     -369.62157      287.53962     -229.25353      1.0177122      4455.7805     -150.67048     -4.6924513     -678.37454     -891.52984     -1720.5749      490.54671    
    572000  -136.93371      247.14624     -384.07995      301.49978      911.12649      1.0177122      4455.7805     -142.72381     -4.6924513     -677.95019     -891.55243     -1712.2264      510.47892    
    573000  -135.47324      244.1037      -379.57694      297.78812      1901.6992      1.0177122      4455.7805     -147.28809     -4.6924513     -681.84218     -891.3167      -1720.447       443.9313     
    574000  -151.64911      243.65289     -395.30199      297.23816     -2357.1076      1.0177122      4455.7805     -152.41054     -4.6924513     -676.75928     -891.3896      -1720.5594      514.61721    
    575000  -138.30126      237.03839     -375.33965      289.16898     -934.00799      1.0177122      4455.7805     -146.82334     -4.6924513     -678.48356     -891.47411     -1716.781       574.40296    
    576000  -122.36944      248.06376     -370.4332       302.61909      3605.9255      1.0177122      4455.7805     -153.86465     -4.6924513     -682.2971      -891.5061      -1727.6678      559.46821    
    577000  -122.33378      263.84497     -386.17875      321.87098     -2192.0046      1.0177122      4455.7805     -142.70281     -4.6924513     -680.96536     -891.54789     -1715.2161      549.21575    
    578000  -139.98731      237.19281     -377.18011      289.35735      1947.6329      1.0177122      4455.7805     -133.66958     -4.6924513     -678.33102     -891.53486     -1703.5355      606.13836    
    579000  -121.20053      260.04223     -381.24276      317.23192      2383.258       1.0177122      4455.7805     -137.81693     -4.6924513     -678.6006      -891.47421     -1707.8917      644.4478     
    580000  -127.50936      248.19117     -375.70053      302.77453      4394.6816      1.0177122      4455.7805     -154.97383     -4.6924513     -678.14166     -891.31066     -1724.4261      527.8641     
    581000  -126.21037      260.84068     -387.05105      318.20598     -3175.6079      1.0177122      4455.7805     -141.82116     -4.6924513     -679.67821     -891.46024     -1712.9596      428.58262    
    582000  -125.37698      241.60714     -366.98412      294.7425       2570.1999      1.0177122      4455.7805     -131.78831     -4.6924513     -679.68674     -891.36423     -1702.8393      431.17291    
    583000  -83.888601      282.11648     -366.00508      344.16085     -63.871786      1.0177122      4455.7805     -150.55209     -4.6924513     -677.97045     -891.43838     -1719.9609      416.06827    
    584000  -142.04438      241.84831     -383.89269      295.03671     -3197.4235      1.0177122      4455.7805     -141.54404     -4.6924513     -678.8429      -891.45572     -1711.8427      416.21073    
    585000  -157.73845      247.75611     -405.49456      302.24378      2578.1775      1.0177122      4455.7805     -147.0045      -4.6924513     -682.8044      -891.47622     -1721.2851      392.44602    
    586000  -120.59281      266.75761     -387.35042      325.42418      318.17332      1.0177122      4455.7805     -149.65354     -4.6924513     -680.61921     -891.60665     -1721.8794      475.51224    
    587000  -123.53933      257.12185     -380.66119      313.66929     -1189.3291      1.0177122      4455.7805     -139.66998     -4.6924513     -680.43946     -891.44519     -1711.5546      459.07416    
    588000  -137.95808      256.07774     -394.03582      312.39554      4063.6356      1.0177122      4455.7805     -141.80949     -4.6924513     -680.6904      -891.42242     -1713.9223      481.10731    
    589000  -135.22497      248.65        -383.87497      303.33427     -10.681235      1.0177122      4455.7805     -156.55702     -4.6924513     -682.01275     -891.60474     -1730.1745      582.14295    
    590000  -132.63133      255.90388     -388.5352       312.18344     -2664.329       1.0177122      4455.7805     -141.32231     -4.6924513     -680.113       -891.44686     -1712.8822      598.33933    
    591000  -115.64728      269.16553     -384.81281      328.36166      4716.0385      1.0177122      4455.7805     -139.66412     -4.6924513     -682.13713     -891.45154     -1713.2528      519.26804    
    592000  -145.25424      253.36439     -398.61863      309.08546     -1909.2986      1.0177122      4455.7805     -146.48945     -4.6924513     -682.87585     -891.47717     -1720.8425      572.65654    
    593000  -138.9425       245.82862     -384.77112      299.89239      5772.5826      1.0177122      4455.7805     -144.55301     -4.6924513     -683.58844     -891.52218     -1719.6636      577.76646    
    594000  -129.20291      272.50504     -401.70795      332.43561      1184.8836      1.0177122      4455.7805     -142.97234     -4.6924513     -679.18584     -891.47226     -1713.6304      554.49166    
    595000  -153.54825      224.22703     -377.77528      273.54008      465.03406      1.0177122      4455.7805     -151.11728     -4.6924513     -675.61055     -891.32958     -1718.0574      508.65642    
    596000  -126.63998      257.97105     -384.61102      314.70524      2682.312       1.0177122      4455.7805     -139.2781      -4.6924513     -680.08537     -891.40238     -1710.7658      562.39649    
    597000  -140.80125      266.48857     -407.28982      325.09597     -2017.3665      1.0177122      4455.7805     -145.44769     -4.6924513     -679.10895     -891.43178     -1715.9884      546.70222    
    598000  -141.35334      253.37942     -394.73277      309.1038      -691.30365      1.0177122      4455.7805     -135.06518     -4.6924513     -680.28109     -891.63602     -1706.9823      439.76547    
    599000  -105.84896      275.46655     -381.3155       336.04843     -3152.9448      1.0177122      4455.7805     -146.68005     -4.6924513     -679.55173     -891.29525     -1717.527       507.5113     
    600000  -132.45636      260.31268     -392.76904      317.56186      1320.3681      1.0177122      4455.7805     -153.44589     -4.6924513     -681.98871     -891.53547     -1726.9701      561.92198    
    601000  -135.56125      238.63318     -374.19442      291.11449     -2950.5875      1.0177122      4455.7805     -147.71272     -4.6924513     -678.56761     -891.44029     -1717.7206      598.14975    
    602000  -121.83654      254.09027     -375.92681      309.97099      2192.9631      1.0177122      4455.7805     -148.62278     -4.6924513     -680.22316     -891.53159     -1720.3775      546.01681    
    603000  -128.4511       261.10429     -389.55539      318.52756      2155.5544      1.0177122      4455.7805     -151.30946     -4.6924513     -682.45558     -891.54693     -1725.312       575.6513     
    604000  -141.44611      239.70123     -381.14734      292.41744      3800.3478      1.0177122      4455.7805     -147.38727     -4.6924513     -683.08479     -891.54188     -1722.0139      568.59288    
    605000  -100.58816      266.28588     -366.87404      324.8487       2504.6474      1.0177122      4455.7805     -137.01392     -4.6924513     -682.11364     -891.43111     -1710.5587      590.85232    
    606000  -90.431381      266.26938     -356.70076      324.82857      2368.1327      1.0177122      4455.7805     -148.90086     -4.6924513     -679.43275     -891.39927     -1719.7329      627.317      
    607000  -163.38007      239.03769     -402.41776      291.60797      2876.4207      1.0177122      4455.7805     -140.01875     -4.6924513     -679.54718     -891.51194     -1711.0779      485.65418    
    608000  -124.66585      258.2928      -382.95864      315.09775      3500.5283      1.0177122      4455.7805     -130.47881     -4.6924513     -681.82069     -891.45294     -1703.7524      517.12553    
    609000  -145.69052      248.22545     -393.91597      302.81634      1241.1398      1.0177122      4455.7805     -132.80121     -4.6924513     -682.70967     -891.41337     -1706.9242      506.09033    
    610000  -124.68665      261.33551     -386.02216      318.80963     -3335.9543      1.0177122      4455.7805     -135.52706     -4.6924513     -681.26793     -891.35993     -1708.1549      591.20045    
    611000  -114.329        270.06587     -384.39487      329.46001      2932.533       1.0177122      4455.7805     -146.3407      -4.6924513     -679.27092     -891.63806     -1717.2497      523.6882     
    612000  -120.73458      270.50007     -391.23465      329.98971      812.19592      1.0177122      4455.7805     -144.51869     -4.6924513     -679.48888     -891.38522     -1715.3928      573.06419    
    613000  -90.575031      262.74316     -353.31819      320.52685     -662.88608      1.0177122      4455.7805     -143.02867     -4.6924513     -679.60755     -891.33969     -1713.9759      566.13747    
    614000  -120.15668      267.42856     -387.58524      326.24269      2897.5649      1.0177122      4455.7805     -143.36727     -4.6924513     -678.55205     -891.59744     -1713.5168      526.24098    
    615000  -151.12341      245.19045     -396.31386      299.11388     -537.94727      1.0177122      4455.7805     -140.98892     -4.6924513     -679.19112     -891.29531     -1711.4753      513.39913    
    616000  -153.47414      252.12224     -405.59638      307.57013      1808.5948      1.0177122      4455.7805     -152.66085     -4.6924513     -682.36512     -891.44568     -1726.4716      468.92132    
    617000  -150.48858      239.16114     -389.64971      291.75856      3325.3886      1.0177122      4455.7805     -140.64915     -4.6924513     -680.35292     -891.45944     -1712.4615      532.89178    
    618000  -161.79293      232.49388     -394.28681      283.62502      4120.8175      1.0177122      4455.7805     -136.32076     -4.6924513     -679.28177     -891.64133     -1707.2439      487.09745    
    619000  -141.45778      249.97817     -391.43595      304.95453      1297.9545      1.0177122      4455.7805     -142.29209     -4.6924513     -682.14682     -891.75774     -1716.1967      510.81168    
    620000  -128.44182      249.82835     -378.27017      304.77176      4407.4293      1.0177122      4455.7805     -135.5041      -4.6924513     -685.03361     -891.60453     -1712.1422      457.17221    
    621000  -105.71856      268.99606     -374.71462      328.15493      2082.4121      1.0177122      4455.7805     -137.20268     -4.6924513     -680.88789     -891.51178     -1709.6024      440.32123    
    622000  -138.59529      234.0414      -372.63669      285.51287     -2123.6459      1.0177122      4455.7805     -148.6168      -4.6924513     -677.19306     -891.56235     -1717.3722      468.88697    
    623000  -102.23174      246.7577      -348.98944      301.0258       189.06485      1.0177122      4455.7805     -155.14312     -4.6924513     -678.34927     -891.45111     -1724.9435      479.82178    
    624000  -125.42047      256.88208     -382.30254      313.37678      4613.4115      1.0177122      4455.7805     -141.23163     -4.6924513     -683.9802      -891.50742     -1716.7193      507.32013    
    625000  -167.2885       239.11252     -406.40102      291.69925      3092.53        1.0177122      4455.7805     -154.19107     -4.6924513     -679.57972     -891.58737     -1725.3582      553.4465     
    626000  -158.51331      236.11831     -394.63162      288.04654      3275.3588      1.0177122      4455.7805     -150.23795     -4.6924513     -684.91398     -891.54871     -1726.7006      575.29669    
    627000  -147.06351      262.98875     -410.05226      320.82646      3668.2055      1.0177122      4455.7805     -149.86733     -4.6924513     -677.87762     -891.5046      -1719.2496      544.5312     
    628000  -128.19376      239.92079     -368.11454      292.68528     -439.19843      1.0177122      4455.7805     -140.4595      -4.6924513     -681.6187      -891.65846     -1713.7367      570.33436    
    629000  -163.84171      237.08772     -400.92942      289.22915      5072.9794      1.0177122      4455.7805     -144.53554     -4.6924513     -679.42419     -891.56376     -1715.5235      559.83933    
    630000  -132.70007      255.31566     -388.01572      311.46586     -530.13353      1.0177122      4455.7805     -143.7121      -4.6924513     -679.47252     -891.47045     -1714.6551      597.41367    
    631000  -134.16089      250.13475     -384.29564      305.14555      1757.6581      1.0177122      4455.7805     -144.03529     -4.6924513     -678.69726     -891.3737      -1714.1062      591.7191     
    632000  -180.07897      239.839       -419.91798      292.58551     -697.43015      1.0177122      4455.7805     -140.45316     -4.6924513     -681.09215     -891.63419     -1713.1795      470.87217    
    633000  -122.8851       246.4621      -369.3472       300.66519      1178.5017      1.0177122      4455.7805     -145.32669     -4.6924513     -680.89985     -891.43359     -1717.6601      501.00831    
    634000  -137.29934      251.33539     -388.63473      306.61024      1584.6499      1.0177122      4455.7805     -144.53957     -4.6924513     -685.53966     -891.40035     -1721.4796      426.94718    
    635000  -171.87051      231.52469     -403.3952       282.44267      3445.8015      1.0177122      4455.7805     -139.35799     -4.6924513     -680.29336     -891.47939     -1711.1307      533.60259    
    636000  -139.86838      252.47975     -392.34813      308.00627      2161.3622      1.0177122      4455.7805     -141.22558     -4.6924513     -679.10756     -891.3872      -1711.7203      482.22397    
    637000  -146.91709      251.79822     -398.71531      307.17486     -2326.8849      1.0177122      4455.7805     -146.27167     -4.6924513     -678.72956     -891.6362      -1716.6374      399.96323    
    638000  -118.05426      241.94497     -359.99923      295.15463      4130.7952      1.0177122      4455.7805     -146.85233     -4.6924513     -679.88679     -891.41009     -1718.1492      478.57503    
    639000  -135.39719      244.49189     -379.88908      298.26168      907.10217      1.0177122      4455.7805     -150.40604     -4.6924513     -683.47182     -891.54464     -1725.4225      524.45165    
    640000  -113.9952       256.12633     -370.12153      312.45483      2514.7822      1.0177122      4455.7805     -152.1297      -4.6924513     -681.2228      -891.46132     -1724.8138      480.83428    
    641000  -133.944        249.90119     -383.84519      304.86062      1808.4011      1.0177122      4455.7805     -137.56288     -4.6924513     -682.91566     -891.395       -1711.8735      422.41468    
    642000  -142.01748      243.07502     -385.0925       296.53321      1456.228       1.0177122      4455.7805     -142.74668     -4.6924513     -680.59545     -891.56141     -1714.9035      472.73857    
    643000  -117.01591      244.55509     -361.571        298.33879      1503.7848      1.0177122      4455.7805     -152.71756     -4.6924513     -677.82429     -891.40459     -1721.9464      586.81485    
    644000  -119.26229      261.34297     -380.60526      318.81873      4592.0023      1.0177122      4455.7805     -146.14117     -4.6924513     -677.97235     -891.62629     -1715.7398      496.00124    
    645000  -113.06846      262.4606      -375.52905      320.18215     -1809.6221      1.0177122      4455.7805     -151.32477     -4.6924513     -680.85334     -891.50484     -1723.6829      473.74112    
    646000  -155.15488      244.58101     -399.73589      298.3704       1900.1522      1.0177122      4455.7805     -138.66818     -4.6924513     -681.54802     -891.43894     -1711.6551      479.78682    
    647000  -164.67269      218.08223     -382.75492      266.04389      2695.5565      1.0177122      4455.7805     -132.64221     -4.6924513     -683.00523     -891.40848     -1707.0559      448.81       
    648000  -144.40556      268.1428      -412.54836      327.11401      851.19576      1.0177122      4455.7805     -151.02673     -4.6924513     -676.90225     -891.57039     -1719.4994      452.09694    
    649000  -142.4478       235.17762     -377.62542      286.89897      434.32398      1.0177122      4455.7805     -151.36761     -4.6924513     -680.67283     -891.6632      -1723.7036      415.57545    
    650000  -149.75519      244.73        -394.48519      298.55216      2374.8059      1.0177122      4455.7805     -145.21458     -4.6924513     -677.33241     -891.44647     -1713.9935      486.45346    
    651000  -149.6831       237.44615     -387.12925      289.66641     -2341.4501      1.0177122      4455.7805     -152.96079     -4.6924513     -680.50122     -891.40468     -1724.8667      505.1904     
    652000  -114.77059      235.12068     -349.89127      286.82951     -341.05019      1.0177122      4455.7805     -139.79581     -4.6924513     -677.61702     -891.4415      -1708.8543      446.79496    
    653000  -140.71069      251.24        -391.95069      306.49387     -1397.9103      1.0177122      4455.7805     -150.41598     -4.6924513     -678.54963     -891.45362     -1720.4192      562.7466     
    654000  -135.72308      241.77611     -377.49919      294.94863     -1673.6414      1.0177122      4455.7805     -147.56021     -4.6924513     -680.48048     -891.49849     -1719.5392      493.81953    
    655000  -142.86512      243.86496     -386.73007      297.49687      4157.5017      1.0177122      4455.7805     -144.90312     -4.6924513     -681.76755     -891.41532     -1718.086       550.00143    
    656000  -122.55607      261.60895     -384.16503      319.14321     -385.17175      1.0177122      4455.7805     -149.74422     -4.6924513     -677.21653     -891.40973     -1718.3705      546.26471    
    657000  -131.53856      260.65852     -392.19708      317.98375      2659.2212      1.0177122      4455.7805     -136.42145     -4.6924513     -684.29758     -891.5627      -1712.2817      510.10512    
    658000  -127.70884      258.41374     -386.12258      315.24529     -6394.0701      1.0177122      4455.7805     -154.50108     -4.6924513     -678.15274     -891.54994     -1724.2038      492.93014    
    659000  -133.75648      268.98198     -402.73845      328.13774      2326.0414      1.0177122      4455.7805     -144.89349     -4.6924513     -677.37414     -891.4601      -1713.7277      518.63554    
    660000  -158.40367      244.25089     -402.65456      297.96767      3130.0237      1.0177122      4455.7805     -138.04221     -4.6924513     -678.89112     -891.57739     -1708.5107      419.21424    
    661000  -153.70947      262.28281     -415.99229      319.96527      1787.4236      1.0177122      4455.7805     -146.38969     -4.6924513     -682.10363     -891.54771     -1720.041       351.22092    
    662000  -104.20711      271.70663     -375.91374      331.46161      3851.2154      1.0177122      4455.7805     -145.62531     -4.6924513     -679.47515     -891.44407     -1716.5445      355.14875    
    663000  -151.416        239.66204     -391.07804      292.36963     -764.81145      1.0177122      4455.7805     -151.98794     -4.6924513     -681.63916     -891.52977     -1725.1569      442.58239    
    664000  -169.80843      219.21595     -389.02438      267.42694     -3482.3115      1.0177122      4455.7805     -155.27658     -4.6924513     -679.03275     -891.50845     -1725.8178      421.68812    
    665000  -130.33597      249.55675     -379.89272      304.44043     -1188.6124      1.0177122      4455.7805     -144.53009     -4.6924513     -680.45951     -891.48856     -1716.4782      472.28077    
    666000  -120.68242      248.83586     -369.51828      303.561        5610.7981      1.0177122      4455.7805     -141.88056     -4.6924513     -682.6291      -891.58183     -1716.0915      386.49928    
    667000  -138.34281      242.89973     -381.24253      296.31936      326.94208      1.0177122      4455.7805     -148.79659     -4.6924513     -674.04331     -891.60293     -1714.4428      436.91953    
    668000  -112.3658       243.71997     -356.08577      297.32        -518.27211      1.0177122      4455.7805     -129.77784     -4.6924513     -681.53816     -891.46445     -1702.7804      520.06008    
    669000  -131.20613      268.76956     -399.97568      327.87861      3252.4529      1.0177122      4455.7805     -147.59158     -4.6924513     -678.08569     -891.50571     -1717.183       480.21763    
    670000  -136.93561      235.45612     -372.39173      287.23872     -4065.1164      1.0177122      4455.7805     -149.2897      -4.6924513     -675.23196     -891.36905     -1715.8907      444.76404    
    671000  -124.57103      255.70675     -380.27779      311.94297      3553.9577      1.0177122      4455.7805     -150.36769     -4.6924513     -684.05182     -891.51896     -1725.9385      481.65848    
    672000  -158.29979      248.79995     -407.09974      303.51719     -1711.8915      1.0177122      4455.7805     -151.08622     -4.6924513     -677.27072     -891.45642     -1719.8134      567.10991    
    673000  -144.79167      257.12623     -401.9179       313.67463      3359.8707      1.0177122      4455.7805     -141.38517     -4.6924513     -682.43167     -891.38729     -1715.2041      408.83657    
    674000  -122.55196      242.16123     -364.7132       295.41846     -2268.6003      1.0177122      4455.7805     -147.1586      -4.6924513     -679.71926     -891.37958     -1718.2574      516.68339    
    675000  -139.04336      245.38601     -384.42936      299.35244      1892.702       1.0177122      4455.7805     -144.94562     -4.6924513     -678.58616     -891.52646     -1715.0582      543.16714    
    676000  -159.55078      250.38662     -409.93739      305.45281      1450.1161      1.0177122      4455.7805     -147.65363     -4.6924513     -681.377       -891.44372     -1720.4744      527.55139    
    677000  -150.97445      253.80164     -404.77609      309.61888      1492.5708      1.0177122      4455.7805     -152.00666     -4.6924513     -678.77925     -891.48094     -1722.2669      562.71824    
    678000  -104.37714      254.2962      -358.67334      310.2222      -166.00313      1.0177122      4455.7805     -142.62552     -4.6924513     -677.39568     -891.50807     -1711.5293      556.19441    
    679000  -149.76785      243.02092     -392.78878      296.46721     -2995.5222      1.0177122      4455.7805     -146.80515     -4.6924513     -680.32116     -891.46021     -1718.5865      547.07623    
    680000  -146.37443      253.9664      -400.34083      309.81987      2328.5692      1.0177122      4455.7805     -150.21532     -4.6924513     -678.39079     -891.48779     -1720.0939      564.13398    
    681000  -137.99986      251.89941     -389.89927      307.29829      4953.5636      1.0177122      4455.7805     -132.6059      -4.6924513     -683.94557     -891.52201     -1708.0735      536.49754    
    682000  -101.45305      264.70872     -366.16177      322.92469      2185.9877      1.0177122      4455.7805     -146.76691     -4.6924513     -679.62354     -891.5086      -1717.8991      520.73869    
    683000  -145.35547      240.97856     -386.33403      293.97569      4581.9643      1.0177122      4455.7805     -142.19733     -4.6924513     -681.05553     -891.49242     -1714.7453      510.39005    
    684000  -131.23538      249.3381      -380.57348      304.1737       2428.9252      1.0177122      4455.7805     -146.78628     -4.6924513     -679.3782      -891.57409     -1717.7386      466.18636    
    685000  -151.85706      243.87827     -395.73533      297.51311      2938.7276      1.0177122      4455.7805     -147.78477     -4.6924513     -682.92029     -891.60587     -1722.3109      456.61019    
    686000  -124.14547      252.63227     -376.77774      308.19233      1234.8229      1.0177122      4455.7805     -150.74186     -4.6924513     -680.18968     -891.68476     -1722.6163      455.94951    
    687000  -135.27133      236.97553     -372.24687      289.09229     -1651.9504      1.0177122      4455.7805     -149.48409     -4.6924513     -681.0723      -891.37305     -1721.9294      495.75448    
    688000  -121.73405      253.09404     -374.82808      308.75565      3798.248       1.0177122      4455.7805     -147.97283     -4.6924513     -679.29144     -891.46232     -1718.7266      538.30825    
    689000  -121.15538      255.58014     -376.73553      311.78851      2900.8955      1.0177122      4455.7805     -143.22826     -4.6924513     -683.98068     -891.48381     -1718.6927      529.50188    
    690000  -146.05249      239.63858     -385.69107      292.34101     -329.36675      1.0177122      4455.7805     -151.18323     -4.6924513     -679.27672     -891.4589      -1721.9188      569.72347    
    691000  -154.59204      239.05166     -393.6437       291.62501      5297.2169      1.0177122      4455.7805     -145.70726     -4.6924513     -680.55829     -891.54002     -1717.8056      523.6642     
    692000  -145.35023      232.32705     -377.67728      283.4215      -520.10773      1.0177122      4455.7805     -137.90846     -4.6924513     -680.50326     -891.40207     -1709.8138      533.81156    
    693000  -155.67974      253.79686     -409.4766       309.61304      177.23364      1.0177122      4455.7805     -146.89731     -4.6924513     -680.21632     -891.54992     -1718.6635      469.79679    
    694000  -160.65939      236.27456     -396.93395      288.23716      6146.2593      1.0177122      4455.7805     -151.71283     -4.6924513     -678.95506     -891.62422     -1722.2921      464.63176    
    695000  -104.41863      260.39992     -364.81855      317.66828      3782.5681      1.0177122      4455.7805     -146.17859     -4.6924513     -682.13073     -891.48199     -1719.7913      387.27332    
    696000  -154.57169      235.90343     -390.47511      287.78441      3614.405       1.0177122      4455.7805     -140.26375     -4.6924513     -681.95447     -891.51501     -1713.7332      438.3594     
    697000  -122.92065      255.36215     -378.28281      311.52259      1178.8131      1.0177122      4455.7805     -138.01446     -4.6924513     -679.26336     -891.44522     -1708.723       437.78761    
    698000  -152.3408       232.5884      -384.9292       283.74032      2927.5937      1.0177122      4455.7805     -148.22268     -4.6924513     -679.4091      -891.30912     -1718.9409      455.92467    
    699000  -134.87046      246.96672     -381.83718      301.28079     -2234.8005      1.0177122      4455.7805     -133.03782     -4.6924513     -680.50725     -891.56587     -1705.1109      357.52251    
    700000  -148.08565      243.48408     -391.56973      297.03223      5569.0213      1.0177122      4455.7805     -134.82793     -4.6924513     -682.15963     -891.48212     -1708.4697      356.79258    
    701000  -121.42814      261.22264     -382.65078      318.67193      2638.5737      1.0177122      4455.7805     -142.95413     -4.6924513     -680.00889     -891.57349     -1714.5365      424.69996    
    702000  -130.58816      258.54217     -389.13034      315.40197     -6259.7293      1.0177122      4455.7805     -148.51649     -4.6924513     -682.44397     -891.40946     -1722.3699      370.15369    
    703000  -137.08002      250.22062     -387.30064      305.25031      162.54918      1.0177122      4455.7805     -152.41246     -4.6924513     -677.67947     -891.5507      -1721.6426      314.33968    
    704000  -149.40562      247.89305     -397.29867      302.41084      2052.5904      1.0177122      4455.7805     -140.35818     -4.6924513     -680.23674     -891.46878     -1712.0637      351.87026    
    705000  -139.53266      234.90331     -374.43597      286.56433     -2421.7543      1.0177122      4455.7805     -146.4131      -4.6924513     -679.4742      -891.50093     -1717.3882      364.03971    
    706000  -136.03315      246.34934     -382.38249      300.52763     -253.65232      1.0177122      4455.7805     -148.14934     -4.6924513     -681.37478     -891.38153     -1720.9056      340.9955     
    707000  -121.78015      260.29903     -382.07918      317.5452       1153.4952      1.0177122      4455.7805     -149.42776     -4.6924513     -678.29857     -891.39595     -1719.1223      371.97082    
    708000  -119.87948      260.1647      -380.04418      317.38133      3473.3694      1.0177122      4455.7805     -148.57383     -4.6924513     -681.64068     -891.36976     -1721.5843      302.58468    
    709000  -145.28233      249.45764     -394.73996      304.31952     -1333.2134      1.0177122      4455.7805     -151.25029     -4.6924513     -678.49564     -891.50652     -1721.2524      372.02263    
    710000  -132.83857      251.07029     -383.90886      306.28683     -2566.586       1.0177122      4455.7805     -146.26364     -4.6924513     -677.36802     -891.47467     -1715.1063      364.83308    
    711000  -124.00818      264.21483     -388.223        322.32218      2016.3875      1.0177122      4455.7805     -141.97725     -4.6924513     -679.87329     -891.49172     -1713.3423      338.98335    
    712000  -131.68297      252.10766     -383.79063      307.55235      1380.7461      1.0177122      4455.7805     -140.42092     -4.6924513     -682.66583     -891.48072     -1714.5675      323.57203    
    713000  -136.61673      244.37311     -380.98983      298.11677     -1499.2417      1.0177122      4455.7805     -144.53582     -4.6924513     -677.24386     -891.46171     -1713.2414      382.46971    
    714000  -131.95695      243.51679     -375.47374      297.07213     -1408.1652      1.0177122      4455.7805     -154.22335     -4.6924513     -681.61517     -891.4911      -1727.3296      287.22252    
    715000  -136.57076      240.24128     -376.81203      293.07626      2612.8571      1.0177122      4455.7805     -137.61361     -4.6924513     -680.81608     -891.45531     -1709.885       270.91533    
    716000  -155.59058      229.70496     -385.29554      280.22274     -1964.7125      1.0177122      4455.7805     -143.26878     -4.6924513     -679.15796     -891.46628     -1713.893       243.56427    
    717000  -138.23896      244.92978     -383.16874      298.79587      2378.3137      1.0177122      4455.7805     -144.96473     -4.6924513     -679.27585     -891.45001     -1715.6906      257.05665    
    718000  -116.54016      257.04589     -373.58606      313.57662      1180.5906      1.0177122      4455.7805     -148.52808     -4.6924513     -683.75974     -891.50309     -1723.7909      219.13128    
    719000  -136.94194      249.20053     -386.14247      304.00587     -87.781155      1.0177122      4455.7805     -149.0044      -4.6924513     -679.30217     -891.57449     -1719.8811      212.52201    
    720000  -135.00985      269.00023     -404.01008      328.16001     -890.35682      1.0177122      4455.7805     -145.80827     -4.6924513     -677.68212     -891.51469     -1715.0051      266.19493    
    721000  -129.49184      242.19128     -371.68312      295.45511      942.88312      1.0177122      4455.7805     -139.83352     -4.6924513     -682.88925     -891.61244     -1714.3352      218.52042    
    722000  -125.88696      262.02235     -387.90932      319.64752     -1306.001       1.0177122      4455.7805     -141.23364     -4.6924513     -680.77221     -891.5806      -1713.5864      219.82357    
    723000  -139.1155       264.8535      -403.969        323.10131      3225.7649      1.0177122      4455.7805     -144.37451     -4.6924513     -681.21202     -891.4281      -1717.0146      226.93324    
    724000  -106.84014      257.38448     -364.22462      313.98966     -1884.7938      1.0177122      4455.7805     -148.36354     -4.6924513     -682.55659     -891.58708     -1722.5072      317.9398     
    725000  -94.446285      291.98464     -386.43092      356.19926      3513.1361      1.0177122      4455.7805     -137.68717     -4.6924513     -681.05008     -891.54812     -1710.2854      282.68294    
    726000  -143.77864      237.18454     -380.96318      289.34727      5471.378       1.0177122      4455.7805     -139.33398     -4.6924513     -684.28316     -891.5578      -1715.1749      312.04015    
    727000  -135.84068      252.703       -388.54368      308.27862      2821.8382      1.0177122      4455.7805     -136.63863     -4.6924513     -680.68244     -891.38911     -1708.7102      329.6734     
    728000  -139.36362      246.1285      -385.49212      300.25823      4970.7565      1.0177122      4455.7805     -137.45101     -4.6924513     -682.68876     -891.47478     -1711.6145      244.08258    
    729000  -154.75121      242.82184     -397.57305      296.22435      1727.7096      1.0177122      4455.7805     -143.36386     -4.6924513     -677.71449     -891.37401     -1712.4524      266.89717    
    730000  -138.94717      247.69176     -386.63893      302.16528     -3313.891       1.0177122      4455.7805     -137.89737     -4.6924513     -682.5971      -891.52913     -1712.0236      303.16295    
    731000  -124.54054      260.094       -384.63455      317.29508      464.87474      1.0177122      4455.7805     -143.88766     -4.6924513     -679.11403     -891.47141     -1714.4731      267.38354    
    732000  -134.2147       242.44882     -376.66352      295.7693       2161.3216      1.0177122      4455.7805     -143.75165     -4.6924513     -681.33808     -891.57319     -1716.6629      192.81445    
    733000  -129.28704      258.36149     -387.64852      315.18154     -406.93721      1.0177122      4455.7805     -138.43832     -4.6924513     -678.6063      -891.4785      -1708.5231      308.68536    
    734000  -153.19979      231.77693     -384.97672      282.75039     -1902.5715      1.0177122      4455.7805     -144.57251     -4.6924513     -680.3656      -891.51784     -1716.4559      297.366      
    735000  -155.10359      243.04857     -398.15216      296.50094      557.92596      1.0177122      4455.7805     -135.92999     -4.6924513     -681.50346     -891.60026     -1709.0337      272.94008    
    736000  -153.77127      249.72231     -403.49358      304.6424       912.00974      1.0177122      4455.7805     -145.40799     -4.6924513     -682.41126     -891.49251     -1719.3118      235.61603    
    737000  -133.3315       247.91348     -381.24498      302.43576     -3017.7194      1.0177122      4455.7805     -150.00085     -4.6924513     -677.89533     -891.52644     -1719.4226      324.37419    
    738000  -122.30021      253.63432     -375.93452      309.41475     -959.41121      1.0177122      4455.7805     -148.33376     -4.6924513     -680.80345     -891.42107     -1720.5583      236.66736    
    739000  -124.50529      245.98345     -370.48874      300.08127      3059.0095      1.0177122      4455.7805     -146.55777     -4.6924513     -681.45195     -891.47745     -1719.4872      279.77265    
    740000  -138.22818      253.89954     -392.12772      309.73831      2642.0567      1.0177122      4455.7805     -146.86449     -4.6924513     -677.58407     -891.51397     -1715.9625      216.35607    
    741000  -146.60642      253.54004     -400.14646      309.29974      3334.0249      1.0177122      4455.7805     -148.16712     -4.6924513     -678.89265     -891.54362     -1718.6034      230.25815    
    742000  -161.50364      229.24917     -390.75282      279.66672      85.760788      1.0177122      4455.7805     -153.75028     -4.6924513     -681.07588     -891.49201     -1726.3182      162.5147     
    743000  -121.4551       270.95901     -392.41411      330.54957      427.08595      1.0177122      4455.7805     -148.83334     -4.6924513     -681.19681     -891.3256      -1721.3557      167.83573    
    744000  -128.01555      267.67672     -395.69227      326.54543     -759.90006      1.0177122      4455.7805     -143.58695     -4.6924513     -684.62867     -891.41094     -1719.6266      159.52027    
    745000  -128.68533      257.44005     -386.12538      314.05746      278.13514      1.0177122      4455.7805     -144.02558     -4.6924513     -681.34096     -891.21674     -1716.5833      184.22191    
    746000  -127.89701      263.11238     -391.00939      320.97728      5738.8379      1.0177122      4455.7805     -138.93856     -4.6924513     -678.56451     -891.35451     -1708.8576      211.73942    
    747000  -136.51169      252.05977     -388.57147      307.49393      2308.06        1.0177122      4455.7805     -143.67577     -4.6924513     -680.46703     -891.59328     -1715.7361      187.02435    
    748000  -143.21184      245.8903      -389.10215      299.96764      5060.1193      1.0177122      4455.7805     -149.47227     -4.6924513     -681.58425     -891.48613     -1722.5427      165.09704    
    749000  -159.91273      236.13053     -396.04326      288.06146      1293.3285      1.0177122      4455.7805     -136.11193     -4.6924513     -677.49091     -891.44556     -1705.0484      166.16938    
    750000  -140.7177       254.93355     -395.65125      310.99972      1295.7349      1.0177122      4455.7805     -151.12679     -4.6924513     -682.33011     -891.48448     -1724.9414      157.2587     
    751000  -119.01311      258.87042     -377.88353      315.8024       2394.5536      1.0177122      4455.7805     -138.50803     -4.6924513     -681.42253     -891.59575     -1711.5263      184.47525    
    752000  -129.17761      255.04483     -384.22245      311.13548      3457.188       1.0177122      4455.7805     -142.62537     -4.6924513     -680.97411     -891.35304     -1714.9525      162.71739    
    753000  -156.83598      231.22713     -388.0631       282.07967     -172.72016      1.0177122      4455.7805     -153.08026     -4.6924513     -678.8955      -891.47041     -1723.4462      185.98119    
    754000  -137.66876      253.93217     -391.60093      309.77811      3340.3424      1.0177122      4455.7805     -141.29261     -4.6924513     -681.75668     -891.56407     -1714.6134      148.9826     
    755000  -176.14811      229.72436     -405.87247      280.24641      4060.5616      1.0177122      4455.7805     -145.57317     -4.6924513     -679.64352     -891.49524     -1716.7119      153.51131    
    756000  -158.12608      245.45653     -403.58261      299.43848      3835.9185      1.0177122      4455.7805     -150.63501     -4.6924513     -680.20684     -891.42517     -1722.267       140.32254    
    757000  -112.15386      268.62212     -380.77599      327.69875      1203.3557      1.0177122      4455.7805     -156.4363      -4.6924513     -683.75076     -891.47147     -1731.6585      186.75241    
    758000  -155.65321      245.67073     -401.32393      299.69977      1960.4312      1.0177122      4455.7805     -141.88887     -4.6924513     -680.52031     -891.45512     -1713.8643      213.70444    
    759000  -119.87332      255.27905     -375.15237      311.4212       2491.386       1.0177122      4455.7805     -143.36848     -4.6924513     -678.85568     -891.22806     -1713.4522      148.53555    
    760000  -142.30128      241.87026     -384.17154      295.06349      1996.274       1.0177122      4455.7805     -143.55166     -4.6924513     -682.03019     -891.47481     -1717.0567      189.05914    
    761000  -150.50566      238.62644     -389.1321       291.10628      4904.9939      1.0177122      4455.7805     -151.79759     -4.6924513     -683.59102     -891.46153     -1726.8501      185.66992    
    762000  -164.04367      220.53738     -384.58105      269.03898     -6217.5408      1.0177122      4455.7805     -144.4901      -4.6924513     -671.71415     -891.53116     -1707.7354      183.84543    
    763000  -137.32631      257.87571     -395.20202      314.58893      1332.2057      1.0177122      4455.7805     -136.1422      -4.6924513     -678.67579     -891.47519     -1706.2932      179.69096    
    764000  -145.7288       239.56481     -385.29361      292.25101     -4738.414       1.0177122      4455.7805     -141.03511     -4.6924513     -678.71555     -891.53688     -1711.2875      167.99069    
    765000  -137.86199      245.33049     -383.19248      299.28471      7052.4702      1.0177122      4455.7805     -141.41497     -4.6924513     -683.43846     -891.59923     -1716.4527      177.21397    
    766000  -156.1782       234.3119      -390.4901       285.84287     -3932.5903      1.0177122      4455.7805     -139.83062     -4.6924513     -678.02452     -891.35234     -1709.2075      200.45812    
    767000  -133.67111      259.23129     -392.9024       316.24264      2151.6048      1.0177122      4455.7805     -142.42302     -4.6924513     -679.51703     -891.38186     -1713.3219      194.96727    
    768000  -132.937        259.84388     -392.78088      316.98995      480.36472      1.0177122      4455.7805     -151.24133     -4.6924513     -681.81895     -891.43072     -1724.491       159.93235    
    769000  -126.42827      253.53401     -379.96228      309.29238      1015.2398      1.0177122      4455.7805     -143.86529     -4.6924513     -680.34828     -891.40493     -1715.6185      156.06656    
    770000  -147.43178      247.82317     -395.25494      302.32559      1747.7715      1.0177122      4455.7805     -149.28941     -4.6924513     -682.08074     -891.41185     -1722.782       146.60032    
    771000  -155.17301      246.92814     -402.10114      301.23372      6436.8795      1.0177122      4455.7805     -152.00822     -4.6924513     -684.47651     -891.37846     -1727.8632      180.45272    
    772000  -149.81767      255.76745     -405.58512      312.01702     -75.172319      1.0177122      4455.7805     -146.1777      -4.6924513     -677.44468     -891.47261     -1715.095       161.10297    
    773000  -127.09951      264.74569     -391.8452       322.96979      1232.0784      1.0177122      4455.7805     -153.11207     -4.6924513     -679.14768     -891.40954     -1723.6693      158.40827    
    774000  -133.83589      261.35696     -395.19284      318.83579      2229.9308      1.0177122      4455.7805     -142.28476     -4.6924513     -681.31573     -891.49899     -1715.0995      153.79098    
    775000  -165.56699      241.66809     -407.23507      294.81685      4109.4611      1.0177122      4455.7805     -140.50341     -4.6924513     -679.66081     -891.53636     -1711.7006      163.19409    
    776000  -179.13463      213.35169     -392.48631      260.27298      708.43615      1.0177122      4455.7805     -145.98293     -4.6924513     -680.31089     -891.44655     -1717.7404      188.56101    
    777000  -143.87446      242.48895     -386.36342      295.81825     -4015.0122      1.0177122      4455.7805     -139.59089     -4.6924513     -677.78753     -891.48179     -1708.8602      160.56499    
    778000  -174.59344      232.9297      -407.52314      284.15668      2747.5102      1.0177122      4455.7805     -143.12823     -4.6924513     -679.86538     -891.61592     -1714.6095      156.81138    
    779000  -141.45438      250.85484     -392.30923      306.02401      1925.1455      1.0177122      4455.7805     -153.56157     -4.6924513     -682.08297     -891.39615     -1727.0407      178.24909    
    780000  -108.09647      282.23373     -390.3302       344.30388      350.21109      1.0177122      4455.7805     -147.43452     -4.6924513     -680.83643     -891.46964     -1719.7406      187.47321    
    781000  -179.45003      218.27627     -397.7263       266.28061      1655.1673      1.0177122      4455.7805     -145.40499     -4.6924513     -677.70397     -891.63987     -1714.7488      155.70169    
    782000  -131.88904      244.40104     -376.29008      298.15085     -1245.6402      1.0177122      4455.7805     -137.08016     -4.6924513     -679.93569     -891.50841     -1708.5243      156.34092    
    783000  -121.91318      263.75726     -385.67044      321.76398      1926.7283      1.0177122      4455.7805     -143.50971     -4.6924513     -680.59102     -891.25093     -1715.3517      157.43581    
    784000  -163.14709      246.1808      -409.32789      300.32203      4863.085       1.0177122      4455.7805     -146.03517     -4.6924513     -682.96217     -891.45815     -1720.4555      147.67494    
    785000  -124.6794       257.92741     -382.60682      314.65201      818.44302      1.0177122      4455.7805     -143.44492     -4.6924513     -680.37622     -891.37204     -1715.1932      177.60866    
    786000  -129.16381      252.29072     -381.45453      307.77567      354.17171      1.0177122      4455.7805     -145.22062     -4.6924513     -682.14557     -891.5126      -1718.8788      162.11618    
    787000  -160.02966      228.02874     -388.0584       278.17788      8146.1254      1.0177122      4455.7805     -143.41363     -4.6924513     -680.44555     -891.35427     -1715.2135      107.61022    
    788000  -152.0056       242.43629     -394.44189      295.754        1832.6939      1.0177122      4455.7805     -150.49428     -4.6924513     -681.97298     -891.5408      -1724.0081      102.20792    
    789000  -151.84         247.99362     -399.83362      302.53353      1395.4614      1.0177122      4455.7805     -144.69574     -4.6924513     -682.74413     -891.53675     -1718.9766      109.94108    
    790000  -137.00937      248.89952     -385.90889      303.63866     -2483.7249      1.0177122      4455.7805     -147.21827     -4.6924513     -679.18027     -891.32698     -1717.7255      132.42371    
    791000  -114.46285      257.47545     -371.9383       314.10065      1273.0777      1.0177122      4455.7805     -137.8163      -4.6924513     -679.75922     -891.52534     -1709.1009      146.2981     
    792000  -143.88492      248.93899     -392.82391      303.6868       6430.2591      1.0177122      4455.7805     -143.11936     -4.6924513     -682.69362     -891.61213     -1717.4251      107.74565    
    793000  -120.81581      270.10142     -390.91723      329.50338      3531.1185      1.0177122      4455.7805     -143.71175     -4.6924513     -679.8635      -891.41001     -1714.9853      128.37013    
    794000  -131.46643      259.35834     -390.82477      316.39763     -2979.5174      1.0177122      4455.7805     -149.74432     -4.6924513     -679.62778     -891.33534     -1720.7074      121.43296    
    795000  -128.68886      247.29646     -375.98532      301.68305      3981.3178      1.0177122      4455.7805     -135.54876     -4.6924513     -682.84373     -891.57688     -1709.9694      149.18902    
    796000  -156.20113      239.88369     -396.08482      292.64002      4306.9365      1.0177122      4455.7805     -138.76295     -4.6924513     -681.11784     -891.47782     -1711.3586      118.2964     
    797000  -137.72844      248.5737      -386.30215      303.24119      59.4955        1.0177122      4455.7805     -142.21098     -4.6924513     -681.15337     -891.552       -1714.9163      127.46721    
    798000  -141.57182      249.78671     -391.35853      304.72096      1340.2764      1.0177122      4455.7805     -137.59761     -4.6924513     -682.48208     -891.52414     -1711.6038      129.20566    
    799000  -139.38548      237.32959     -376.71507      289.52421      918.26164      1.0177122      4455.7805     -146.98763     -4.6924513     -678.41957     -891.34623     -1716.7534      138.01432    
    800000  -167.09853      244.12286     -411.22139      297.81149     -1101.068       1.0177122      4455.7805     -147.78163     -4.6924513     -679.45487     -891.45068     -1718.6872      118.23133    
    801000  -137.12658      250.51847     -387.64505      305.61366      4716.8588      1.0177122      4455.7805     -145.46398     -4.6924513     -681.98516     -891.59977     -1719.0489      128.26352    
    802000  -129.93234      261.76355     -391.69589      319.3318      -20.081585      1.0177122      4455.7805     -141.85024     -4.6924513     -683.95053     -891.61024     -1717.411       120.19634    
    803000  -161.19489      244.03753     -405.23242      297.7074      -673.58422      1.0177122      4455.7805     -150.36126     -4.6924513     -679.13036     -891.38972     -1720.8813      111.20081    
    804000  -132.12672      243.63134     -375.75806      297.21188     -1534.0142      1.0177122      4455.7805     -148.95646     -4.6924513     -679.08563     -891.48163     -1719.5237      88.040725    
    805000  -170.22501      237.63094     -407.85595      289.89183      2983.6322      1.0177122      4455.7805     -152.74235     -4.6924513     -678.41305     -891.2601      -1722.4155      95.712129    
    806000  -152.70089      236.91756     -389.61845      289.02157     -2646.184       1.0177122      4455.7805     -141.17576     -4.6924513     -679.71562     -891.44811     -1712.3395      120.89292    
    807000  -171.47934      238.53655     -410.01589      290.99662      3787.1089      1.0177122      4455.7805     -143.80383     -4.6924513     -680.82597     -891.51831     -1716.1481      102.1096     
    808000  -160.93223      236.70576     -397.63799      288.76319      3501.8342      1.0177122      4455.7805     -136.98064     -4.6924513     -681.26965     -891.73132     -1709.9816      113.08214    
    809000  -152.25202      252.79607     -405.04809      308.39216     -251.51619      1.0177122      4455.7805     -146.85151     -4.6924513     -677.88603     -891.31911     -1716.0566      113.84563    
    810000  -135.83311      267.21979     -403.05289      325.988        6828.3688      1.0177122      4455.7805     -142.48194     -4.6924513     -681.67886     -891.58714     -1715.7479      114.65264    
    811000  -134.7291       250.9701      -385.69919      306.16461      1239.9548      1.0177122      4455.7805     -151.77839     -4.6924513     -678.1997      -891.26718     -1721.2453      94.492108    
    812000  -150.85265      252.46492     -403.31757      307.98818     -1287.971       1.0177122      4455.7805     -147.15073     -4.6924513     -679.39949     -891.5104      -1718.0606      99.280636    
    813000  -127.39284      270.54996     -397.9428       330.05056      2188.4961      1.0177122      4455.7805     -140.36107     -4.6924513     -679.37738     -891.38998     -1711.1284      91.369831    
    814000  -136.43011      246.64716     -383.07727      300.89094     -1665.6569      1.0177122      4455.7805     -144.08231     -4.6924513     -682.56018     -891.50445     -1718.1469      113.05455    
    815000  -153.32015      235.17267     -388.49282      286.89294     -1084.1065      1.0177122      4455.7805     -147.87136     -4.6924513     -677.93698     -891.49502     -1717.3034      108.96174    
    816000  -132.80731      258.44973     -391.25705      315.2892       864.4443       1.0177122      4455.7805     -149.83395     -4.6924513     -681.38139     -891.46075     -1722.6761      94.961824    
    817000  -148.72705      246.66817     -395.39521      300.91657      3816.5538      1.0177122      4455.7805     -137.74528     -4.6924513     -682.34372     -891.478       -1711.567       104.13851    
    818000  -133.90665      251.78724     -385.69389      307.16146      1858.5974      1.0177122      4455.7805     -151.60878     -4.6924513     -680.51429     -891.42383     -1723.5469      115.60324    
    819000  -131.34911      237.92598     -369.27509      290.25176      795.19586      1.0177122      4455.7805     -154.88381     -4.6924513     -681.16034     -891.4383      -1727.4825      104.24544    
    820000  -139.55091      267.60353     -407.15444      326.45614      1815.0662      1.0177122      4455.7805     -141.81701     -4.6924513     -679.93308     -891.47426     -1713.2243      91.254263    
    821000  -158.15575      253.11296     -411.26871      308.77874      3942.5014      1.0177122      4455.7805     -147.37882     -4.6924513     -681.45158     -891.55301     -1720.3834      112.673      
    822000  -127.61505      260.55071     -388.16576      317.85223      299.51267      1.0177122      4455.7805     -145.24687     -4.6924513     -680.03325     -891.41414     -1716.6943      101.76207    
    823000  -163.43767      229.85246     -393.29013      280.40268      5625.5441      1.0177122      4455.7805     -146.62719     -4.6924513     -679.29948     -891.48047     -1717.4071      101.12801    
    824000  -144.27779      249.88525     -394.16304      304.84117     -428.30575      1.0177122      4455.7805     -143.69585     -4.6924513     -678.12385     -891.36675     -1713.1864      98.03372     
    825000  -116.36751      258.80067     -375.16818      315.71731      778.04392      1.0177122      4455.7805     -146.91292     -4.6924513     -679.46758     -891.46038     -1717.8409      115.72688    
    826000  -181.92462      235.04704     -416.97166      286.73968      1589.1662      1.0177122      4455.7805     -145.73925     -4.6924513     -683.06087     -891.43287     -1720.233       103.01704    
    827000  -157.9287       244.74203     -402.67073      298.56683      4432.772       1.0177122      4455.7805     -147.47867     -4.6924513     -682.36526     -891.56578     -1721.4097      125.51395    
    828000  -147.36203      258.61322     -405.97524      315.48864      492.58207      1.0177122      4455.7805     -152.59725     -4.6924513     -683.77363     -891.59978     -1727.9707      102.38049    
    829000  -169.96884      228.15207     -398.12091      278.32834      213.67742      1.0177122      4455.7805     -155.88291     -4.6924513     -678.79298     -891.40537     -1726.0813      100.42849    
    830000  -121.86796      257.82963     -379.69758      314.53271      3623.0184      1.0177122      4455.7805     -144.17905     -4.6924513     -681.19992     -891.56345     -1716.9424      118.26812    
    831000  -128.47975      261.92308     -390.40283      319.52642      3142.2085      1.0177122      4455.7805     -147.80206     -4.6924513     -680.34971     -891.60594     -1719.7577      111.23403    
    832000  -125.47568      243.73919     -369.21486      297.34344      1555.9002      1.0177122      4455.7805     -133.79069     -4.6924513     -681.98841     -891.54609     -1707.3252      130.40871    
    833000  -154.71433      222.59992     -377.31425      271.55513      821.51537      1.0177122      4455.7805     -148.87826     -4.6924513     -675.70208     -891.53337     -1716.1137      101.79476    
    834000  -131.48874      246.65837     -378.14711      300.90463      6390.7481      1.0177122      4455.7805     -145.87762     -4.6924513     -681.37124     -891.34573     -1718.5946      118.06404    
    835000  -146.56428      253.71827     -400.28255      309.51717     -325.82355      1.0177122      4455.7805     -141.6812      -4.6924513     -679.24511     -891.44311     -1712.3694      99.173659    
    836000  -151.98177      249.9231      -401.90488      304.88735      5164.7294      1.0177122      4455.7805     -138.83752     -4.6924513     -682.64729     -891.64926     -1713.1341      109.3393     
    837000  -161.62979      227.69645     -389.32624      277.77251      7096.6066      1.0177122      4455.7805     -147.4828      -4.6924513     -678.4021      -891.43431     -1717.3192      106.72754    
    838000  -158.59672      230.63788     -389.2346       281.36084      2245.2188      1.0177122      4455.7805     -149.67843     -4.6924513     -679.64107     -891.4385      -1720.758       97.563479    
    839000  -137.97567      265.66811     -403.64378      324.09507      3124.9004      1.0177122      4455.7805     -139.94371     -4.6924513     -681.1545      -891.53019     -1712.6284      100.60355    
    840000  -119.51473      275.42497     -394.9397       335.99771     -401.9661       1.0177122      4455.7805     -145.42871     -4.6924513     -678.04981     -891.24147     -1714.72        85.858497    
    841000  -167.57071      240.378       -407.94872      293.24305     -2693.8347      1.0177122      4455.7805     -143.37477     -4.6924513     -679.54312     -891.48582     -1714.4037      62.112167    
    842000  -132.55733      243.88776     -376.4451       297.52469     -965.56049      1.0177122      4455.7805     -145.00514     -4.6924513     -680.81852     -891.45714     -1717.2808      70.906157    
    843000  -165.21002      252.17256     -417.38259      307.63152      3577.3007      1.0177122      4455.7805     -141.49199     -4.6924513     -678.86907     -891.67867     -1712.0397      55.526771    
    844000  -130.30129      266.74213     -397.04341      325.40529      116.86546      1.0177122      4455.7805     -142.7097      -4.6924513     -680.54631     -891.60326     -1714.8593      47.953233    
    845000  -135.60397      254.99776     -390.60174      311.07806      991.87515      1.0177122      4455.7805     -149.75968     -4.6924513     -678.14682     -891.45573     -1719.3622      60.891709    
    846000  -131.78415      265.68188     -397.46603      324.11188      1969.6318      1.0177122      4455.7805     -153.05941     -4.6924513     -683.03676     -891.44268     -1727.5388      64.974428    
    847000  -165.76947      242.43144     -408.20091      295.74809      4284.2615      1.0177122      4455.7805     -150.14312     -4.6924513     -678.99921     -891.48591     -1720.6282      56.454191    
    848000  -150.78445      253.11011     -403.89456      308.77526      1422.8132      1.0177122      4455.7805     -150.1497      -4.6924513     -680.50219     -891.58072     -1722.2326      62.663827    
    849000  -111.43553      255.73014     -367.16567      311.9715       561.97687      1.0177122      4455.7805     -149.35975     -4.6924513     -682.48007     -891.54662     -1723.3864      63.336491    
    850000  -156.7106       241.96664     -398.67724      295.18107      2289.4701      1.0177122      4455.7805     -143.72631     -4.6924513     -681.51666     -891.45236     -1716.6953      55.141316    
    851000  -131.11345      252.11695     -383.2304       307.56368      4261.8695      1.0177122      4455.7805     -144.88013     -4.6924513     -681.72755     -891.45303     -1718.0607      56.083318    
    852000  -153.78199      246.9001      -400.68209      301.19952      801.51032      1.0177122      4455.7805     -151.335       -4.6924513     -680.04152     -891.53275     -1722.9093      49.048223    
    853000  -130.14703      273.33379     -403.48082      333.44663      2324.9089      1.0177122      4455.7805     -143.34283     -4.6924513     -677.90906     -891.4364      -1712.6883      50.549204    
    854000  -131.62427      255.87815     -387.50242      312.15206      4808.8119      1.0177122      4455.7805     -130.24152     -4.6924513     -682.81659     -891.54644     -1704.6046      67.108579    
    855000  -164.02906      229.05419     -393.08325      279.42885      5963.9187      1.0177122      4455.7805     -149.10863     -4.6924513     -682.03983     -891.49879     -1722.6473      63.794865    
    856000  -136.58764      231.53904     -368.12668      282.46019     -2241.9664      1.0177122      4455.7805     -141.41551     -4.6924513     -681.76751     -891.62315     -1714.8062      65.888604    
    857000  -147.77796      259.57584     -407.3538       316.66297     -1695.334       1.0177122      4455.7805     -154.54035     -4.6924513     -680.6071      -891.39507     -1726.5425      55.571627    
    858000  -149.44345      246.47672     -395.92017      300.68302      196.17282      1.0177122      4455.7805     -145.88446     -4.6924513     -681.73951     -891.49712     -1719.1211      40.558577    
    859000  -101.45918      258.63821     -360.09739      315.51912      1242.069       1.0177122      4455.7805     -142.94379     -4.6924513     -680.68533     -891.40174     -1715.0308      70.587697    
    860000  -150.46703      267.39171     -417.85874      326.19774      4981.6953      1.0177122      4455.7805     -142.79768     -4.6924513     -679.96012     -891.50578     -1714.2636      53.027392    
    861000  -138.14967      254.60891     -392.75858      310.60368      3128.6919      1.0177122      4455.7805     -142.56659     -4.6924513     -680.56394     -891.51072     -1714.6413      63.516453    
    862000  -141.06037      260.85505     -401.91542      318.2235      -57.14938       1.0177122      4455.7805     -149.86384     -4.6924513     -680.05492     -891.38547     -1721.3042      62.265876    
    863000  -154.84535      235.74652     -390.59187      287.59299      1245.4827      1.0177122      4455.7805     -145.4993      -4.6924513     -682.57549     -891.49968     -1719.5745      48.519079    
    864000  -145.01044      262.01937     -407.02981      319.64388      1037.4561      1.0177122      4455.7805     -152.52693     -4.6924513     -680.83817     -891.4639      -1724.829       57.923475    
    865000  -128.07061      263.45715     -391.52776      321.39787      424.28776      1.0177122      4455.7805     -141.62441     -4.6924513     -679.95332     -891.41354     -1712.9913      65.166296    
    866000  -116.23329      253.82488     -370.05816      309.64722      412.26677      1.0177122      4455.7805     -142.13228     -4.6924513     -683.33452     -891.36052     -1716.8273      54.59512     
    867000  -143.42303      256.87153     -400.29456      313.36391     -2728.431       1.0177122      4455.7805     -146.8647      -4.6924513     -678.09325     -891.40485     -1716.3628      71.514083    
    868000  -132.49269      252.51246     -385.00515      308.04617     -4028.1108      1.0177122      4455.7805     -147.00594     -4.6924513     -679.33215     -891.5638      -1717.9019      74.251264    
    869000  -149.51338      252.72488     -402.23826      308.3053       4616.6942      1.0177122      4455.7805     -142.86136     -4.6924513     -678.67811     -891.60616     -1713.1456      61.095296    
    870000  -163.45044      242.84822     -406.29865      296.25652     -5144.0279      1.0177122      4455.7805     -147.33016     -4.6924513     -681.17441     -891.34122     -1719.8458      58.652008    
    871000  -181.23246      232.66522     -413.89767      283.83403     -2781.4167      1.0177122      4455.7805     -152.22051     -4.6924513     -677.76278     -891.49917     -1721.4825      55.598793    
    872000  -132.69004      262.45045     -395.14049      320.16978      3608.2565      1.0177122      4455.7805     -147.06597     -4.6924513     -680.21824     -891.48402     -1718.7682      60.887065    
    873000  -167.64445      250.53745     -418.1819       305.63681      1166.4067      1.0177122      4455.7805     -149.78187     -4.6924513     -679.67696     -891.34309     -1720.8019      53.746987    
    874000  -139.45768      235.28715     -374.74483      287.03259     -2547.4675      1.0177122      4455.7805     -141.3313      -4.6924513     -683.81044     -891.52376     -1716.6655      77.692466    
    875000  -164.60928      237.81994     -402.42922      290.1224       457.2615       1.0177122      4455.7805     -137.50495     -4.6924513     -683.86068     -891.45347     -1712.8191      58.620223    
    876000  -156.97404      253.37616     -410.3502       309.09982      16.396268      1.0177122      4455.7805     -149.02028     -4.6924513     -677.24863     -891.27524     -1717.5441      66.534104    
    877000  -163.79652      256.33055     -420.12707      312.70396     -1460.4152      1.0177122      4455.7805     -150.08789     -4.6924513     -678.71502     -891.53097     -1720.3339      67.272013    
    878000  -167.42448      231.46074     -398.88522      282.36466     -262.92078      1.0177122      4455.7805     -147.4382      -4.6924513     -676.55977     -891.48625     -1715.4842      53.581177    
    879000  -157.92849      239.3893      -397.31779      292.03691      3610.5894      1.0177122      4455.7805     -156.09987     -4.6924513     -682.37645     -891.5839      -1730.0602      60.68485     
    880000  -141.40772      236.48213     -377.88985      288.49037     -4053.8969      1.0177122      4455.7805     -144.55762     -4.6924513     -680.01255     -891.58326     -1716.1534      63.52888     
    881000  -123.16419      271.4547      -394.61889      331.15428     -13.273596      1.0177122      4455.7805     -153.90906     -4.6924513     -679.63021     -891.44072     -1724.98        59.066788    
    882000  -124.26694      252.70304     -376.96998      308.27866      3775.841       1.0177122      4455.7805     -147.74932     -4.6924513     -680.9181      -891.46947     -1720.1369      61.534398    
    883000  -139.09956      250.13368     -389.23324      305.14424      3069.703       1.0177122      4455.7805     -142.9472      -4.6924513     -679.66776     -891.36993     -1713.9849      63.117953    
    884000  -150.45983      251.5727      -402.03253      306.89974      2964.5468      1.0177122      4455.7805     -145.82066     -4.6924513     -683.51507     -891.66063     -1720.9964      54.926944    
    885000  -166.02106      247.74435     -413.76541      302.22944     -329.91919      1.0177122      4455.7805     -150.44149     -4.6924513     -678.41875     -891.58638     -1720.4466      46.991147    
    886000  -134.18548      259.45162     -393.63709      316.51142      390.02076      1.0177122      4455.7805     -146.44237     -4.6924513     -679.4034      -891.21737     -1717.0631      60.077597    
    887000  -148.77981      238.66835     -387.44816      291.15741      3238.841       1.0177122      4455.7805     -151.79414     -4.6924513     -680.16392     -891.42788     -1723.3859      64.827034    
    888000  -155.91649      230.27394     -386.19043      280.91685      1915.4429      1.0177122      4455.7805     -149.42939     -4.6924513     -680.43793     -891.57017     -1721.4375      54.273069    
    889000  -150.22872      253.60745     -403.83617      309.38197      4976.6828      1.0177122      4455.7805     -143.27854     -4.6924513     -682.65185     -891.53252     -1717.4629      47.149226    
    890000  -190.10563      230.91477     -421.0204       281.69862     -853.89487      1.0177122      4455.7805     -142.44518     -4.6924513     -680.6358      -891.45767     -1714.5386      54.370316    
    891000  -180.28463      235.30929     -415.59392      287.0596       3825.8799      1.0177122      4455.7805     -150.21481     -4.6924513     -680.40401     -891.35812     -1721.9769      49.091067    
    892000  -135.09804      254.14364     -389.24169      310.03609      4082.8656      1.0177122      4455.7805     -141.42428     -4.6924513     -680.21075     -891.57241     -1713.2074      61.826166    
    893000  -180.82319      227.71522     -408.53841      277.79541      1602.3275      1.0177122      4455.7805     -140.70617     -4.6924513     -680.53512     -891.6287      -1712.87        63.820251    
    894000  -148.96468      260.25045     -409.21513      317.48593      1423.8707      1.0177122      4455.7805     -138.18402     -4.6924513     -682.2278      -891.45118     -1711.863       52.355757    
    895000  -159.09282      251.17095     -410.26377      306.40963      2236.5489      1.0177122      4455.7805     -147.52011     -4.6924513     -675.77678     -891.64296     -1714.9399      51.627046    
    896000  -154.61676      252.19649     -406.81325      307.66071      694.2758       1.0177122      4455.7805     -144.36705     -4.6924513     -679.63637     -891.36747     -1715.3709      57.897136    
    897000  -146.51433      248.15658     -394.67091      302.73233      3271.263       1.0177122      4455.7805     -148.10167     -4.6924513     -683.99403     -891.41391     -1723.5096      57.914339    
    898000  -149.58529      239.39088     -388.97618      292.03884      1193.5683      1.0177122      4455.7805     -139.02052     -4.6924513     -682.57126     -891.41496     -1713.0067      57.888726    
    899000  -136.98669      273.0346      -410.02128      333.08163      4232.0519      1.0177122      4455.7805     -143.79159     -4.6924513     -680.91231     -891.41515     -1716.1191      59.487686    
    900000  -172.50221      220.65605     -393.15825      269.18375     -3586.5461      1.0177122      4455.7805     -146.88928     -4.6924513     -681.42735     -891.59663     -1719.9132      45.787578    
    901000  -107.28726      279.92381     -387.21107      341.48595      2467.6296      1.0177122      4455.7805     -135.28283     -4.6924513     -682.54533     -891.4731      -1709.3013      65.183882    
    902000  -135.91831      255.56915     -391.48747      311.77511      3334.2202      1.0177122      4455.7805     -148.43666     -4.6924513     -681.3687      -891.47622     -1721.2816      52.023815    
    903000  -144.94259      256.16982     -401.11242      312.50788      110.24554      1.0177122      4455.7805     -149.22403     -4.6924513     -677.50408     -891.47723     -1718.2053      58.145431    
    904000  -122.23295      265.66227     -387.89522      324.08795     -61.105711      1.0177122      4455.7805     -140.12013     -4.6924513     -680.52037     -891.59515     -1712.2356      52.121224    
    905000  -137.61022      264.50485     -402.11506      322.67598      5641.0936      1.0177122      4455.7805     -142.07293     -4.6924513     -683.83535     -891.62271     -1717.531       54.966331    
    906000  -131.0022       257.70496     -388.70716      314.38063      5434.0691      1.0177122      4455.7805     -144.93756     -4.6924513     -682.36743     -891.61136     -1718.9164      47.599604    
    907000  -184.00261      222.8326      -406.83521      271.83898      154.85527      1.0177122      4455.7805     -138.41455     -4.6924513     -681.78703     -891.59535     -1711.7969      50.920623    
    908000  -163.41471      235.38423     -398.79894      287.15102     -563.6221       1.0177122      4455.7805     -156.11856     -4.6924513     -681.03331     -891.46651     -1728.6184      48.752913    
    909000  -130.19684      251.74047     -381.93731      307.10441      1096.4429      1.0177122      4455.7805     -138.53884     -4.6924513     -679.64369     -891.62028     -1709.8028      42.75745     
    910000  -146.2274       246.71681     -392.94421      300.97592      1602.2168      1.0177122      4455.7805     -148.38691     -4.6924513     -685.63113     -891.58254     -1725.6006      43.4119      
    911000  -150.31323      248.222       -398.53524      302.81214      98.544353      1.0177122      4455.7805     -154.94731     -4.6924513     -677.56049     -891.31944     -1723.8272      35.812012    
    912000  -150.09421      246.90578     -396.99999      301.20645      4046.6568      1.0177122      4455.7805     -145.80443     -4.6924513     -681.19427     -891.49067     -1718.4894      45.113892    
    913000  -149.6197       253.94191     -403.56161      309.79         3187.2747      1.0177122      4455.7805     -144.07984     -4.6924513     -682.15713     -891.52171     -1717.7587      47.844615    
    914000  -152.75014      239.86503     -392.61518      292.61726      2451.1746      1.0177122      4455.7805     -154.97099     -4.6924513     -678.71356     -891.35773     -1725.0423      58.668919    
    915000  -154.33211      253.52723     -407.85934      309.28411     -859.33615      1.0177122      4455.7805     -156.30012     -4.6924513     -681.49749     -891.48784     -1729.2855      38.222594    
    916000  -162.15159      243.36983     -405.52142      296.89285     -135.28584      1.0177122      4455.7805     -139.96765     -4.6924513     -681.63818     -891.49687     -1713.1027      53.196107    
    917000  -169.67853      245.21041     -414.88895      299.13822      3265.4802      1.0177122      4455.7805     -145.66295     -4.6924513     -685.30704     -891.38188     -1722.3519      53.563464    
    918000  -160.55394      248.88083     -409.43477      303.61585      287.12437      1.0177122      4455.7805     -147.85309     -4.6924513     -680.26067     -891.48437     -1719.5981      45.930967    
    919000  -160.88496      235.41971     -396.30466      287.1943      -2193.0004      1.0177122      4455.7805     -149.41938     -4.6924513     -678.04651     -891.41097     -1718.8769      52.664533    
    920000  -170.81773      228.94812     -399.76585      279.29946     -538.07801      1.0177122      4455.7805     -142.713       -4.6924513     -679.9472      -891.47112     -1714.1313      49.001602    
    921000  -139.85491      247.42645     -387.28137      301.84163      2377.5804      1.0177122      4455.7805     -143.10294     -4.6924513     -680.53171     -891.4504      -1715.0851      52.852279    
    922000  -167.27448      246.18474     -413.45922      300.32683      5375.4034      1.0177122      4455.7805     -139.56242     -4.6924513     -681.61432     -891.51839     -1712.6951      46.759298    
    923000  -135.99728      244.22495     -380.22223      297.93604      1277.034       1.0177122      4455.7805     -145.77851     -4.6924513     -681.12965     -891.38848     -1718.2966      53.763062    
    924000  -139.41388      255.42402     -394.8379       311.59805     -1530.42        1.0177122      4455.7805     -142.23259     -4.6924513     -678.51952     -891.42218     -1712.1743      44.691536    
    925000  -161.94495      260.34205     -422.287        317.59768     -885.7104       1.0177122      4455.7805     -144.92037     -4.6924513     -678.51864     -891.54522     -1714.9842      49.870432    
    926000  -151.68409      264.11163     -415.79573      322.19629      3423.0599      1.0177122      4455.7805     -142.80011     -4.6924513     -679.5122      -891.56602     -1713.8783      48.679891    
    927000  -150.58564      248.96483     -399.55048      303.71833     -2681.5647      1.0177122      4455.7805     -148.75173     -4.6924513     -679.5379      -891.51076     -1719.8004      50.067769    
    928000  -152.84284      241.27832     -394.12116      294.34137      1969.7056      1.0177122      4455.7805     -139.76781     -4.6924513     -680.76399     -891.65173     -1712.1835      45.280379    
    929000  -130.26461      260.12463     -390.38924      317.33245      4579.2178      1.0177122      4455.7805     -150.77389     -4.6924513     -683.33908     -891.49729     -1725.6103      44.565684    
    930000  -158.6178       248.79904     -407.41684      303.51608     -1423.6842      1.0177122      4455.7805     -147.1205      -4.6924513     -681.95239     -891.53726     -1720.6102      42.641075    
    931000  -128.12772      267.7959      -395.92363      326.69082     -3784.071       1.0177122      4455.7805     -146.02846     -4.6924513     -678.20023     -891.5091      -1715.7378      43.420231    
    932000  -140.32927      262.16107     -402.49034      319.81675      5497.5201      1.0177122      4455.7805     -150.48708     -4.6924513     -683.98306     -891.54882     -1726.019       45.679206    
    933000  -130.65659      265.32561     -395.98219      323.67724      1065.4168      1.0177122      4455.7805     -140.99425     -4.6924513     -680.57303     -891.54891     -1713.1162      53.58666     
    934000  -179.41678      240.02951     -419.44629      292.81791      1447.5974      1.0177122      4455.7805     -146.9351      -4.6924513     -680.63613     -891.33144     -1718.9027      45.337293    
    935000  -169.21757      235.99346     -405.21103      287.89424      1142.561       1.0177122      4455.7805     -135.95156     -4.6924513     -683.07648     -891.53927     -1710.5673      48.329866    
    936000  -151.44894      253.43913     -404.88807      309.17664     -361.23462      1.0177122      4455.7805     -144.62339     -4.6924513     -679.37282     -891.495       -1715.4912      44.553279    
    937000  -146.80999      259.13883     -405.94883      316.12985      310.22018      1.0177122      4455.7805     -139.98939     -4.6924513     -681.84297     -891.60004     -1713.4324      44.810684    
    938000  -153.30542      262.51193     -415.81735      320.24478      1447.4539      1.0177122      4455.7805     -150.61197     -4.6924513     -680.09743     -891.53614     -1722.2455      49.224763    
    939000  -148.12426      232.81854     -380.9428       284.02108     -152.1306       1.0177122      4455.7805     -147.39479     -4.6924513     -681.48871     -891.46858     -1720.3521      43.849781    
    940000  -155.25093      254.14386     -409.3948       310.03636      307.90538      1.0177122      4455.7805     -138.03562     -4.6924513     -680.08026     -891.56372     -1709.6796      53.936342    
    941000  -146.8353       243.82683     -390.66214      297.45036      4140.4763      1.0177122      4455.7805     -142.79094     -4.6924513     -683.83621     -891.6245      -1718.2516      55.131614    
    942000  -166.78344      232.36578     -399.14922      283.46874      1583.5151      1.0177122      4455.7805     -146.4306      -4.6924513     -679.70926     -891.61656     -1717.7564      61.55465     
    943000  -163.80699      238.31955     -402.12654      290.73189      5146.1767      1.0177122      4455.7805     -142.77923     -4.6924513     -685.17583     -891.51865     -1719.4737      45.163177    
    944000  -157.34266      239.70376     -397.04643      292.42053      3736.0914      1.0177122      4455.7805     -144.99987     -4.6924513     -680.26968     -891.56902     -1716.8386      48.318029    
    945000  -121.0065       264.77187     -385.77836      323.00173     -1652.7419      1.0177122      4455.7805     -145.93889     -4.6924513     -678.5012      -891.4315      -1715.8716      42.606927    
    946000  -143.4849       260.07923     -403.56414      317.27706      1722.2253      1.0177122      4455.7805     -146.99262     -4.6924513     -679.89392     -891.50024     -1718.3868      55.760273    
    947000  -114.01845      261.56034     -375.57879      319.08391      471.35734      1.0177122      4455.7805     -150.72688     -4.6924513     -681.1592      -891.42039     -1723.3065      47.574746    
    948000  -153.70475      228.22082     -381.92557      278.4122       2405.7003      1.0177122      4455.7805     -146.68881     -4.6924513     -678.7767      -891.45974     -1716.9252      52.4008      
    949000  -129.54325      242.89713     -372.44038      296.31619      830.01833      1.0177122      4455.7805     -141.3505      -4.6924513     -681.00404     -891.52823     -1713.8828      49.141464    
    950000  -167.0365       234.28637     -401.32287      285.81172     -4177.8111      1.0177122      4455.7805     -143.92473     -4.6924513     -678.7129      -891.60303     -1714.2407      44.785999    
    951000  -151.06113      252.81342     -403.87455      308.41332      2273.0476      1.0177122      4455.7805     -147.2567      -4.6924513     -677.34868     -891.2985      -1715.9039      47.123331    
    952000  -135.44752      273.89183     -409.33935      334.12739      1607.9401      1.0177122      4455.7805     -150.66303     -4.6924513     -676.674       -891.35085     -1718.6879      50.160909    
    953000  -145.46735      261.5042      -406.97155      319.01542      1373.9035      1.0177122      4455.7805     -144.39856     -4.6924513     -680.37074     -891.58293     -1716.3522      51.952085    
    954000  -133.74891      272.46229     -406.2112       332.38346      1513.9217      1.0177122      4455.7805     -148.28355     -4.6924513     -678.96609     -891.41668     -1718.6663      48.583304    
    955000  -160.11957      260.36469     -420.48425      317.6253       3455.4018      1.0177122      4455.7805     -144.91279     -4.6924513     -681.0232      -891.40047     -1717.3365      44.966958    
    956000  -162.68383      248.33153     -411.01536      302.94575     -1630.4237      1.0177122      4455.7805     -147.58605     -4.6924513     -680.33887     -891.66356     -1719.5885      42.089699    
    957000  -163.7996       243.10715     -406.90675      296.5724       4964.1176      1.0177122      4455.7805     -141.98366     -4.6924513     -683.89197     -891.56245     -1717.4381      44.991598    
    958000  -146.78639      255.15025     -401.93663      311.26407      2185.0918      1.0177122      4455.7805     -138.5422      -4.6924513     -680.94705     -891.53431     -1711.0236      44.41849     
    959000  -163.14224      240.19799     -403.34023      293.02344     -315.23905      1.0177122      4455.7805     -144.85012     -4.6924513     -681.71031     -891.49716     -1718.0576      47.957706    
    960000  -145.3199       255.32542     -400.64532      311.47777      3571.4673      1.0177122      4455.7805     -147.46437     -4.6924513     -679.16017     -891.44863     -1718.0732      47.678077    
    961000  -136.47437      253.44432     -389.91869      309.18297      590.41753      1.0177122      4455.7805     -147.05747     -4.6924513     -679.45548     -891.49429     -1718.0072      41.181541    
    962000  -144.34717      248.45604     -392.80322      303.09765      2243.5664      1.0177122      4455.7805     -146.15151     -4.6924513     -681.44849     -891.43598     -1719.036       46.410453    
    963000  -182.4566       242.32662     -424.78322      295.62021     -2236.1447      1.0177122      4455.7805     -150.29801     -4.6924513     -680.60535     -891.60576     -1722.5091      40.533531    
    964000  -175.09017      245.8376      -420.92778      299.90335      2709.6899      1.0177122      4455.7805     -148.98143     -4.6924513     -679.55318     -891.55801     -1720.0926      42.385235    
    965000  -122.88421      270.70984     -393.59405      330.2456      -830.09888      1.0177122      4455.7805     -151.22486     -4.6924513     -682.97531     -891.37906     -1725.5792      37.915091    
    966000  -135.90569      269.2493      -405.15499      328.46385      1412.0616      1.0177122      4455.7805     -151.49932     -4.6924513     -682.84978     -891.59739     -1725.9465      41.399872    
    967000  -135.63772      263.79169     -399.42941      321.80599      990.23482      1.0177122      4455.7805     -146.70745     -4.6924513     -678.48916     -891.4588      -1716.6554      40.008293    
    968000  -161.39233      259.23252     -420.62484      316.24414      3176.8109      1.0177122      4455.7805     -143.57475     -4.6924513     -684.79504     -891.53276     -1719.9025      52.748761    
    969000  -145.30459      260.78156     -406.08615      318.13386      1100.7575      1.0177122      4455.7805     -145.5908      -4.6924513     -681.77392     -891.47901     -1718.8437      44.593514    
    970000  -188.73374      224.56973     -413.30347      273.95815     -2987.1649      1.0177122      4455.7805     -143.61645     -4.6924513     -681.63682     -891.54016     -1716.7934      39.009337    
    971000  -156.4123       248.24259     -404.65489      302.83725      856.6912       1.0177122      4455.7805     -144.56495     -4.6924513     -679.62606     -891.60622     -1715.7972      39.795193    
    972000  -149.35946      254.36827     -403.72772      310.31012     -2523.2687      1.0177122      4455.7805     -152.46236     -4.6924513     -679.62549     -891.46469     -1723.5525      42.883452    
    973000  -151.96276      256.68703     -408.6498       313.13884      3803.3039      1.0177122      4455.7805     -145.50739     -4.6924513     -678.78884     -891.48223     -1715.7785      42.082541    
    974000  -150.40262      242.58369     -392.9863       295.93382      1459.0902      1.0177122      4455.7805     -147.03033     -4.6924513     -682.42223     -891.5143      -1720.9669      44.641168    
    975000  -144.50742      258.50464     -403.01206      315.35618      6107.7465      1.0177122      4455.7805     -144.6742      -4.6924513     -682.11801     -891.51644     -1718.3086      48.505349    
    976000  -130.92963      260.7837      -391.71332      318.13646      434.69833      1.0177122      4455.7805     -154.39944     -4.6924513     -680.76098     -891.38715     -1726.5476      38.813145    
    977000  -138.09005      262.68339     -400.77344      320.45394     -4040.2343      1.0177122      4455.7805     -144.60712     -4.6924513     -678.49075     -891.43246     -1714.5303      40.704447    
    978000  -167.6969       248.56705     -416.26395      303.23307      6360.8543      1.0177122      4455.7805     -149.58005     -4.6924513     -681.09969     -891.40624     -1722.086       37.183958    
    979000  -153.68329      260.65425     -414.33754      317.97854     -2035.1217      1.0177122      4455.7805     -155.25488     -4.6924513     -680.18641     -891.49177     -1726.9331      47.389218    
    980000  -168.19231      240.51914     -408.71145      293.41523     -922.6826       1.0177122      4455.7805     -147.01913     -4.6924513     -678.14793     -891.46986     -1716.6369      37.95871     
    981000  -147.63535      259.26867     -406.90402      316.28824      1018.7827      1.0177122      4455.7805     -153.14626     -4.6924513     -682.5106      -891.56059     -1727.2175      38.129388    
    982000  -135.38634      275.95213     -411.33846      336.6408       267.29527      1.0177122      4455.7805     -149.2744      -4.6924513     -678.93936     -891.44127     -1719.655       34.125462    
    983000  -159.43701      253.23617     -412.67318      308.92905      3896.5653      1.0177122      4455.7805     -144.47554     -4.6924513     -677.66371     -891.45757     -1713.5968      45.759976    
    984000  -159.80278      242.4842      -402.28698      295.81245      750.71582      1.0177122      4455.7805     -144.0891      -4.6924513     -683.33752     -891.42153     -1718.8482      40.525198    
    985000  -167.14822      231.81317     -398.96139      282.7946      -956.25176      1.0177122      4455.7805     -147.192       -4.6924513     -680.45718     -891.3171      -1718.9663      39.764914    
    986000  -155.82649      237.6289      -393.45539      289.88935     -3396.2502      1.0177122      4455.7805     -149.47349     -4.6924513     -679.32255     -891.36906     -1720.1651      40.533159    
    987000  -157.35658      244.25306     -401.60965      297.97033      1689.1805      1.0177122      4455.7805     -144.20479     -4.6924513     -682.60838     -891.5648      -1718.378       41.321022    
    988000  -148.46359      260.06391     -408.5275       317.25837     -2617.8463      1.0177122      4455.7805     -144.06187     -4.6924513     -679.56758     -891.48062     -1715.1101      48.05471     
    989000  -152.54051      243.43745     -395.97797      296.97535      4114.9968      1.0177122      4455.7805     -149.68178     -4.6924513     -682.64424     -891.43859     -1723.7646      45.064817    
    990000  -171.63294      241.97503     -413.60796      295.1913       3018.4926      1.0177122      4455.7805     -152.47977     -4.6924513     -676.36261     -891.37383     -1720.2162      35.57723     
    991000  -127.57239      267.09582     -394.66821      325.83677      4225.8391      1.0177122      4455.7805     -147.79727     -4.6924513     -685.52727     -891.3803      -1724.7048      41.647117    
    992000  -145.81547      254.12156     -399.93703      310.00916      3131.9322      1.0177122      4455.7805     -140.57598     -4.6924513     -678.14908     -891.57941     -1710.3045      41.638754    
    993000  -150.47734      270.8262      -421.30354      330.38755     -101.82592      1.0177122      4455.7805     -146.7997      -4.6924513     -682.76722     -891.4862      -1721.0531      37.19197     
    994000  -174.74924      240.19236     -414.9416       293.01658      2730.8742      1.0177122      4455.7805     -145.88288     -4.6924513     -677.68625     -891.36567     -1714.9348      43.237676    
    995000  -157.13822      252.46089     -409.59912      307.98326      5045.3457      1.0177122      4455.7805     -151.41724     -4.6924513     -682.63767     -891.51943     -1725.5743      38.433342    
    996000  -139.03441      264.6092      -403.64361      322.80329      818.88563      1.0177122      4455.7805     -145.42479     -4.6924513     -677.79759     -891.47234     -1714.6947      44.546623    
    997000  -167.04663      244.81075     -411.85738      298.65067      1558.214       1.0177122      4455.7805     -149.41082     -4.6924513     -678.53969     -891.49993     -1719.4504      42.115574    
    998000  -132.39266      257.62713     -390.01978      314.28568     -1120.9712      1.0177122      4455.7805     -156.14367     -4.6924513     -681.51782     -891.4425      -1729.104       37.709753    
    999000  -143.69285      256.27621     -399.96906      312.63767     -71.694728      1.0177122      4455.7805     -144.44195     -4.6924513     -679.89757     -891.65976     -1715.9993      41.525424    
   1000000  -176.6054       238.54593     -415.15133      291.00806     -2801.3718      1.0177122      4455.7805     -152.20865     -4.6924513     -678.75549     -891.53483     -1722.499       44.125708    
   1001000  -173.71903      244.94733     -418.66636      298.81729      610.72545      1.0177122      4455.7805     -145.56595     -4.6924513     -681.24215     -891.48072     -1718.2888      37.387003    
   1002000  -160.93452      249.29205     -410.22657      304.11752     -482.06324      1.0177122      4455.7805     -145.94061     -4.6924513     -680.75567     -891.57868     -1718.275       46.803319    
   1003000  -155.07905      243.46305     -398.5421       297.00657      1163.5692      1.0177122      4455.7805     -151.23453     -4.6924513     -679.64228     -891.52486     -1722.4017      48.209848    
   1004000  -156.4434       249.68565     -406.12905      304.59767      3186.9093      1.0177122      4455.7805     -138.54007     -4.6924513     -683.29765     -891.52055     -1713.3583      41.760505    
   1005000  -176.15086      248.86201     -425.01287      303.5929       2400.1788      1.0177122      4455.7805     -153.79372     -4.6924513     -683.18886     -891.46573     -1728.4483      40.944244    
   1006000  -159.31686      257.85743     -417.17429      314.56663      1703.4188      1.0177122      4455.7805     -143.47788     -4.6924513     -678.69066     -891.57282     -1713.7414      39.911346    
   1007000  -135.88076      267.84678     -403.72754      326.75289      2344.1963      1.0177122      4455.7805     -150.85645     -4.6924513     -681.50672     -891.37549     -1723.7387      43.333669    
   1008000  -140.76612      263.80216     -404.56828      321.81875      823.34398      1.0177122      4455.7805     -154.23933     -4.6924513     -678.17239     -891.49104     -1723.9028      39.207443    
   1009000  -139.0204       252.1075      -391.1279       307.55215      912.53585      1.0177122      4455.7805     -152.45867     -4.6924513     -681.40464     -891.53087     -1725.3942      42.458099    
   1010000  -136.53744      263.78245     -400.31989      321.79471      797.42051      1.0177122      4455.7805     -155.22812     -4.6924513     -679.26291     -891.38608     -1725.8771      35.83048     
   1011000  -152.88357      257.70709     -410.59066      314.38322      1550.2919      1.0177122      4455.7805     -146.26183     -4.6924513     -678.52432     -891.54985     -1716.336       46.253841    
   1012000  -141.94875      251.06872     -393.01747      306.28492      4001.2914      1.0177122      4455.7805     -152.8833      -4.6924513     -679.30139     -891.63511     -1723.8198      40.15345     
   1013000  -171.74509      237.23564     -408.98072      289.4096       312.62563      1.0177122      4455.7805     -155.5814      -4.6924513     -678.92396     -891.54254     -1726.0479      36.967809    
   1014000  -163.77314      230.74807     -394.52121      281.49526     -2566.8313      1.0177122      4455.7805     -145.35198     -4.6924513     -681.29494     -891.51107     -1718.158       52.489343    
   1015000  -139.76408      274.87902     -414.6431       335.33169     -4771.8763      1.0177122      4455.7805     -154.21604     -4.6924513     -681.57924     -891.49803     -1727.2933      36.175671    
   1016000  -123.56768      264.9791      -388.54679      323.25454     -86.939919      1.0177122      4455.7805     -139.7753      -4.6924513     -683.2563      -891.5498      -1714.5814      45.40822     
   1017000  -166.34992      245.74821     -412.09814      299.7943       3502.4552      1.0177122      4455.7805     -154.1688      -4.6924513     -680.10255     -891.4717      -1725.7431      43.106411    
   1018000  -152.31037      251.48441     -403.79478      306.79203      1820.1207      1.0177122      4455.7805     -150.11987     -4.6924513     -681.91562     -891.50924     -1723.5447      32.867866    
   1019000  -171.42117      243.46037     -414.88154      297.0033       6096.5778      1.0177122      4455.7805     -142.40911     -4.6924513     -680.20018     -891.52969     -1714.139       40.1941      
   1020000  -189.40546      238.06041     -427.46587      290.41576     -1178.2564      1.0177122      4455.7805     -147.64085     -4.6924513     -679.61863     -891.64425     -1718.9037      39.121669    
   1021000  -175.77902      237.03344     -412.81246      289.16294      443.82839      1.0177122      4455.7805     -152.08231     -4.6924513     -680.29036     -891.50797     -1723.8806      36.37687     
   1022000  -152.14894      265.53043     -417.67937      323.92712     -594.13155      1.0177122      4455.7805     -144.99447     -4.6924513     -680.93901     -891.45508     -1717.3886      44.533507    
   1023000  -164.06528      240.07295     -404.13823      292.8709      -1953.8393      1.0177122      4455.7805     -146.12479     -4.6924513     -679.70099     -891.49404     -1717.3198      44.077644    
   1024000  -178.49011      246.49489     -424.985        300.70519      1629.566       1.0177122      4455.7805     -146.44182     -4.6924513     -680.12335     -891.57988     -1718.145       35.855432    
   1025000  -153.21877      232.91598     -386.13474      284.13994      873.47907      1.0177122      4455.7805     -150.32252     -4.6924513     -681.40382     -891.58948     -1723.3158      34.523511    
   1026000  -191.00769      227.93116     -418.93885      278.05884     -2463.29        1.0177122      4455.7805     -156.54794     -4.6924513     -680.22773     -891.46287     -1728.2385      42.511483    
   1027000  -145.60422      259.48316     -405.08737      316.5499       1593.9469      1.0177122      4455.7805     -144.72806     -4.6924513     -681.51549     -891.49053     -1717.7341      37.083856    
   1028000  -154.74963      258.94246     -413.69209      315.89029      808.42483      1.0177122      4455.7805     -149.76682     -4.6924513     -680.25098     -891.55684     -1721.5746      28.745718    
   1029000  -162.5994       249.61684     -412.21624      304.51373      680.59828      1.0177122      4455.7805     -144.48794     -4.6924513     -677.00051     -891.55363     -1713.0421      38.323268    
   1030000  -180.53866      223.11418     -403.65283      272.18248      477.01866      1.0177122      4455.7805     -154.96484     -4.6924513     -681.87688     -891.40035     -1728.2421      31.891341    
   1031000  -147.79978      253.50238     -401.30215      309.2538       4445.2         1.0177122      4455.7805     -148.92014     -4.6924513     -681.24007     -891.62871     -1721.7889      36.112576    
   1032000  -124.98036      264.15146     -389.13183      322.24488      999.7384       1.0177122      4455.7805     -142.52403     -4.6924513     -681.38502     -891.51246     -1715.4215      42.365332    
   1033000  -136.81211      246.44402     -383.25613      300.64313      1129.1093      1.0177122      4455.7805     -147.36868     -4.6924513     -679.2565      -891.40066     -1718.0258      39.412792    
   1034000  -173.53596      249.82816     -423.36413      304.77153      6698.9898      1.0177122      4455.7805     -146.43645     -4.6924513     -687.4152      -891.62578     -1725.4774      33.424837    
   1035000  -157.47308      254.59402     -412.0671       310.58552     -1238.5813      1.0177122      4455.7805     -141.34095     -4.6924513     -680.29931     -891.47745     -1713.1177      36.697545    
   1036000  -157.96455      245.37738     -403.34193      299.34191      3756.7929      1.0177122      4455.7805     -147.89802     -4.6924513     -684.18591     -891.48067     -1723.5646      37.624978    
   1037000  -176.92322      234.58379     -411.50701      286.17454     -122.10179      1.0177122      4455.7805     -149.30514     -4.6924513     -683.31673     -891.56021     -1724.1821      34.10188     
   1038000  -169.7534       230.72097     -400.47437      281.4622       5455.1931      1.0177122      4455.7805     -143.07018     -4.6924513     -683.3115      -891.42907     -1717.8108      34.112796    
   1039000  -142.22196      253.97139     -396.19334      309.82595     -1089.1022      1.0177122      4455.7805     -136.90584     -4.6924513     -681.33612     -891.52345     -1709.7654      38.175995    
   1040000  -138.80549      261.01372     -399.8192       318.41706     -1634.0187      1.0177122      4455.7805     -147.19192     -4.6924513     -680.3641      -891.53875     -1719.0948      31.776647    
   1041000  -182.06618      235.56158     -417.62776      287.36738      6602.5679      1.0177122      4455.7805     -140.97777     -4.6924513     -683.35523     -891.54989     -1715.8829      38.616522    
   1042000  -171.35032      247.94463     -419.29496      302.47377      2288.6088      1.0177122      4455.7805     -144.61803     -4.6924513     -681.7575      -891.57121     -1717.9467      33.281024    
   1043000  -170.44953      248.14175     -418.59128      302.71424     -1078.7583      1.0177122      4455.7805     -144.83969     -4.6924513     -681.06285     -891.45223     -1717.3548      34.273013    
   1044000  -162.9861       250.04618     -413.03228      305.0375       1395.9706      1.0177122      4455.7805     -152.14107     -4.6924513     -683.10903     -891.49515     -1726.7452      42.110122    
   1045000  -163.49823      248.85898     -412.35721      303.58921      2224.8397      1.0177122      4455.7805     -144.6252      -4.6924513     -680.00915     -891.52836     -1716.1627      39.346535    
   1046000  -189.11361      241.84953     -430.96314      295.0382       337.27157      1.0177122      4455.7805     -147.11606     -4.6924513     -683.81998     -891.58447     -1722.5205      38.008721    
   1047000  -122.80192      262.07195     -384.87387      319.70803     -1673.084       1.0177122      4455.7805     -143.52244     -4.6924513     -678.76463     -891.5038      -1713.7909      47.360348    
   1048000  -153.27219      255.23381     -408.506        311.36602      2129.1143      1.0177122      4455.7805     -148.92828     -4.6924513     -679.10051     -891.49815     -1719.5269      39.212576    
   1049000  -163.25295      240.85814     -404.11109      293.82878     -798.96183      1.0177122      4455.7805     -143.19705     -4.6924513     -678.60791     -891.38689     -1713.1919      38.549435    
   1050000  -143.54375      258.06195     -401.6057       314.81613      1745.8559      1.0177122      4455.7805     -146.5766      -4.6924513     -677.8399      -891.38393     -1715.8004      32.684623    
   1051000  -162.65337      245.76882     -408.42218      299.81944     -1527.2391      1.0177122      4455.7805     -146.90883     -4.6924513     -682.07279     -891.35322     -1720.3348      44.314986    
   1052000  -122.59682      287.31326     -409.91008      350.50053      588.64144      1.0177122      4455.7805     -153.1513      -4.6924513     -680.30358     -891.4658      -1724.9207      33.862441    
   1053000  -203.03311      227.4044      -430.43751      277.41623     -3523.9372      1.0177122      4455.7805     -145.97159     -4.6924513     -677.78351     -891.52119     -1715.2763      38.491549    
   1054000  -152.47736      261.46011     -413.93747      318.96163      3554.5099      1.0177122      4455.7805     -150.49689     -4.6924513     -682.61888     -891.49646     -1724.6122      38.876047    
   1055000  -137.80616      260.86507     -398.67123      318.23573      3009.0689      1.0177122      4455.7805     -147.98893     -4.6924513     -680.88978     -891.43961     -1720.3183      37.657875    
   1056000  -174.64289      247.64105     -422.28394      302.10342      5911.912       1.0177122      4455.7805     -135.82125     -4.6924513     -681.6209      -891.52566     -1708.9678      43.647273    
   1057000  -149.04388      252.41497     -401.45885      307.92725      3337.1899      1.0177122      4455.7805     -152.94606     -4.6924513     -680.07219     -891.46125     -1724.4795      36.995063    
   1058000  -189.73888      243.7031      -433.44198      297.29941      2584.8679      1.0177122      4455.7805     -153.74819     -4.6924513     -677.60273     -891.4664      -1722.8173      40.536312    
   1059000  -176.96519      237.18273     -414.14792      289.34506      4110.4369      1.0177122      4455.7805     -148.93946     -4.6924513     -682.52328     -891.45029     -1722.913       43.925546    
   1060000  -142.56361      260.60175     -403.16535      317.9145       4060.8911      1.0177122      4455.7805     -142.19475     -4.6924513     -682.98524     -891.39902     -1716.579       44.02085     
   1061000  -143.55844      263.93713     -407.49557      321.98341      311.643        1.0177122      4455.7805     -152.43113     -4.6924513     -682.14238     -891.49624     -1726.0697      36.473427    
   1062000  -135.3582       259.68351     -395.04171      316.79432     -3337.7715      1.0177122      4455.7805     -155.97454     -4.6924513     -678.45625     -891.63362     -1726.0644      37.134073    
   1063000  -164.28086      231.1458      -395.42666      281.98045     -2078.0794      1.0177122      4455.7805     -144.89771     -4.6924513     -679.65195     -891.42215     -1715.9718      34.938739    
   1064000  -159.42493      260.69047     -420.11541      318.02273     -205.38938      1.0177122      4455.7805     -154.19521     -4.6924513     -680.53958     -891.44148     -1726.1763      26.975294    
   1065000  -150.20695      268.61896     -418.8259       327.69488      2695.4055      1.0177122      4455.7805     -155.58347     -4.6924513     -681.42375     -891.58011     -1728.5873      28.574749    
   1066000  -156.14957      250.83151     -406.98108      305.99554      1873.8632      1.0177122      4455.7805     -149.9242      -4.6924513     -678.51504     -891.57811     -1720.0174      32.674968    
   1067000  -142.01869      259.10916     -401.12785      316.09365      2133.5139      1.0177122      4455.7805     -149.43929     -4.6924513     -681.93544     -891.46371     -1722.8384      36.806929    
   1068000  -137.78944      264.08688     -401.87632      322.16609      766.19926      1.0177122      4455.7805     -150.77581     -4.6924513     -678.87231     -891.47781     -1721.1259      38.699955    
   1069000  -159.67205      237.73715     -397.40921      290.02141     -1419.7904      1.0177122      4455.7805     -152.13187     -4.6924513     -678.96995     -891.55208     -1722.6539      44.215236    
   1070000  -180.88243      252.59044     -433.47287      308.14131      809.85363      1.0177122      4455.7805     -152.10599     -4.6924513     -679.20795     -891.40504     -1722.719       35.17907     
   1071000  -145.32397      266.76129     -412.08526      325.42867      3661.3494      1.0177122      4455.7805     -148.2999      -4.6924513     -680.35256     -891.65699     -1720.3095      33.261528    
   1072000  -156.92776      264.21406     -421.14183      322.32125      3686.5362      1.0177122      4455.7805     -150.63601     -4.6924513     -681.23736     -891.53206     -1723.4054      32.506689    
   1073000  -146.34461      258.62296     -404.96757      315.50052      4282.8136      1.0177122      4455.7805     -152.11942     -4.6924513     -679.60404     -891.4406      -1723.1641      32.854608    
   1074000  -164.19567      243.38451     -407.58018      296.91076      700.71988      1.0177122      4455.7805     -148.16741     -4.6924513     -680.14345     -891.473       -1719.7839      38.69402     
   1075000  -144.54848      265.30655     -409.85503      323.654       -236.71294      1.0177122      4455.7805     -151.10879     -4.6924513     -678.03884     -891.53597     -1720.6836      43.12382     
   1076000  -145.82154      248.57088     -394.39242      303.23774      2923.5609      1.0177122      4455.7805     -145.86464     -4.6924513     -680.65786     -891.48553     -1718.008       30.337266    
   1077000  -153.66556      259.34351     -413.00908      316.37954     -1757.9349      1.0177122      4455.7805     -151.69217     -4.6924513     -680.39954     -891.58506     -1723.6768      43.202027    
   1078000  -154.11792      256.46062     -410.57854      312.86263      1925.5796      1.0177122      4455.7805     -136.25732     -4.6924513     -683.38978     -891.59014     -1711.2372      37.113433    
   1079000  -169.08289      243.44266     -412.52555      296.98169      1856.6128      1.0177122      4455.7805     -143.49334     -4.6924513     -680.16408     -891.60358     -1715.261       32.790708    
   1080000  -144.52152      248.07713     -392.59865      302.6354      -247.35119      1.0177122      4455.7805     -147.56675     -4.6924513     -679.74947     -891.45152     -1718.7677      35.704228    
   1081000  -149.2584       244.48405     -393.74245      298.25212     -283.4642       1.0177122      4455.7805     -148.65604     -4.6924513     -680.77553     -891.4551      -1720.8867      47.812621    
   1082000  -158.97823      241.55922     -400.53745      294.68405      1803.0624      1.0177122      4455.7805     -148.15566     -4.6924513     -682.68815     -891.526       -1722.3698      37.59168     
   1083000  -153.74436      250.51661     -404.26097      305.61139      6884.1694      1.0177122      4455.7805     -151.70114     -4.6924513     -682.56337     -891.52655     -1725.7911      35.056086    
   1084000  -164.63581      256.65803     -421.29384      313.10346      3563.4855      1.0177122      4455.7805     -153.95384     -4.6924513     -682.00173     -891.56462     -1727.5202      35.039707    
   1085000  -162.55838      241.95836     -404.51674      295.17097      1015.9345      1.0177122      4455.7805     -144.65601     -4.6924513     -683.04987     -891.36452     -1719.0704      40.115842    
   1086000  -175.32152      241.03415     -416.35567      294.0435       774.84235      1.0177122      4455.7805     -148.68844     -4.6924513     -685.71556     -891.47664     -1725.8806      35.068569    
   1087000  -153.42945      267.24946     -420.67891      326.0242       4517.0741      1.0177122      4455.7805     -154.48118     -4.6924513     -679.66275     -891.46129     -1725.6052      33.548379    
   1088000  -165.44869      231.28174     -396.73043      282.14629     -462.09043      1.0177122      4455.7805     -145.39528     -4.6924513     -680.2225      -891.4777      -1717.0955      41.550431    
   1089000  -172.18832      251.285       -423.47332      306.54876      4723.2491      1.0177122      4455.7805     -145.01056     -4.6924513     -681.04773     -891.55138     -1717.6097      29.780744    
   1090000  -104.43775      278.56758     -383.00533      339.83146      2106.8995      1.0177122      4455.7805     -145.58828     -4.6924513     -681.51176     -891.44049     -1718.5405      32.82311     
   1091000  -148.35067      250.41324     -398.7639       305.48528      3828.0844      1.0177122      4455.7805     -147.03601     -4.6924513     -681.3777      -891.59374     -1720.0075      39.575505    
   1092000  -143.74707      257.25913     -401.0062       313.83675     -982.49283      1.0177122      4455.7805     -150.88246     -4.6924513     -681.37467     -891.44497     -1723.7021      39.515615    
   1093000  -153.43683      251.26326     -404.7001       306.52225      4081.034       1.0177122      4455.7805     -139.75084     -4.6924513     -680.97933     -891.63325     -1712.3634      39.123976    
   1094000  -179.20872      241.38468     -420.5934       294.47112     -1681.2599      1.0177122      4455.7805     -148.4581      -4.6924513     -682.83987     -891.52048     -1722.8185      39.582438    
   1095000  -160.4685       246.63651     -407.10501      300.87796     -1658.3814      1.0177122      4455.7805     -148.7636      -4.6924513     -683.10774     -891.42779     -1723.2991      38.039008    
   1096000  -163.01669      255.95169     -418.96838      312.24177      149.15777      1.0177122      4455.7805     -149.94896     -4.6924513     -679.14432     -891.43177     -1720.525       38.282663    
   1097000  -153.03035      249.4608      -402.49116      304.32338      2902.4884      1.0177122      4455.7805     -149.6792      -4.6924513     -681.19527     -891.50445     -1722.3789      39.314588    
   1098000  -133.8488       274.73779     -408.58659      335.1594       114.32392      1.0177122      4455.7805     -151.39644     -4.6924513     -683.73743     -891.57843     -1726.7123      32.520502    
   1099000  -153.88987      257.82834     -411.71822      314.53115      767.64548      1.0177122      4455.7805     -147.95636     -4.6924513     -681.51089     -891.55985     -1721.0271      42.370564    
   1100000  -150.70289      256.70875     -407.41164      313.16533      1726.5645      1.0177122      4455.7805     -141.15385     -4.6924513     -678.43379     -891.50276     -1711.0904      35.988348    
   1101000  -157.74568      245.67786     -403.42354      299.70847      3646.1324      1.0177122      4455.7805     -150.00975     -4.6924513     -682.30898     -891.47979     -1723.7985      36.093858    
   1102000  -142.89091      244.93014     -387.82105      298.79631     -428.3332       1.0177122      4455.7805     -145.6825      -4.6924513     -679.48776     -891.39956     -1716.5698      34.720287    
   1103000  -157.88305      251.72713     -409.61018      307.08813      3970.2474      1.0177122      4455.7805     -143.38456     -4.6924513     -686.48349     -891.50583     -1721.3739      34.088613    
   1104000  -149.58143      272.81711     -422.39854      332.81632      1690.4683      1.0177122      4455.7805     -150.3576      -4.6924513     -681.00244     -891.51062     -1722.8707      30.117629    
   1105000  -153.61307      255.50445     -409.11752      311.69617      5260.8561      1.0177122      4455.7805     -149.88149     -4.6924513     -681.71167     -891.50034     -1723.0935      34.412785    
   1106000  -165.22897      240.3064      -405.53537      293.1557      -365.58059      1.0177122      4455.7805     -141.74066     -4.6924513     -680.1418      -891.38616     -1713.2686      39.125746    
   1107000  -151.26753      257.4423      -408.70983      314.0602      -4958.7831      1.0177122      4455.7805     -151.30389     -4.6924513     -678.48337     -891.3043      -1721.0916      37.513976    
   1108000  -158.04424      247.67225     -405.71649      302.14148     -532.38687      1.0177122      4455.7805     -146.03861     -4.6924513     -680.05038     -891.73111     -1717.8201      30.399631    
   1109000  -151.95143      250.65981     -402.61124      305.78608     -29.608329      1.0177122      4455.7805     -154.98395     -4.6924513     -680.68849     -891.42154     -1727.094       42.916032    
   1110000  -156.64085      257.68214     -414.32299      314.35279      3747.4516      1.0177122      4455.7805     -150.94023     -4.6924513     -679.57713     -891.54775     -1722.0651      30.16634     
   1111000  -158.21735      241.85521     -400.07256      295.04513     -633.47712      1.0177122      4455.7805     -147.70078     -4.6924513     -679.19841     -891.46225     -1718.3614      42.269477    
   1112000  -152.97995      254.93206     -407.912        310.9979       1480.4455      1.0177122      4455.7805     -150.82904     -4.6924513     -681.12811     -891.42057     -1723.3777      47.381909    
   1113000  -174.63993      242.38889     -417.02882      295.69618      2394.147       1.0177122      4455.7805     -156.56149     -4.6924513     -681.63051     -891.51875     -1729.7107      32.68812     
   1114000  -163.99533      240.63728     -404.63261      293.55935      3647.4727      1.0177122      4455.7805     -150.45611     -4.6924513     -682.23971     -891.59857     -1724.2944      34.277643    
   1115000  -146.30702      251.00482     -397.31184      306.20697      2910.9267      1.0177122      4455.7805     -146.01366     -4.6924513     -682.38232     -891.42957     -1719.8256      37.499459    
   1116000  -160.19467      252.02385     -412.21852      307.4501       868.13918      1.0177122      4455.7805     -152.57227     -4.6924513     -679.57985     -891.46054     -1723.6127      32.494968    
   1117000  -185.16713      241.05001     -426.21714      294.06284     -454.17137      1.0177122      4455.7805     -150.1976      -4.6924513     -680.09974     -891.38634     -1721.6837      41.622434    
   1118000  -165.25396      264.34121     -429.59517      322.47636      3491.2524      1.0177122      4455.7805     -152.94805     -4.6924513     -683.13584     -891.49285     -1727.5767      31.648861    
   1119000  -168.56334      245.33888     -413.90222      299.29495     -4607.0137      1.0177122      4455.7805     -144.11254     -4.6924513     -678.93887     -891.63147     -1714.6829      31.773797    
   1120000  -145.35659      260.54275     -405.89935      317.84252      3941.4555      1.0177122      4455.7805     -154.26055     -4.6924513     -677.40191     -891.55137     -1723.2138      40.214821    
   1121000  -182.18176      239.69953     -421.88129      292.41536      2344.3078      1.0177122      4455.7805     -141.9937      -4.6924513     -678.46252     -891.48688     -1711.9431      35.617004    
   1122000  -164.4942       247.85395     -412.34815      302.36314     -365.2741       1.0177122      4455.7805     -149.29875     -4.6924513     -679.36071     -891.3332      -1719.9927      39.17235     
   1123000  -187.01947      233.27259     -420.29207      284.57499      2253.4427      1.0177122      4455.7805     -143.85561     -4.6924513     -683.34707     -891.64447     -1718.8472      31.034764    
   1124000  -129.3781       257.70787     -387.08597      314.38418      975.23488      1.0177122      4455.7805     -148.78692     -4.6924513     -682.62491     -891.51452     -1722.9263      35.1611      
   1125000  -178.81817      231.10092     -409.91909      281.92571      2227.0006      1.0177122      4455.7805     -153.20424     -4.6924513     -681.90607     -891.60726     -1726.7176      33.916256    
   1126000  -172.60506      268.46057     -441.06562      327.50166      2819.4541      1.0177122      4455.7805     -145.64407     -4.6924513     -680.43576     -891.46591     -1717.5457      27.696129    
   1127000  -148.15941      250.8618      -399.02121      306.03249      2698.7374      1.0177122      4455.7805     -142.86934     -4.6924513     -682.59297     -891.62405     -1717.0864      30.590505    
   1128000  -154.20659      248.64889     -402.85548      303.33291      2396.7687      1.0177122      4455.7805     -143.92667     -4.6924513     -683.98674     -891.58905     -1719.5025      29.762196    
   1129000  -158.656        252.13157     -410.78757      307.58152     -1304.953       1.0177122      4455.7805     -145.11837     -4.6924513     -679.72823     -891.54131     -1716.3879      30.475852    
   1130000  -140.06453      256.87088     -396.93541      313.36311     -1131.5711      1.0177122      4455.7805     -146.81344     -4.6924513     -676.81222     -891.41934     -1715.045       30.85557     
   1131000  -152.18532      254.93889     -407.12421      311.00623      963.89411      1.0177122      4455.7805     -154.7916      -4.6924513     -680.83327     -891.33057     -1726.9554      35.374542    
   1132000  -130.79313      264.53416     -395.3273       322.71175      3393.3131      1.0177122      4455.7805     -147.75499     -4.6924513     -683.08145     -891.37608     -1722.2125      32.26385     
   1133000  -147.55356      252.24728     -399.80084      307.72267     -1330.0726      1.0177122      4455.7805     -137.69149     -4.6924513     -679.61276     -891.41912     -1708.7234      38.659535    
   1134000  -182.41853      236.26956     -418.68809      288.23105      3382.8674      1.0177122      4455.7805     -145.26932     -4.6924513     -681.65291     -891.51333     -1718.4356      33.996759    
   1135000  -132.56596      268.99448     -401.56043      328.15299      4247.8932      1.0177122      4455.7805     -148.56206     -4.6924513     -684.24025     -891.49133     -1724.2936      31.673816    
   1136000  -140.81375      253.76308     -394.57683      309.57183     -2741.5148      1.0177122      4455.7805     -156.07737     -4.6924513     -677.6687      -891.50218     -1725.2483      36.403867    
   1137000  -155.00823      251.5065      -406.51473      306.81898     -2982.4673      1.0177122      4455.7805     -153.25768     -4.6924513     -680.08912     -891.35624     -1724.703       29.591965    
   1138000  -156.07755      245.20209     -401.27964      299.12807      979.67018      1.0177122      4455.7805     -159.43896     -4.6924513     -680.2176      -891.41012     -1731.0667      31.867159    
   1139000  -150.40451      243.67333     -394.07784      297.2631       1181.1519      1.0177122      4455.7805     -143.26716     -4.6924513     -683.70356     -891.47478     -1718.4455      40.9171      
   1140000  -165.31837      245.00012     -410.31849      298.88168      423.1726       1.0177122      4455.7805     -150.00425     -4.6924513     -679.75615     -891.49705     -1721.2574      35.089124    
   1141000  -155.78801      239.69181     -395.47982      292.40595      1747.9926      1.0177122      4455.7805     -149.04305     -4.6924513     -678.98131     -891.41938     -1719.4437      39.240836    
   1142000  -175.08972      224.25192     -399.34164      273.57044      1777.6551      1.0177122      4455.7805     -153.5241      -4.6924513     -680.10953     -891.48552     -1725.1192      36.726648    
   1143000  -143.46217      245.43706     -388.89922      299.41472     -360.7225       1.0177122      4455.7805     -148.18068     -4.6924513     -682.46858     -891.50821     -1722.1575      30.4906      
   1144000  -167.06421      243.59735     -410.66156      297.17041      3957.4556      1.0177122      4455.7805     -150.42074     -4.6924513     -681.12886     -891.63252     -1723.1821      34.219066    
   1145000  -172.2755       250.41804     -422.69354      305.49113      1493.5155      1.0177122      4455.7805     -141.3171      -4.6924513     -684.16834     -891.47754     -1716.963       41.651398    
   1146000  -168.23017      232.74037     -400.97053      283.92571     -467.38569      1.0177122      4455.7805     -148.34951     -4.6924513     -679.53037     -891.50249     -1719.3824      33.088212    
   1147000  -129.15427      278.19684     -407.35111      339.37918      3173.1175      1.0177122      4455.7805     -143.43241     -4.6924513     -683.69152     -891.63139     -1718.7553      32.801628    
   1148000  -208.45709      224.58034     -433.03743      273.97109     -1776.7893      1.0177122      4455.7805     -155.48        -4.6924513     -681.61798     -891.49357     -1728.5916      35.665444    
   1149000  -163.42643      240.54902     -403.97545      293.45167      674.07035      1.0177122      4455.7805     -145.90183     -4.6924513     -679.7729      -891.53035     -1717.2051      32.62482     
   1150000  -138.51249      264.31474     -402.82723      322.44407     -3721.0792      1.0177122      4455.7805     -153.67577     -4.6924513     -680.48515     -891.44483     -1725.6058      33.34735     
   1151000  -177.27419      244.0852      -421.35939      297.76555      7756.8173      1.0177122      4455.7805     -146.48316     -4.6924513     -686.0478      -891.51056     -1724.0415      39.053996    
   1152000  -168.88507      249.89462     -418.77969      304.85261     -2710.0713      1.0177122      4455.7805     -158.62533     -4.6924513     -679.17358     -891.39001     -1729.1889      30.644179    
   1153000  -186.47053      240.48459     -426.95512      293.37308      2934.3113      1.0177122      4455.7805     -139.80207     -4.6924513     -681.92791     -891.48667     -1713.2166      28.636883    
   1154000  -179.10238      253.25888     -432.36126      308.95674     -560.63644      1.0177122      4455.7805     -139.4326      -4.6924513     -679.21943     -891.62762     -1710.2796      26.737041    
   1155000  -149.06905      258.1902      -407.25925      314.97259     -139.05194      1.0177122      4455.7805     -141.03217     -4.6924513     -678.30197     -891.32556     -1710.6597      30.562577    
   1156000  -147.51499      259.49676     -407.01175      316.5665      -356.12185      1.0177122      4455.7805     -151.83162     -4.6924513     -678.31962     -891.49243     -1721.6437      35.159498    
   1157000  -136.52891      271.3529      -407.88181      331.0301       542.54959      1.0177122      4455.7805     -153.56607     -4.6924513     -679.66255     -891.32312     -1724.5517      25.905533    
   1158000  -152.00044      251.2073      -403.20773      306.45397      2625.2823      1.0177122      4455.7805     -150.72651     -4.6924513     -682.92659     -891.40715     -1725.0603      29.836528    
   1159000  -140.15307      260.42945     -400.58252      317.7043      -1972.3091      1.0177122      4455.7805     -144.77809     -4.6924513     -681.17151     -891.43943     -1717.389       31.000076    
   1160000  -162.53746      243.42129     -405.95876      296.95563     -2554.5274      1.0177122      4455.7805     -145.06378     -4.6924513     -680.41479     -891.44201     -1716.9206      28.14591     
   1161000  -190.75611      233.7984      -424.55451      285.21643     -4600.9421      1.0177122      4455.7805     -145.16835     -4.6924513     -681.74662     -891.38142     -1718.2964      30.194689    
   1162000  -161.06136      259.89333     -420.95469      317.05028      3969.2292      1.0177122      4455.7805     -149.05487     -4.6924513     -684.2837      -891.65344     -1724.992       34.716168    
   1163000  -165.85718      240.57723     -406.43441      293.48609      2357.9032      1.0177122      4455.7805     -152.39684     -4.6924513     -682.82318     -891.43281     -1726.6528      38.284553    
   1164000  -149.34258      258.34521     -407.68779      315.16169      3371.5203      1.0177122      4455.7805     -152.32004     -4.6924513     -682.29172     -891.60552     -1726.2173      33.141819    
   1165000  -163.67657      247.02319     -410.69976      301.34967      2177.192       1.0177122      4455.7805     -144.82106     -4.6924513     -678.95433     -891.5666      -1715.342       31.983052    
   1166000  -175.26092      249.47676     -424.73768      304.34284     -2838.3816      1.0177122      4455.7805     -148.87492     -4.6924513     -678.68923     -891.30545     -1718.8696      26.553307    
   1167000  -155.8217       244.01668     -399.83838      297.68196     -229.48591      1.0177122      4455.7805     -156.00889     -4.6924513     -679.70586     -891.44693     -1727.1617      30.735912    
   1168000  -160.97182      247.03685     -408.00866      301.36634      424.81539      1.0177122      4455.7805     -142.01059     -4.6924513     -681.2611      -891.50554     -1714.7772      27.375624    
   1169000  -163.84465      238.74024     -402.58489      291.2451      -1381.8541      1.0177122      4455.7805     -144.58409     -4.6924513     -681.50654     -891.54897     -1717.6396      33.06389     
   1170000  -140.58433      253.94365     -394.52798      309.79211      1606.6778      1.0177122      4455.7805     -156.66741     -4.6924513     -680.23522     -891.50216     -1728.4048      35.268628    
   1171000  -158.55069      258.94049     -417.49118      315.88788     -220.48524      1.0177122      4455.7805     -144.6669      -4.6924513     -681.54619     -891.64489     -1717.858       27.073309    
   1172000  -150.27836      252.85065     -403.12901      308.45874      81.833379      1.0177122      4455.7805     -151.93194     -4.6924513     -679.0214      -891.32983     -1722.2832      34.130936    
   1173000  -130.76541      269.63793     -400.40334      328.93796      2810.2941      1.0177122      4455.7805     -154.36855     -4.6924513     -679.07205     -891.58205     -1725.0227      35.454819    
   1174000  -154.09702      238.72083     -392.81785      291.22142      3802.4691      1.0177122      4455.7805     -144.01206     -4.6924513     -679.60444     -891.48423     -1715.1007      28.991089    
   1175000  -148.37812      278.61774     -426.99585      339.89264      3930.8644      1.0177122      4455.7805     -150.70035     -4.6924513     -681.97624     -891.56832     -1724.2449      30.968131    
   1176000  -175.28557      230.04923     -405.33479      280.64272      549.12128      1.0177122      4455.7805     -143.93896     -4.6924513     -684.02966     -891.60074     -1719.5694      32.449657    
   1177000  -136.54035      280.48885     -417.0292       342.17526      838.25253      1.0177122      4455.7805     -145.83284     -4.6924513     -680.048       -891.51421     -1717.3951      27.924762    
   1178000  -149.91574      235.66331     -385.57906      287.49148     -642.18827      1.0177122      4455.7805     -147.38456     -4.6924513     -683.0486      -891.55505     -1721.9882      31.411561    
   1179000  -161.28268      243.42485     -404.70753      296.95998      3785.9383      1.0177122      4455.7805     -143.16226     -4.6924513     -683.40694     -891.43781     -1718.007       31.246828    
   1180000  -173.03479      251.30172     -424.33651      306.56916     -3128.0327      1.0177122      4455.7805     -155.44487     -4.6924513     -680.33081     -891.41771     -1727.1934      33.466152    
   1181000  -177.49617      238.17676     -415.67292      290.55769      238.42987      1.0177122      4455.7805     -150.12203     -4.6924513     -681.42379     -891.41823     -1722.9641      32.565199    
   1182000  -163.05153      249.42633     -412.47787      304.28133      1026.2865      1.0177122      4455.7805     -149.13948     -4.6924513     -677.33963     -891.44505     -1717.9242      37.868909    
   1183000  -171.51362      256.06122     -427.57484      312.37539     -4355.1164      1.0177122      4455.7805     -149.82294     -4.6924513     -681.73835     -891.44918     -1723.0105      32.955915    
   1184000  -156.39884      257.14694     -413.54578      313.69989      2730.4102      1.0177122      4455.7805     -145.44178     -4.6924513     -679.97298     -891.55947     -1716.9742      33.517524    
   1185000  -165.6147       260.66597     -426.28067      317.99284      3293.7572      1.0177122      4455.7805     -151.76845     -4.6924513     -681.5391      -891.47295     -1724.7805      27.016904    
   1186000  -154.10727      274.6747      -428.78197      335.08243      1401.0278      1.0177122      4455.7805     -147.90534     -4.6924513     -680.75256     -891.51071     -1720.1686      26.599546    
   1187000  -148.47104      265.19145     -413.66249      323.51358      1705.4158      1.0177122      4455.7805     -144.4703      -4.6924513     -682.60833     -891.52254     -1718.6012      28.024575    
   1188000  -139.55708      260.84824     -400.40533      318.2152      -3097.1897      1.0177122      4455.7805     -152.96891     -4.6924513     -679.3625      -891.60381     -1723.9352      35.169129    
   1189000  -170.78412      240.17663     -410.96076      292.99739      1852.3341      1.0177122      4455.7805     -142.83692     -4.6924513     -683.56068     -891.51054     -1717.9081      34.320424    
   1190000  -186.08322      241.21675     -427.29997      294.26625      70.566354      1.0177122      4455.7805     -154.57        -4.6924513     -682.04208     -891.49869     -1728.1108      34.288744    
   1191000  -165.74092      235.16454     -400.90546      286.88301     -326.41436      1.0177122      4455.7805     -145.06972     -4.6924513     -678.38448     -891.55817     -1715.0124      39.126066    
   1192000  -163.72371      246.75529     -410.479        301.02285     -3901.0042      1.0177122      4455.7805     -151.80036     -4.6924513     -678.10505     -891.40191     -1721.3073      32.445915    
   1193000  -175.7638       237.32278     -413.08658      289.51591     -1446.9165      1.0177122      4455.7805     -149.21685     -4.6924513     -680.71477     -891.48049     -1721.4121      28.253482    
   1194000  -176.16883      221.84205     -398.01088      270.63058      639.76768      1.0177122      4455.7805     -145.8755      -4.6924513     -681.09557     -891.36332     -1718.3344      27.095081    
   1195000  -179.69078      239.5466      -419.23738      292.22879     -1350.2712      1.0177122      4455.7805     -149.84849     -4.6924513     -677.11915     -891.49315     -1718.4608      29.064766    
   1196000  -159.70227      254.98766     -414.68993      311.06573      1261.1862      1.0177122      4455.7805     -146.85699     -4.6924513     -681.60767     -891.45671     -1719.9214      27.39444     
   1197000  -164.53828      272.89301     -437.43129      332.90891      2687.8119      1.0177122      4455.7805     -152.33945     -4.6924513     -681.44229     -891.56213     -1725.3439      32.713649    
   1198000  -171.35025      257.29065     -428.64089      313.8752      -2542.4968      1.0177122      4455.7805     -148.61128     -4.6924513     -680.38358     -891.54169     -1720.5366      31.961013    
   1199000  -177.29768      252.92571     -430.22339      308.55031      4345.3631      1.0177122      4455.7805     -143.48785     -4.6924513     -678.70257     -891.42227     -1713.6127      27.273906    
   1200000  -152.78187      264.21787     -416.99974      322.32589     -1444.9675      1.0177122      4455.7805     -151.62477     -4.6924513     -676.67704     -891.34255     -1719.6444      35.419253    
   1201000  -141.41101      250.92579     -392.3368       306.11055      1621.8342      1.0177122      4455.7805     -153.33909     -4.6924513     -680.12414     -891.48836     -1724.9516      37.341908    
   1202000  -147.46761      269.13301     -416.60062      328.32199     -5067.8184      1.0177122      4455.7805     -145.1523      -4.6924513     -678.29853     -891.51575     -1714.9666      27.469451    
   1203000  -152.15882      256.69168     -408.85051      313.14451      1402.0612      1.0177122      4455.7805     -141.9457      -4.6924513     -681.93925     -891.46148     -1715.3464      32.244751    
   1204000  -164.68307      255.22485     -419.90793      311.35509     -367.06018      1.0177122      4455.7805     -145.01185     -4.6924513     -681.93601     -891.42001     -1718.3679      27.470883    
   1205000  -200.574        245.75405     -446.32804      299.80142      2217.8021      1.0177122      4455.7805     -148.35936     -4.6924513     -681.50867     -891.49688     -1721.3649      27.063868    
   1206000  -154.61695      264.54821     -419.16516      322.72888     -934.54423      1.0177122      4455.7805     -153.50282     -4.6924513     -679.53534     -891.63841     -1724.6766      31.166178    
   1207000  -158.28955      242.90078     -401.19034      296.32065     -973.26454      1.0177122      4455.7805     -140.05679     -4.6924513     -680.8431      -891.44838     -1712.3483      34.035027    
   1208000  -171.67061      242.69197     -414.36258      296.06591     -2442.449       1.0177122      4455.7805     -157.12047     -4.6924513     -677.22163     -891.56475     -1725.9069      33.898885    
   1209000  -162.00665      226.98642     -388.99307      276.90633      6768.6237      1.0177122      4455.7805     -137.80528     -4.6924513     -684.21713     -891.55324     -1713.5756      29.625241    
   1210000  -186.13384      241.86292     -427.99676      295.05453     -1168.1069      1.0177122      4455.7805     -143.74281     -4.6924513     -681.97728     -891.41922     -1717.1393      29.100085    
   1211000  -198.77794      232.57423     -431.35218      283.72304      791.96518      1.0177122      4455.7805     -146.76708     -4.6924513     -682.2043      -891.59394     -1720.5653      30.145357    
   1212000  -164.48636      261.4813      -425.96766      318.98748      2703.4627      1.0177122      4455.7805     -148.32069     -4.6924513     -681.06572     -891.44935     -1720.8358      27.439964    
   1213000  -152.20723      246.59965     -398.80688      300.83299     -394.84702      1.0177122      4455.7805     -138.57645     -4.6924513     -681.89648     -891.54337     -1712.0163      33.928188    
   1214000  -206.63676      220.48276     -427.11952      268.97235     -945.39439      1.0177122      4455.7805     -146.40924     -4.6924513     -679.21877     -891.50267     -1717.1307      31.856489    
   1215000  -158.71732      243.46223     -402.17955      297.00557      2194.9464      1.0177122      4455.7805     -142.06429     -4.6924513     -679.5253      -891.53213     -1713.1217      37.438062    
   1216000  -162.84507      244.40447     -407.24954      298.15504      938.23446      1.0177122      4455.7805     -148.43079     -4.6924513     -680.66118     -891.53606     -1720.628       34.20458     
   1217000  -182.11199      254.23923     -436.35122      310.1527      -4098.5787      1.0177122      4455.7805     -152.71661     -4.6924513     -679.04664     -891.40596     -1723.1692      30.312913    
   1218000  -150.34245      254.37248     -404.71493      310.31526     -821.81568      1.0177122      4455.7805     -143.59801     -4.6924513     -682.41008     -891.43442     -1717.4425      39.500502    
   1219000  -162.39828      243.12628     -405.52456      296.59575     -611.4267       1.0177122      4455.7805     -148.79634     -4.6924513     -681.45665     -891.44138     -1721.6944      36.03808     
   1220000  -141.53394      267.86608     -409.40002      326.77643      2574.7027      1.0177122      4455.7805     -152.25195     -4.6924513     -681.65498     -891.45623     -1725.3632      30.884355    
   1221000  -170.47127      253.92183     -424.39309      309.76549      2493.5373      1.0177122      4455.7805     -149.34758     -4.6924513     -679.73059     -891.50695     -1720.5851      29.712907    
   1222000  -176.14879      241.18988     -417.33867      294.23347      561.53839      1.0177122      4455.7805     -148.27449     -4.6924513     -682.06806     -891.58971     -1721.9322      33.111959    
   1223000  -144.7902       272.12196     -416.91215      331.96828      1625.1676      1.0177122      4455.7805     -156.89307     -4.6924513     -679.33931     -891.40504     -1727.6374      30.110872    
   1224000  -159.97453      251.07357     -411.0481       306.29084      730.04328      1.0177122      4455.7805     -141.59506     -4.6924513     -679.6724      -891.36098     -1712.6284      34.954573    
   1225000  -161.08624      248.63964     -409.72588      303.32162      7380.612       1.0177122      4455.7805     -151.69496     -4.6924513     -679.92488     -891.4466      -1723.0664      33.604919    
   1226000  -193.35061      239.03764     -432.38826      291.60791      1454.6897      1.0177122      4455.7805     -147.91731     -4.6924513     -682.50514     -891.56033     -1721.9828      33.172489    
   1227000  -165.8786       252.70658     -418.58518      308.28298      2888.5508      1.0177122      4455.7805     -144.65087     -4.6924513     -682.41613     -891.44545     -1718.5125      37.942185    
   1228000  -204.80367      229.17384     -433.97751      279.57482      2757.0667      1.0177122      4455.7805     -150.26677     -4.6924513     -680.41541     -891.43305     -1722.1152      29.627918    
   1229000  -149.87852      254.92749     -404.80602      310.99233     -463.88542      1.0177122      4455.7805     -142.4713      -4.6924513     -682.14867     -891.60469     -1716.2247      31.192378    
   1230000  -167.68023      234.07382     -401.75405      285.55242      3647.2868      1.0177122      4455.7805     -147.8341      -4.6924513     -680.75614     -891.40167     -1719.9919      29.268417    
   1231000  -179.52518      244.63097     -424.15615      298.43135      1594.5163      1.0177122      4455.7805     -154.61986     -4.6924513     -679.57516     -891.3864      -1725.5814      31.924327    
   1232000  -151.31064      255.48666     -406.7973       311.67447      2775.5398      1.0177122      4455.7805     -145.39944     -4.6924513     -683.40858     -891.61125     -1720.4193      30.55309     
   1233000  -179.32615      255.44437     -434.77051      311.62288      5779.9919      1.0177122      4455.7805     -150.55288     -4.6924513     -681.15014     -891.52191     -1723.2249      27.094024    
   1234000  -157.92378      256.39119     -414.31496      312.77793      3290.4871      1.0177122      4455.7805     -153.9413      -4.6924513     -685.76266     -891.45492     -1731.1589      32.422274    
   1235000  -156.75772      248.59838     -405.35609      303.27129      987.4099       1.0177122      4455.7805     -148.89246     -4.6924513     -680.96118     -891.62432     -1721.4779      30.726991    
   1236000  -149.36727      259.49728     -408.86455      316.56713      1720.2318      1.0177122      4455.7805     -151.02209     -4.6924513     -679.81007     -891.5874      -1722.4196      29.210385    
   1237000  -167.04926      241.92564     -408.9749       295.13105      1346.8485      1.0177122      4455.7805     -148.82242     -4.6924513     -682.08516     -891.52136     -1722.4289      29.164221    
   1238000  -153.37266      262.42865     -415.80131      320.14318     -506.59938      1.0177122      4455.7805     -155.91279     -4.6924513     -681.57873     -891.45743     -1728.9489      30.517947    
   1239000  -155.66183      246.8934      -402.55523      301.19134      3765.7586      1.0177122      4455.7805     -144.78778     -4.6924513     -682.29902     -891.48657     -1718.5734      31.393327    
   1240000  -149.32311      260.17345     -409.49657      317.392        2549.8081      1.0177122      4455.7805     -147.45325     -4.6924513     -680.35382     -891.45024     -1719.2573      34.529433    
   1241000  -160.72778      259.19015     -419.91793      316.19246      1079.57        1.0177122      4455.7805     -154.43609     -4.6924513     -682.36621     -891.35248     -1728.1548      25.013984    
   1242000  -147.31101      270.69727     -418.00828      330.23027      4592.8409      1.0177122      4455.7805     -155.2258      -4.6924513     -679.88852     -891.45641     -1726.5707      32.575677    
   1243000  -142.61485      271.40413     -414.01899      331.09259     -1036.4356      1.0177122      4455.7805     -143.94292     -4.6924513     -680.16148     -891.47182     -1715.5762      34.674622    
   1244000  -153.02148      255.97597     -408.99746      312.2714       333.31358      1.0177122      4455.7805     -145.07813     -4.6924513     -679.78471     -891.52514     -1716.388       29.115129    
   1245000  -140.44048      268.9074      -409.34788      328.04677      1393.352       1.0177122      4455.7805     -154.29913     -4.6924513     -679.9171      -891.42027     -1725.6365      26.695481    
   1246000  -185.97245      217.5468      -403.51925      265.39071     -1398.8244      1.0177122      4455.7805     -152.94195     -4.6924513     -680.54937     -891.45243     -1724.9438      30.324597    
   1247000  -172.80377      239.7796      -412.58337      292.51304      2374.714       1.0177122      4455.7805     -140.47843     -4.6924513     -682.96122     -891.47976     -1714.9194      29.891648    
   1248000  -129.78845      278.03242     -407.82087      339.1786       1156.267       1.0177122      4455.7805     -148.3607      -4.6924513     -681.11484     -891.43631     -1720.9119      26.97669     
   1249000  -154.7613       246.51024     -401.27155      300.72392      4008.3481      1.0177122      4455.7805     -145.663       -4.6924513     -680.67533     -891.58366     -1717.922       29.769041    
   1250000  -177.80899      245.25211     -423.0611       299.18909      3176.2399      1.0177122      4455.7805     -147.57164     -4.6924513     -682.97932     -891.44783     -1721.9988      29.928403    
   1251000  -144.70432      260.74773     -405.45205      318.09258      5361.5648      1.0177122      4455.7805     -144.06535     -4.6924513     -680.19964     -891.56949     -1715.8345      26.421808    
   1252000  -157.70758      246.391       -404.09858      300.57845      2784.2731      1.0177122      4455.7805     -144.60272     -4.6924513     -679.84618     -891.72296     -1716.1719      33.428691    
   1253000  -163.30485      262.0239      -425.32875      319.64941      3219.6533      1.0177122      4455.7805     -147.7317      -4.6924513     -682.12776     -891.55716     -1721.4166      29.396619    
   1254000  -189.55211      238.76979     -428.32189      291.28115      721.97591      1.0177122      4455.7805     -146.24669     -4.6924513     -680.51668     -891.47834     -1718.2417      32.533042    
   1255000  -176.89987      251.39391     -428.29377      306.68162     -5967.9126      1.0177122      4455.7805     -148.36232     -4.6924513     -676.56603     -891.50423     -1716.4326      26.485205    
   1256000  -155.72395      238.88052     -394.60447      291.41623     -1090.391       1.0177122      4455.7805     -142.70042     -4.6924513     -680.23191     -891.53364     -1714.466       33.7216      
   1257000  -166.06098      250.68763     -416.74861      305.82002      726.48355      1.0177122      4455.7805     -145.69561     -4.6924513     -683.02846     -891.55969     -1720.2838      27.266593    
   1258000  -166.33375      237.90634     -404.24009      290.22781      3086.4862      1.0177122      4455.7805     -143.82229     -4.6924513     -681.66366     -891.44163     -1716.9276      29.621059    
   1259000  -125.75026      280.92359     -406.67385      342.70561     -5348.9442      1.0177122      4455.7805     -141.65914     -4.6924513     -679.36469     -891.51401     -1712.5378      29.213215    
   1260000  -159.50759      232.3824      -391.88998      283.48901      5598.8472      1.0177122      4455.7805     -150.69083     -4.6924513     -681.70197     -891.37666     -1723.7695      34.412074    
   1261000  -157.87483      249.11342     -406.98825      303.8996       2755.8592      1.0177122      4455.7805     -144.19738     -4.6924513     -681.27085     -891.45019     -1716.9184      28.962086    
   1262000  -168.77227      262.00869     -430.78096      319.63086      2301.5806      1.0177122      4455.7805     -153.48191     -4.6924513     -678.92606     -891.39868     -1723.8066      27.850022    
   1263000  -141.44841      266.4493      -407.89771      325.04806     -800.92793      1.0177122      4455.7805     -147.50602     -4.6924513     -681.02618     -891.52637     -1720.0586      33.297119    
   1264000  -160.07122      260.61145     -420.68267      317.92633     -1690.8791      1.0177122      4455.7805     -149.71796     -4.6924513     -676.82858     -891.44414     -1717.9907      27.59606     
   1265000  -163.58123      239.47619     -403.05742      292.1429       2006.8943      1.0177122      4455.7805     -148.30924     -4.6924513     -681.45803     -891.57368     -1721.341       33.437113    
   1266000  -165.83631      255.60013     -421.43644      311.8129       3834.451       1.0177122      4455.7805     -144.97975     -4.6924513     -683.42696     -891.57415     -1719.9809      30.793909    
   1267000  -141.95339      257.388       -399.34139      313.99396      698.3098       1.0177122      4455.7805     -141.13295     -4.6924513     -682.74984     -891.57652     -1715.4593      34.520247    
   1268000  -170.68212      259.14909     -429.83121      316.14236      1972.9179      1.0177122      4455.7805     -148.13738     -4.6924513     -681.45057     -891.51194     -1721.0999      26.814049    
   1269000  -169.38041      239.84237     -409.22278      292.58962     -2882.3872      1.0177122      4455.7805     -144.92162     -4.6924513     -678.75041     -891.5781      -1715.2501      30.903355    
   1270000  -138.8799       252.77526     -391.65516      308.36677     -1054.9838      1.0177122      4455.7805     -150.09297     -4.6924513     -678.92313     -891.45775     -1720.4738      33.402112    
   1271000  -174.30736      249.0451      -423.35246      303.81625      221.4405       1.0177122      4455.7805     -153.59599     -4.6924513     -681.33982     -891.35997     -1726.2958      27.970586    
   1272000  -156.29518      261.41117     -417.70635      318.90192      3098.7203      1.0177122      4455.7805     -148.32367     -4.6924513     -681.92857     -891.5748      -1721.827       30.981165    
   1273000  -151.26066      266.38939     -417.65005      324.97498      498.48339      1.0177122      4455.7805     -153.89605     -4.6924513     -679.93388     -891.49702     -1725.327       27.441788    
   1274000  -185.01981      242.7468      -427.76661      296.13281      2512.0433      1.0177122      4455.7805     -142.60001     -4.6924513     -679.84498     -891.45993     -1713.9049      33.716705    
   1275000  -166.12492      252.83469     -418.95962      308.43927      3589.2854      1.0177122      4455.7805     -147.40054     -4.6924513     -681.19033     -891.57305     -1720.1639      26.830651    
   1276000  -195.54104      243.2833      -438.82434      296.78729     -2203.7944      1.0177122      4455.7805     -155.11136     -4.6924513     -680.56166     -891.46088     -1727.1339      25.827044    
   1277000  -145.99829      248.78074     -394.77903      303.49376      3326.4767      1.0177122      4455.7805     -144.30412     -4.6924513     -681.55782     -891.66942     -1717.5314      32.231293    
   1278000  -123.21677      273.29524     -396.51201      333.3996       1971.0392      1.0177122      4455.7805     -140.91017     -4.6924513     -680.60004     -891.64163     -1713.1518      28.977457    
   1279000  -182.58213      226.59204     -409.17416      276.42521     -5874.5388      1.0177122      4455.7805     -144.76009     -4.6924513     -681.72339     -891.57073     -1718.0542      28.792761    
   1280000  -175.82079      254.77991     -430.60071      310.81229      4720.7713      1.0177122      4455.7805     -150.01586     -4.6924513     -679.88825     -891.47889     -1721.383       27.060296    
   1281000  -139.61976      254.55136     -394.17112      310.53348      1286.119       1.0177122      4455.7805     -147.67801     -4.6924513     -678.34103     -891.55722     -1717.5762      33.325316    
   1282000  -145.80456      244.41286     -390.21742      298.16527     -2584.9218      1.0177122      4455.7805     -152.40476     -4.6924513     -680.38162     -891.51561     -1724.302       27.633441    
   1283000  -162.98501      251.08573     -414.07074      306.30567      3325.2054      1.0177122      4455.7805     -152.11414     -4.6924513     -680.2441      -891.42834     -1723.7866      27.361509    
   1284000  -146.38496      271.06169     -417.44666      330.67484     -90.572287      1.0177122      4455.7805     -148.77477     -4.6924513     -679.20633     -891.38086     -1719.362       31.936247    
   1285000  -133.47382      252.78887     -386.26269      308.38337      3938.7027      1.0177122      4455.7805     -149.30877     -4.6924513     -684.22806     -891.44636     -1724.9832      28.55621     
   1286000  -176.41198      245.65026