
#------------------------------------------------------------------------------#
# simulation settings
#------------------------------------------------------------------------------#

##### simulation variables

variable        seed 	equal  77229
variable        T       equal  300	    #K
variable        p       equal  0.0 	#bar
variable        damp_T  equal  100 		  	#K
variable        damp_P  equal  1000.0	  	#bar
variable        dT      equal  1.0 		 	#fs
variable        kb      equal  0.0019872041

## system setup ##

units           real
atom_style      full
boundary        p p p

pair_style      lj/cut/coul/long 12.500
bond_style      harmonic
angle_style     hybrid fourier cosine/periodic
dihedral_style  harmonic
improper_style  fourier
kspace_style 	ewald 0.000001

dielectric 	 	1.0
pair_modify 	tail yes mix arithmetic
special_bonds 	lj/coul 0.0 0.0 1.0

read_data 	 	../data.emin_pto-4c_In-3c_BTB_DMA_fe
Reading data file ...
  triclinic box = (1.0127974 1.2506642 1.0737052) to (27.573203 27.546212 27.449243) with tilt (-0.4871608 -0.79355401 -0.31961632)
  2 by 1 by 2 MPI processor grid
  reading atoms ...
  456 atoms
  reading velocities ...
  456 velocities
  scanning bonds ...
  8 = max bonds/atom
  scanning angles ...
  28 = max angles/atom
  scanning dihedrals ...
  12 = max dihedrals/atom
  scanning impropers ...
  3 = max impropers/atom
  reading bonds ...
  516 bonds
  reading angles ...
  972 angles
  reading dihedrals ...
  1164 dihedrals
  reading impropers ...
  648 impropers
Finding 1-2 1-3 1-4 neighbors ...
  special bond factors lj:    0        0        1       
  special bond factors coul:  0        0        1       
     8 = max # of 1-2 neighbors
     9 = max # of 1-3 neighbors
    12 = max # of special neighbors
  special bonds CPU = 0.000 seconds
  read_data CPU = 0.005 seconds
include 	 	../non_bonded_pto-4c_In-3c_BTB.param
### Parameters for Equilibration ###

### Parameters for MOF ###

mass 1 12.010700000
mass 2 1.007940000
mass 3 114.818000000
mass 4 15.999400000


bond_coeff 1 462.655054 1.379256
bond_coeff 2 391.669513 1.458000
bond_coeff 3 357.440381 1.081418
bond_coeff 4 187.991596 2.033568
bond_coeff 5 646.680887 1.311940

angle_coeff 1 cosine/periodic 111.297508 -1 3
angle_coeff 2 cosine/periodic 102.183280 -1 3
angle_coeff 3 cosine/periodic 57.289016 -1 3
angle_coeff 4 fourier 127.915933 0.343737 0.374972 0.281246
angle_coeff 5 cosine/periodic 77.909182 -1 3
angle_coeff 6 cosine/periodic 131.755710 -1 3
angle_coeff 7 cosine/periodic 187.136328 -1 3

dihedral_coeff 1 3.368555 -1 2
dihedral_coeff 2 1.250000 -1 2
dihedral_coeff 3 6.737110 -1 2

improper_coeff 1 2.000000 1.000000 -1.000000 0.000000 0

### Parameters for Molecule ###

mass 5 12.010700000
mass 6 1.007940000
mass 7 14.006700000


bond_coeff 6 331.069389 1.109401
bond_coeff 7 528.634538 1.451071
bond_coeff 8 527.945261 1.044419

angle_coeff 8 fourier 75.498766 0.343737 0.374972 0.281246
angle_coeff 9 fourier 169.780468 0.343737 0.374972 0.281246
angle_coeff 10 fourier 260.869388 0.317506 0.313225 0.272502
angle_coeff 11 fourier 144.695053 0.317506 0.313225 0.272502
angle_coeff 12 fourier 97.017167 0.317506 0.313225 0.272502

dihedral_coeff 4 0.054250 1 3


pair_coeff 1 1 0.105 3.43085
pair_coeff 1 2 0.0679706 3.00099
pair_coeff 1 3 0.250789 3.70347
pair_coeff 1 4 0.0793725 3.2745
pair_coeff 1 5 0.105 3.43085
pair_coeff 1 6 0.0679706 3.00099
pair_coeff 1 7 0.0851176 3.34577
pair_coeff 2 2 0.044 2.57113
pair_coeff 2 3 0.162345 3.27361
pair_coeff 2 4 0.0513809 2.84464
pair_coeff 2 5 0.0679706 3.00099
pair_coeff 2 6 0.044 2.57113
pair_coeff 2 7 0.0550999 2.91591
pair_coeff 3 3 0.599 3.97608
pair_coeff 3 4 0.189578 3.54711
pair_coeff 3 5 0.250789 3.70347
pair_coeff 3 6 0.162345 3.27361
pair_coeff 3 7 0.2033 3.61838
pair_coeff 4 4 0.06 3.11815
pair_coeff 4 5 0.0793725 3.2745
pair_coeff 4 6 0.0513809 2.84464
pair_coeff 4 7 0.0643428 3.18942
pair_coeff 5 5 0.105 3.43085
pair_coeff 5 6 0.0679706 3.00099
pair_coeff 5 7 0.0851176 3.34577
pair_coeff 6 6 0.044 2.57113
pair_coeff 6 7 0.0550999 2.91591
pair_coeff 7 7 0.069 3.26069

group			fram type < 5
390 atoms in group fram

fix				SPRING fram spring/self 10 	# harmonic restraint to framework

group			cation type > 4
66 atoms in group cation
group			center type 7
6 atoms in group center
fix			SPRING2 center spring/self 1


#------------------------------------------------------------------------------#
# equilibration
#------------------------------------------------------------------------------#

reset_timestep	0

variable 		delta equal ${lambda}
variable 		delta equal 1e-08
fix 			ADAPT all adapt 0 atom charge v_delta scale yes

thermo_style	custom step etotal ke pe temp press density vol evdwl etail ecoul elong epair
thermo 			5000
velocity 		all create ${T} ${seed}
velocity 		all create 300 ${seed}
velocity 		all create 300 77229

fix				f1 all nve
fix 			f2 all langevin ${T} ${T} ${damp_T} ${seed} zero yes
fix 			f2 all langevin 300 ${T} ${damp_T} ${seed} zero yes
fix 			f2 all langevin 300 300 ${damp_T} ${seed} zero yes
fix 			f2 all langevin 300 300 100 ${seed} zero yes
fix 			f2 all langevin 300 300 100 77229 zero yes
compute 		c1 all temp/com
fix_modify		f2 temp c1

run				200000
Ewald initialization ...
WARNING: System is not charge neutral, net charge = -6e-05 (../kspace.cpp:327)
  using 12-bit tables for long-range coulomb (../kspace.cpp:342)
  G vector (1/distance) = 0.23481561
  estimated absolute RMS force accuracy = 0.00037577262
  estimated relative force accuracy = 1.1316281e-06
  KSpace vectors: actual max1d max3d = 458 6 1098
                  kxmax kymax kzmax  = 6 6 6
Generated 0 of 21 mixed pair_coeff terms from arithmetic mixing rule
Neighbor list info ...
  update every 1 steps, delay 10 steps, check yes
  max neighbors/atom: 2000, page size: 100000
  master list distance cutoff = 14.5
  ghost atom cutoff = 14.5
  binsize = 7.25, bins = 4 4 4
  1 neighbor lists, perpetual/occasional/extra = 1 0 0
  (1) pair lj/cut/coul/long, perpetual
      attributes: half, newton on
      pair build: half/bin/newton/tri
      stencil: half/bin/3d/tri
      bin: standard
WARNING: Inconsistent image flags (../domain.cpp:819)
Per MPI rank memory allocation (min/avg/max) = 22.97 | 22.97 | 22.98 Mbytes
   Step         TotEng         KinEng         PotEng          Temp          Press         Density         Volume         E_vdwl         E_tail         E_coul         E_long         E_pair    
         0   5029.1523      406.88057      4622.2718      300            4115.3117      0.40101743     18421.214      321.08744     -4.3577412     -1.5011344e-13 -1.2370121e-13  321.08744    
      5000   5355.3927      418.86577      4936.527       308.83689      3162.716       0.40101743     18421.214      359.72661     -4.3577412     -1.3480347e-13 -1.2366441e-13  359.72661    
     10000   5351.2105      400.73333      4950.4771      295.46754      3974.0166      0.40101743     18421.214      365.56233     -4.3577412     -1.3456045e-13 -1.2350657e-13  365.56233    
     15000   5353.1219      397.4049       4955.717       293.01343      2974.1427      0.40101743     18421.214      344.18203     -4.3577412     -1.3652268e-13 -1.2376509e-13  344.18203    
     20000   5355.9599      406.78921      4949.1706      299.93264      3997.9385      0.40101743     18421.214      349.86986     -4.3577412     -1.3522624e-13 -1.2353063e-13  349.86986    
     25000   5385.432       416.30873      4969.1232      306.95154      2595.3486      0.40101743     18421.214      352.30363     -4.3577412     -1.3299884e-13 -1.2364733e-13  352.30363    
     30000   5365.8696      416.92603      4948.9436      307.40669      4758.1489      0.40101743     18421.214      364.89752     -4.3577412     -1.3576336e-13 -1.2373708e-13  364.89752    
     35000   5353.7189      411.12468      4942.5942      303.12925      3354.6551      0.40101743     18421.214      359.16266     -4.3577412     -1.3363118e-13 -1.2323342e-13  359.16266    
     40000   5355.4702      401.80695      4953.6633      296.25913      3466.0909      0.40101743     18421.214      349.277       -4.3577412     -1.3508821e-13 -1.2381302e-13  349.277      
     45000   5334.7644      386.92532      4947.8391      285.28665      2999.3151      0.40101743     18421.214      344.69179     -4.3577412     -1.3564017e-13 -1.2346571e-13  344.69179    
     50000   5364.1454      402.63159      4961.5138      296.86715      2867.6297      0.40101743     18421.214      352.24566     -4.3577412     -1.3463707e-13 -1.2381748e-13  352.24566    
     55000   5350.3749      429.97438      4920.4006      317.02746      3584.6785      0.40101743     18421.214      357.2932      -4.3577412     -1.3262726e-13 -1.2391548e-13  357.2932     
     60000   5358.2759      425.28175      4932.9941      313.5675       3266.2207      0.40101743     18421.214      345.23431     -4.3577412     -1.3464311e-13 -1.234533e-13   345.23431    
     65000   5340.0617      436.58122      4903.4805      321.89879      2721.5898      0.40101743     18421.214      340.01134     -4.3577412     -1.3337242e-13 -1.2394666e-13  340.01134    
     70000   5286.1244      378.7405       4907.3839      279.25184      2469.2975      0.40101743     18421.214      335.47648     -4.3577412     -1.3446073e-13 -1.2361167e-13  335.47648    
     75000   5343.9516      405.81409      4938.1375      299.21367      5713.0386      0.40101743     18421.214      367.88738     -4.3577412     -1.3623042e-13 -1.2363828e-13  367.88738    
     80000   5323.0547      394.39644      4928.6582      290.79523      2121.9542      0.40101743     18421.214      338.54328     -4.3577412     -1.362618e-13  -1.2369383e-13  338.54328    
     85000   5353.7387      424.15949      4929.5792      312.74004      2887.9881      0.40101743     18421.214      354.17536     -4.3577412     -1.3550402e-13 -1.237246e-13   354.17536    
     90000   5319.2396      415.07234      4904.1673      306.03993      3483.4357      0.40101743     18421.214      348.26578     -4.3577412     -1.3427315e-13 -1.235785e-13   348.26578    
     95000   5371.9562      420.56942      4951.3868      310.09302      2709.0982      0.40101743     18421.214      349.24165     -4.3577412     -1.3305726e-13 -1.2379372e-13  349.24165    
    100000   5365.778       412.23223      4953.5458      303.94587      3235.0207      0.40101743     18421.214      353.07093     -4.3577412     -1.3641905e-13 -1.2325189e-13  353.07093    
    105000   5333.2621      409.70887      4923.5532      302.08536      4965.8456      0.40101743     18421.214      353.27111     -4.3577412     -1.3721392e-13 -1.2379777e-13  353.27111    
    110000   5362.962       431.12697      4931.835       317.87728      3311.4277      0.40101743     18421.214      338.53673     -4.3577412     -1.3568379e-13 -1.2391881e-13  338.53673    
    115000   5340.9084      406.11692      4934.7914      299.43695      1660.1302      0.40101743     18421.214      345.47004     -4.3577412     -1.351071e-13  -1.2307925e-13  345.47004    
    120000   5341.3772      406.85772      4934.5195      299.98315      2871.5201      0.40101743     18421.214      345.53937     -4.3577412     -1.3393212e-13 -1.2348743e-13  345.53937    
    125000   5365.8657      422.86753      4942.9982      311.78746      3556.0157      0.40101743     18421.214      342.62857     -4.3577412     -1.348031e-13  -1.2377879e-13  342.62857    
    130000   5348.659       407.5428       4941.1162      300.48828      2690.2779      0.40101743     18421.214      342.85742     -4.3577412     -1.348934e-13  -1.234839e-13   342.85742    
    135000   5338.0424      404.40556      4933.6368      298.17513      3392.764       0.40101743     18421.214      346.50039     -4.3577412     -1.3420182e-13 -1.2382103e-13  346.50039    
    140000   5356.3008      427.03595      4929.2649      314.86091      3825.5749      0.40101743     18421.214      355.05651     -4.3577412     -1.3456214e-13 -1.230361e-13   355.05651    
    145000   5349.0141      439.24489      4909.7692      323.86276      4016.0603      0.40101743     18421.214      352.28914     -4.3577412     -1.3389244e-13 -1.2286686e-13  352.28914    
    150000   5325.5093      410.29894      4915.2104      302.52042      2914.0693      0.40101743     18421.214      351.60766     -4.3577412     -1.3406186e-13 -1.2364002e-13  351.60766    
    155000   5349.0874      423.30399      4925.7834      312.10926      3172.3243      0.40101743     18421.214      349.08492     -4.3577412     -1.3433818e-13 -1.2371017e-13  349.08492    
    160000   5327.6031      410.62523      4916.9779      302.761        2931.9426      0.40101743     18421.214      340.07889     -4.3577412     -1.3466979e-13 -1.2358674e-13  340.07889    
    165000   5330.2821      417.79993      4912.4822      308.05103      1748.595       0.40101743     18421.214      346.99491     -4.3577412     -1.3377691e-13 -1.2357261e-13  346.99491    
    170000   5380.758       426.29237      4954.4657      314.31265      3150.4783      0.40101743     18421.214      351.5687      -4.3577412     -1.3361524e-13 -1.2333889e-13  351.5687     
    175000   5328.8923      382.73622      4946.1561      282.19796      3348.2686      0.40101743     18421.214      361.49802     -4.3577412     -1.3325752e-13 -1.2370693e-13  361.49802    
    180000   5335.3578      398.43513      4936.9227      293.77303      3268.2492      0.40101743     18421.214      350.99307     -4.3577412     -1.3452222e-13 -1.2370223e-13  350.99307    
    185000   5346.7155      397.70624      4949.0093      293.23561      3593.0344      0.40101743     18421.214      359.61702     -4.3577412     -1.3421152e-13 -1.2370471e-13  359.61702    
    190000   5374.3315      415.13223      4959.1993      306.08409      1508.5734      0.40101743     18421.214      342.27482     -4.3577412     -1.3384372e-13 -1.2366851e-13  342.27482    
    195000   5333.6499      387.35825      4946.2916      285.60585      3949.2549      0.40101743     18421.214      353.73202     -4.3577412     -1.352865e-13  -1.2355113e-13  353.73202    
    200000   5334.4243      383.7676       4950.6567      282.95841      3400.573       0.40101743     18421.214      352.35291     -4.3577412     -1.3412501e-13 -1.2368976e-13  352.35291    
Loop time of 25.2297 on 4 procs for 200000 steps with 456 atoms

Performance: 684.907 ns/day, 0.035 hours/ns, 7927.159 timesteps/s
99.6% CPU use with 4 MPI tasks x no OpenMP threads

MPI task timing breakdown:
Section |  min time  |  avg time  |  max time  |%varavg| %total
---------------------------------------------------------------
Pair    | 12.777     | 14.831     | 16.822     |  39.1 | 58.78
Bond    | 1.8543     | 1.8908     | 1.9412     |   2.4 |  7.49
Kspace  | 0.91273    | 2.8719     | 4.9481     |  88.8 | 11.38
Neigh   | 1.2702     | 1.2715     | 1.2728     |   0.1 |  5.04
Comm    | 3.1872     | 3.2104     | 3.2351     |   1.2 | 12.72
Output  | 0.00047046 | 0.00049496 | 0.00056737 |   0.0 |  0.00
Modify  | 0.96227    | 0.968      | 0.97801    |   0.6 |  3.84
Other   |            | 0.1861     |            |       |  0.74

Nlocal:            114 ave         117 max         112 min
Histogram: 2 0 0 0 0 0 1 0 0 1
Nghost:        2277.75 ave        2332 max        2227 min
Histogram: 1 0 1 0 0 0 1 0 0 1
Neighs:        18198.8 ave       19970 max       15978 min
Histogram: 1 0 1 0 0 0 0 0 0 2

Total # of neighbors = 72795
Ave neighs/atom = 159.63816
Ave special neighs/atom = 6.3157895
Neighbor list builds = 3574
Dangerous builds = 0
unfix			ADAPT

#------------------------------------------------------------------------------#
# sampling
#------------------------------------------------------------------------------#

reset_timestep	0

variable		elec equal 2*(elong+ecoul)
variable		dudlam equal v_elec/${lambda}
variable		dudlam equal v_elec/1e-08
fix				ELEC all ave/time 250 1 250 v_dudlam file q_${lambda}.lmp
fix				ELEC all ave/time 250 1 250 v_dudlam file q_1e-08.lmp

thermo_style	custom step etotal ke pe temp press density vol evdwl etail ecoul elong epair v_elec
thermo			250

run 			500000
Ewald initialization ...
  using 12-bit tables for long-range coulomb (../kspace.cpp:342)
  G vector (1/distance) = 0.2041222
  estimated absolute RMS force accuracy = 2.728936e-16
  estimated relative force accuracy = 8.2181097e-19
  KSpace vectors: actual max1d max3d = 2 1 13
                  kxmax kymax kzmax  = 1 1 1
Generated 0 of 21 mixed pair_coeff terms from arithmetic mixing rule
WARNING: Inconsistent image flags (../domain.cpp:819)
Per MPI rank memory allocation (min/avg/max) = 22.97 | 22.97 | 22.98 Mbytes
   Step         TotEng         KinEng         PotEng          Temp          Press         Density         Volume         E_vdwl         E_tail         E_coul         E_long         E_pair         v_elec    
         0   5334.4243      383.7676       4950.6567      282.95841      3400.573       0.40101743     18421.214      352.35291     -4.3577412     -1.486895e-13  -1.0748935e-13  352.35291     -5.1235769e-13
       250   5335.027       416.86786      4918.1591      307.3638       2680.609       0.40101743     18421.214      341.05759     -4.3577412     -1.5022934e-13 -1.0741978e-13  341.05759     -5.1529823e-13
       500   5364.8713      400.60967      4964.2616      295.37636      3845.9906      0.40101743     18421.214      355.18384     -4.3577412     -1.4862392e-13 -1.0742762e-13  355.18384     -5.1210308e-13
       750   5337.6744      414.27633      4923.3981      305.45302      3331.5904      0.40101743     18421.214      346.50164     -4.3577412     -1.489531e-13  -1.0749863e-13  346.50164     -5.1290346e-13
      1000   5334.6352      425.73001      4908.9052      313.89801      3957.3394      0.40101743     18421.214      363.60892     -4.3577412     -1.4685691e-13 -1.0754807e-13  363.60892     -5.0880996e-13
      1250   5347.4087      395.72239      4951.6864      291.77288      2691.4496      0.40101743     18421.214      353.11665     -4.3577412     -1.4889697e-13 -1.0765108e-13  353.11665     -5.130961e-13 
      1500   5329.3391      382.86442      4946.4746      282.29248      2889.6303      0.40101743     18421.214      342.11059     -4.3577412     -1.4910673e-13 -1.0748399e-13  342.11059     -5.1318145e-13
      1750   5320.0908      402.92838      4917.1624      297.08598      3142.145       0.40101743     18421.214      346.09621     -4.3577412     -1.4992325e-13 -1.0750936e-13  346.09621     -5.1486521e-13
      2000   5323.4362      400.06723      4923.369       294.97641      3076.7582      0.40101743     18421.214      354.24675     -4.3577412     -1.503652e-13  -1.0750846e-13  354.24675     -5.1574733e-13
      2250   5317.2151      380.4635       4936.7516      280.52224      4764.7359      0.40101743     18421.214      365.25033     -4.3577412     -1.4752032e-13 -1.0717518e-13  365.25033     -5.09391e-13  
      2500   5346.7024      402.65622      4944.0462      296.88531      4165.1479      0.40101743     18421.214      360.44929     -4.3577412     -1.4908001e-13 -1.0702244e-13  360.44929     -5.1220488e-13
      2750   5349.2755      426.11049      4923.165       314.17855      3694.6935      0.40101743     18421.214      357.80241     -4.3577412     -1.488187e-13  -1.0732361e-13  357.80241     -5.1228462e-13
      3000   5345.7793      401.79824      4943.9811      296.25271      3193.4187      0.40101743     18421.214      347.11684     -4.3577412     -1.5124084e-13 -1.0751877e-13  347.11684     -5.1751922e-13
      3250   5316.1924      394.00048      4922.1919      290.50329      2523.2606      0.40101743     18421.214      349.58349     -4.3577412     -1.4964763e-13 -1.0735595e-13  349.58349     -5.1400715e-13
      3500   5384.4197      437.63154      4946.7881      322.67321      3575.4345      0.40101743     18421.214      352.43387     -4.3577412     -1.5026874e-13 -1.0728681e-13  352.43387     -5.1511109e-13
      3750   5333.739       413.48772      4920.2512      304.87156      3221.6402      0.40101743     18421.214      354.97588     -4.3577412     -1.4915428e-13 -1.0696394e-13  354.97588     -5.1223644e-13
      4000   5360.8297      405.76883      4955.0608      299.1803       3641.3787      0.40101743     18421.214      365.45814     -4.3577412     -1.4976374e-13 -1.070254e-13   365.45814     -5.1357829e-13
      4250   5315.4708      405.70168      4909.7691      299.13078      2655.7811      0.40101743     18421.214      341.58565     -4.3577412     -1.4961917e-13 -1.0730026e-13  341.58565     -5.1383886e-13
      4500   5325.1517      405.99607      4919.1557      299.34784      3946.1389      0.40101743     18421.214      352.48923     -4.3577412     -1.4974749e-13 -1.0748103e-13  352.48923     -5.1445704e-13
      4750   5370.8097      416.2344       4954.5753      306.89674      2911.1536      0.40101743     18421.214      347.78975     -4.3577412     -1.4907599e-13 -1.0767137e-13  347.78975     -5.1349472e-13
      5000   5346.8057      413.37769      4933.428       304.79044      3494.3355      0.40101743     18421.214      344.69161     -4.3577412     -1.4895285e-13 -1.0766341e-13  344.69161     -5.1323253e-13
      5250   5365.2823      436.22407      4929.0582      321.63547      2448.5142      0.40101743     18421.214      343.33354     -4.3577412     -1.4884375e-13 -1.0772726e-13  343.33354     -5.1314202e-13
      5500   5378.3059      425.24184      4953.0641      313.53808      3060.2503      0.40101743     18421.214      352.92298     -4.3577412     -1.4674261e-13 -1.0779446e-13  352.92298     -5.0907415e-13
      5750   5361.2842      406.20277      4955.0814      299.50024      3338.6195      0.40101743     18421.214      363.82728     -4.3577412     -1.4712966e-13 -1.0766053e-13  363.82728     -5.0958036e-13
      6000   5369.8578      448.20093      4921.6568      330.46621      3893.6233      0.40101743     18421.214      362.28885     -4.3577412     -1.4774742e-13 -1.0774342e-13  362.28885     -5.1098168e-13
      6250   5356.175       416.63644      4939.5385      307.19317      4122.8636      0.40101743     18421.214      355.30547     -4.3577412     -1.5049335e-13 -1.0771823e-13  355.30547     -5.1642315e-13
      6500   5369.1605      435.10064      4934.0599      320.80714      3905.4717      0.40101743     18421.214      351.74266     -4.3577412     -1.4936497e-13 -1.0753449e-13  351.74266     -5.1379892e-13
      6750   5331.7448      414.85931      4916.8855      305.88286      3863.9693      0.40101743     18421.214      358.09083     -4.3577412     -1.4816092e-13 -1.0746771e-13  358.09083     -5.1125725e-13
      7000   5312.9481      395.98734      4916.9607      291.96823      2850.3778      0.40101743     18421.214      348.17579     -4.3577412     -1.5175652e-13 -1.0751288e-13  348.17579     -5.1853881e-13
      7250   5376.8623      443.25034      4933.612       326.81605      2368.867       0.40101743     18421.214      339.65649     -4.3577412     -1.486927e-13  -1.0739983e-13  339.65649     -5.1218506e-13
      7500   5354.9349      423.11882      4931.8161      311.97274      2891.6774      0.40101743     18421.214      351.35393     -4.3577412     -1.4997603e-13 -1.0753554e-13  351.35393     -5.1502314e-13
      7750   5339.7685      412.87977      4926.8887      304.42331      3311.7314      0.40101743     18421.214      342.34583     -4.3577412     -1.5110041e-13 -1.0770438e-13  342.34583     -5.1760958e-13
      8000   5311.8429      406.77072      4905.0722      299.919        3489.1369      0.40101743     18421.214      357.75963     -4.3577412     -1.5110442e-13 -1.0768472e-13  357.75963     -5.1757827e-13
      8250   5377.3693      441.31671      4936.0526      325.39035      4030.9183      0.40101743     18421.214      349.40136     -4.3577412     -1.5062313e-13 -1.0756425e-13  349.40136     -5.1637478e-13
      8500   5323.4479      387.14883      4936.2991      285.45145      4736.9107      0.40101743     18421.214      366.71922     -4.3577412     -1.4923609e-13 -1.0760573e-13  366.71922     -5.1368364e-13
      8750   5300.5271      384.23454      4916.2926      283.30269      3180.2429      0.40101743     18421.214      342.5189      -4.3577412     -1.4812489e-13 -1.0765495e-13  342.5189      -5.1155967e-13
      9000   5339.024       409.99543      4929.0286      302.29664      2657.1923      0.40101743     18421.214      335.18001     -4.3577412     -1.4838093e-13 -1.0752232e-13  335.18001     -5.1180649e-13
      9250   5352.6468      411.61235      4941.0345      303.48882      3811.6488      0.40101743     18421.214      344.26356     -4.3577412     -1.5000964e-13 -1.073921e-13   344.26356     -5.1480348e-13
      9500   5342.776       394.95399      4947.822       291.20632      3180.3882      0.40101743     18421.214      345.06491     -4.3577412     -1.4764091e-13 -1.0742604e-13  345.06491     -5.101339e-13 
      9750   5314.3265      404.50444      4909.8221      298.24804      2568.5505      0.40101743     18421.214      346.16117     -4.3577412     -1.5031317e-13 -1.0755857e-13  346.16117     -5.1574349e-13
     10000   5361.1308      410.6591       4950.4717      302.78598      2043.3345      0.40101743     18421.214      347.24133     -4.3577412     -1.498083e-13  -1.0740214e-13  347.24133     -5.1442088e-13
     10250   5360.5161      419.66429      4940.8518      309.42565      3152.9228      0.40101743     18421.214      356.7969      -4.3577412     -1.4938157e-13 -1.0752742e-13  356.7969      -5.1381798e-13
     10500   5323.2795      382.84004      4940.4394      282.2745       4655.7712      0.40101743     18421.214      365.28854     -4.3577412     -1.4987929e-13 -1.0761425e-13  365.28854     -5.1498708e-13
     10750   5302.4048      398.74926      4903.6555      294.00465      3442.2953      0.40101743     18421.214      349.23279     -4.3577412     -1.5025166e-13 -1.0754998e-13  349.23279     -5.1560328e-13
     11000   5317.668       398.68627      4918.9818      293.9582       3022.8634      0.40101743     18421.214      336.48193     -4.3577412     -1.4965413e-13 -1.0764848e-13  336.48193     -5.1460521e-13
     11250   5337.3713      415.19058      4922.1807      306.12711      2909.8236      0.40101743     18421.214      339.91123     -4.3577412     -1.482221e-13  -1.0772986e-13  339.91123     -5.1190391e-13
     11500   5394.0719      432.44482      4961.6271      318.84896      3756.433       0.40101743     18421.214      357.76359     -4.3577412     -1.4883725e-13 -1.075015e-13   357.76359     -5.126775e-13 
     11750   5365.0974      435.31188      4929.7855      320.96289      3345.3373      0.40101743     18421.214      351.4402      -4.3577412     -1.4855735e-13 -1.0755488e-13  351.4402      -5.1222445e-13
     12000   5359.9317      437.21134      4922.7204      322.36339      3097.2193      0.40101743     18421.214      354.74121     -4.3577412     -1.4801542e-13 -1.0769278e-13  354.74121     -5.1141639e-13
     12250   5367.9003      410.07634      4957.824       302.3563       3685.5196      0.40101743     18421.214      346.87459     -4.3577412     -1.487357e-13  -1.0780211e-13  346.87459     -5.1307564e-13
     12500   5375.2998      433.37621      4941.9236      319.53569      3691.18        0.40101743     18421.214      349.33983     -4.3577412     -1.50455e-13   -1.0782164e-13  349.33983     -5.1655329e-13
     12750   5365.1211      426.62139      4938.4997      314.55524      2742.1481      0.40101743     18421.214      347.59919     -4.3577412     -1.4891265e-13 -1.0777439e-13  347.59919     -5.1337409e-13
     13000   5306.5766      374.80564      4931.7709      276.35061      3225.5897      0.40101743     18421.214      348.4524      -4.3577412     -1.4814665e-13 -1.0777923e-13  348.4524      -5.1185176e-13
     13250   5338.9159      430.34092      4908.5749      317.29771      1744.157       0.40101743     18421.214      338.09211     -4.3577412     -1.4911376e-13 -1.0781116e-13  338.09211     -5.1384984e-13
     13500   5348.0709      398.57776      4949.4931      293.8782       2438.8058      0.40101743     18421.214      347.50162     -4.3577412     -1.4852777e-13 -1.0771739e-13  347.50162     -5.1249032e-13
     13750   5312.0246      390.44685      4921.5778      287.88314      4143.7991      0.40101743     18421.214      360.42739     -4.3577412     -1.4814841e-13 -1.0775282e-13  360.42739     -5.1180245e-13
     14000   5315.6889      390.24318      4925.4458      287.73297      3726.4434      0.40101743     18421.214      351.45059     -4.3577412     -1.4857667e-13 -1.0772122e-13  351.45059     -5.1259579e-13
     14250   5329.4975      389.62684      4939.8707      287.27853      3980.0136      0.40101743     18421.214      357.16436     -4.3577412     -1.5030281e-13 -1.0755367e-13  357.16436     -5.1571297e-13
     14500   5338.8551      412.39845      4926.4566      304.06843      3297.5261      0.40101743     18421.214      350.4214      -4.3577412     -1.5011661e-13 -1.074026e-13   350.4214      -5.1503841e-13
     14750   5330.2061      389.95232      4940.2538      287.51851      3650.382       0.40101743     18421.214      345.1823      -4.3577412     -1.4792882e-13 -1.0750188e-13  345.1823      -5.108614e-13 
     15000   5336.1449      416.8024       4919.3425      307.31554      3744.7777      0.40101743     18421.214      355.89174     -4.3577412     -1.480248e-13  -1.0733724e-13  355.89174     -5.1072407e-13
     15250   5341.6591      407.92661      4933.7325      300.77126      3603.5304      0.40101743     18421.214      339.67249     -4.3577412     -1.5005097e-13 -1.0729385e-13  339.67249     -5.1468963e-13
     15500   5357.9312      418.77574      4939.1555      308.77051      1868.8678      0.40101743     18421.214      330.78998     -4.3577412     -1.5023788e-13 -1.0748384e-13  330.78998     -5.1544345e-13
     15750   5354.072       402.18955      4951.8825      296.54123      2970.4903      0.40101743     18421.214      355.52254     -4.3577412     -1.4957142e-13 -1.0762067e-13  355.52254     -5.1438417e-13
     16000   5332.594       401.87868      4930.7154      296.31202      3168.5916      0.40101743     18421.214      340.86323     -4.3577412     -1.5037843e-13 -1.0752305e-13  340.86323     -5.1580297e-13
     16250   5327.3506      409.98684      4917.3638      302.29031      4113.1155      0.40101743     18421.214      364.55975     -4.3577412     -1.4818429e-13 -1.0761711e-13  364.55975     -5.116028e-13 
     16500   5335.4133      411.66594      4923.7473      303.52833      3698.5257      0.40101743     18421.214      367.38926     -4.3577412     -1.4464763e-13 -1.0765666e-13  367.38926     -5.0460858e-13
     16750   5348.2187      416.74198      4931.4767      307.27099      3165.9046      0.40101743     18421.214      352.2162      -4.3577412     -1.4891049e-13 -1.0752815e-13  352.2162      -5.1287729e-13
     17000   5306.0426      386.44155      4919.6011      284.92996      3729.4448      0.40101743     18421.214      362.63433     -4.3577412     -1.4811536e-13 -1.0748108e-13  362.63433     -5.1119288e-13
     17250   5359.7867      403.23293      4956.5538      297.31053      4062.5078      0.40101743     18421.214      355.43276     -4.3577412     -1.501104e-13  -1.0739755e-13  355.43276     -5.1501589e-13
     17500   5326.517       408.88774      4917.6293      301.47992      3681.059       0.40101743     18421.214      359.98733     -4.3577412     -1.4884169e-13 -1.0756641e-13  359.98733     -5.128162e-13 
     17750   5355.0373      427.26017      4927.7771      315.02623      2659.0732      0.40101743     18421.214      345.62434     -4.3577412     -1.4950519e-13 -1.0768731e-13  345.62434     -5.14385e-13  
     18000   5373.2806      423.27339      4950.0072      312.08671      1122.5126      0.40101743     18421.214      329.10153     -4.3577412     -1.4925752e-13 -1.0766238e-13  329.10153     -5.1383981e-13
     18250   5330.6252      380.7051       4949.9201      280.70038      2464.8418      0.40101743     18421.214      343.69302     -4.3577412     -1.5065495e-13 -1.0733052e-13  343.69302     -5.1597094e-13
     18500   5378.5759      428.85762      4949.7183      316.20405      4352.4681      0.40101743     18421.214      346.14263     -4.3577412     -1.4984325e-13 -1.0743165e-13  346.14263     -5.145498e-13 
     18750   5360.5859      408.93467      4951.6512      301.51452      2582.1493      0.40101743     18421.214      349.20641     -4.3577412     -1.4883452e-13 -1.0754129e-13  349.20641     -5.1275162e-13
     19000   5359.4694      409.03044      4950.439       301.58514      3875.2835      0.40101743     18421.214      354.49504     -4.3577412     -1.489274e-13  -1.0755287e-13  354.49504     -5.1296053e-13
     19250   5386.2782      440.54348      4945.7347      324.82024      4555.4004      0.40101743     18421.214      369.59431     -4.3577412     -1.4825651e-13 -1.0767802e-13  369.59431     -5.1186906e-13
     19500   5314.8043      392.89535      4921.9089      289.68846      4400.5908      0.40101743     18421.214      363.59809     -4.3577412     -1.4784057e-13 -1.0757257e-13  363.59809     -5.1082628e-13
     19750   5329.0866      405.1548       4923.9318      298.72756      3211.8377      0.40101743     18421.214      346.57493     -4.3577412     -1.4963049e-13 -1.0751975e-13  346.57493     -5.1430047e-13
     20000   5344.456       425.54841      4918.9076      313.76411      2111.9467      0.40101743     18421.214      336.60768     -4.3577412     -1.484977e-13  -1.0764257e-13  336.60768     -5.1228054e-13
     20250   5362.4393      407.90629      4954.533       300.75628      4303.4871      0.40101743     18421.214      357.94078     -4.3577412     -1.4872406e-13 -1.0753534e-13  357.94078     -5.1251879e-13
     20500   5318.7202      394.33399      4924.3862      290.74919      2901.4174      0.40101743     18421.214      344.28342     -4.3577412     -1.4876619e-13 -1.0751859e-13  344.28342     -5.1256956e-13
     20750   5312.1475      399.01988      4913.1277      294.20418      3657.1733      0.40101743     18421.214      354.97311     -4.3577412     -1.4968976e-13 -1.0760145e-13  354.97311     -5.1458242e-13
     21000   5389.7251      442.6009       4947.1242      326.33721      2515.2634      0.40101743     18421.214      348.13551     -4.3577412     -1.4892736e-13 -1.0760415e-13  348.13551     -5.1306302e-13
     21250   5353.3592      403.8799       4949.4793      297.78755      2826.3411      0.40101743     18421.214      352.19066     -4.3577412     -1.4738275e-13 -1.0750927e-13  352.19066     -5.0978404e-13
     21500   5353.2399      418.6158       4934.6241      308.65259      2375.4642      0.40101743     18421.214      346.63617     -4.3577412     -1.4735087e-13 -1.0751868e-13  346.63617     -5.097391e-13 
     21750   5333.16        409.22553      4923.9345      301.72898      2469.9383      0.40101743     18421.214      350.29681     -4.3577412     -1.4953534e-13 -1.076572e-13   350.29681     -5.1438509e-13
     22000   5334.1264      403.11389      4931.0126      297.22276      3881.0928      0.40101743     18421.214      355.26074     -4.3577412     -1.4894428e-13 -1.076939e-13   355.26074     -5.1327636e-13
     22250   5317.4427      381.59464      4935.848       281.35625      3152.571       0.40101743     18421.214      355.80986     -4.3577412     -1.4803919e-13 -1.0758206e-13  355.80986     -5.1124249e-13
     22500   5314.038       396.31986      4917.7182      292.21341      2683.5912      0.40101743     18421.214      336.17811     -4.3577412     -1.4972046e-13 -1.0755513e-13  336.17811     -5.1455118e-13
     22750   5342.7201      414.24048      4928.4796      305.42658      4014.4508      0.40101743     18421.214      353.46998     -4.3577412     -1.4961346e-13 -1.07572e-13    353.46998     -5.1437092e-13
     23000   5353.3615      420.8254       4932.5361      310.28176      3558.2802      0.40101743     18421.214      341.54924     -4.3577412     -1.5148786e-13 -1.0758614e-13  341.54924     -5.18148e-13  
     23250   5360.3971      408.04779      4952.3493      300.86061      4185.4292      0.40101743     18421.214      349.97218     -4.3577412     -1.4927687e-13 -1.0736026e-13  349.97218     -5.1327426e-13
     23500   5363.8133      413.89168      4949.9216      305.16941      3249.0191      0.40101743     18421.214      349.06537     -4.3577412     -1.4920538e-13 -1.0742029e-13  349.06537     -5.1325135e-13
     23750   5327.2505      405.26899      4921.9815      298.81175      3411.1022      0.40101743     18421.214      347.41744     -4.3577412     -1.487538e-13  -1.0761379e-13  347.41744     -5.1273519e-13
     24000   5330.6686      414.28332      4916.3852      305.45817      3666.9789      0.40101743     18421.214      355.01392     -4.3577412     -1.4914861e-13 -1.0759112e-13  355.01392     -5.1347946e-13
     24250   5346.0765      404.769        4941.3075      298.4431       2253.1366      0.40101743     18421.214      339.29443     -4.3577412     -1.4857389e-13 -1.0756885e-13  339.29443     -5.1228548e-13
     24500   5355.1777      416.97789      4938.1998      307.44493      3532.4163      0.40101743     18421.214      355.09803     -4.3577412     -1.495011e-13  -1.0765206e-13  355.09803     -5.1430631e-13
     24750   5339.1761      408.58272      4930.5934      301.25502      2653.7252      0.40101743     18421.214      343.69387     -4.3577412     -1.5026897e-13 -1.0764582e-13  343.69387     -5.1582959e-13
     25000   5320.0424      414.52594      4905.5165      305.63706      3471.1095      0.40101743     18421.214      344.89785     -4.3577412     -1.5021789e-13 -1.0761491e-13  344.89785     -5.156656e-13 
     25250   5338.1842      407.83099      4930.3532      300.70076      3707.1598      0.40101743     18421.214      357.86444     -4.3577412     -1.500802e-13  -1.0757119e-13  357.86444     -5.1530279e-13
     25500   5309.3622      386.65598      4922.7062      285.08807      3061.4355      0.40101743     18421.214      341.29313     -4.3577412     -1.4976814e-13 -1.0752817e-13  341.29313     -5.1459263e-13
     25750   5327.3958      391.29789      4936.0979      288.51062      3414.3457      0.40101743     18421.214      345.21235     -4.3577412     -1.4991671e-13 -1.0762149e-13  345.21235     -5.150764e-13 
     26000   5382.807       449.0019       4933.8051      331.05678      3288.1217      0.40101743     18421.214      345.29658     -4.3577412     -1.4985369e-13 -1.0755966e-13  345.29658     -5.148267e-13 
     26250   5336.9818      417.54921      4919.4326      307.86617      2620.6782      0.40101743     18421.214      342.2627      -4.3577412     -1.4882377e-13 -1.0756518e-13  342.2627      -5.127779e-13 
     26500   5328.8863      408.30048      4920.5859      301.04692      3277.0967      0.40101743     18421.214      350.76763     -4.3577412     -1.4945721e-13 -1.0754723e-13  350.76763     -5.1400888e-13
     26750   5335.5859      393.47155      4942.1144      290.1133       3996.1073      0.40101743     18421.214      351.5351      -4.3577412     -1.5138416e-13 -1.0745871e-13  351.5351      -5.1768575e-13
     27000   5364.1137      418.93195      4945.1817      308.88569      4497.4525      0.40101743     18421.214      350.5962      -4.3577412     -1.5056289e-13 -1.0739466e-13  350.5962      -5.159151e-13 
     27250   5341.4774      403.38223      4938.0952      297.42061      3682.2576      0.40101743     18421.214      358.01509     -4.3577412     -1.4757179e-13 -1.0741552e-13  358.01509     -5.0997461e-13
     27500   5317.8213      393.38233      4924.439       290.04752      3679.8258      0.40101743     18421.214      362.20108     -4.3577412     -1.4954079e-13 -1.0737449e-13  362.20108     -5.1383057e-13
     27750   5354.1627      417.00416      4937.1586      307.46429      2007.5892      0.40101743     18421.214      339.79157     -4.3577412     -1.4964433e-13 -1.073278e-13   339.79157     -5.1394425e-13
     28000   5331.9387      405.42107      4926.5177      298.92389      3681.7985      0.40101743     18421.214      351.37478     -4.3577412     -1.5068139e-13 -1.0744923e-13  351.37478     -5.1626123e-13
     28250   5375.734       443.00717      4932.7268      326.63675      2475.891       0.40101743     18421.214      342.95733     -4.3577412     -1.4977816e-13 -1.0760031e-13  342.95733     -5.1475695e-13
     28500   5346.1187      433.3128       4912.8059      319.48893      4078.771       0.40101743     18421.214      347.71997     -4.3577412     -1.4961489e-13 -1.0767606e-13  347.71997     -5.145819e-13 
     28750   5333.3576      408.67737      4924.6802      301.32481      3257.1696      0.40101743     18421.214      349.90229     -4.3577412     -1.4919478e-13 -1.0759997e-13  349.90229     -5.1358951e-13
     29000   5369.5572      431.08689      4938.4703      317.84773      3526.726       0.40101743     18421.214      348.26773     -4.3577412     -1.495137e-13  -1.0756313e-13  348.26773     -5.1415365e-13
     29250   5330.5694      415.43645      4915.133       306.3084       3580.8832      0.40101743     18421.214      342.26416     -4.3577412     -1.5101976e-13 -1.0749048e-13  342.26416     -5.1702048e-13
     29500   5323.7299      396.18404      4927.5458      292.11326      3195.2716      0.40101743     18421.214      356.91142     -4.3577412     -1.4908815e-13 -1.0755912e-13  356.91142     -5.1329455e-13
     29750   5362.4784      423.90452      4938.5739      312.55205      2577.6716      0.40101743     18421.214      345.20373     -4.3577412     -1.4896171e-13 -1.0767291e-13  345.20373     -5.1326924e-13
     30000   5351.7325      427.1003       4924.6322      314.90835      4381.0765      0.40101743     18421.214      357.38702     -4.3577412     -1.4746846e-13 -1.0772827e-13  357.38702     -5.1039345e-13
     30250   5317.1125      400.19895      4916.9136      295.07353      3361.1548      0.40101743     18421.214      344.09841     -4.3577412     -1.4821132e-13 -1.0766062e-13  344.09841     -5.1174388e-13
     30500   5332.0266      412.36497      4919.6616      304.04374      3763.1603      0.40101743     18421.214      349.35767     -4.3577412     -1.4908956e-13 -1.0733674e-13  349.35767     -5.128526e-13 
     30750   5358.8023      421.65783      4937.1445      310.89552      3099.301       0.40101743     18421.214      355.32966     -4.3577412     -1.4817284e-13 -1.0745991e-13  355.32966     -5.1126549e-13
     31000   5346.8335      414.2179       4932.6156      305.40994      2490.5008      0.40101743     18421.214      339.08267     -4.3577412     -1.4948482e-13 -1.0736609e-13  339.08267     -5.1370182e-13
     31250   5337.7398      419.34293      4918.3969      309.18871      4150.4771      0.40101743     18421.214      357.1925      -4.3577412     -1.4836887e-13 -1.0728983e-13  357.1925      -5.1131739e-13
     31500   5373.7296      420.90484      4952.8248      310.34033      3442.5743      0.40101743     18421.214      356.73445     -4.3577412     -1.4809308e-13 -1.074596e-13   356.73445     -5.1110535e-13
     31750   5350.5876      427.50535      4923.0822      315.207        2877.6991      0.40101743     18421.214      351.30066     -4.3577412     -1.4986265e-13 -1.0762031e-13  351.30066     -5.149659e-13 
     32000   5341.6852      402.31661      4939.3686      296.63492      3906.2397      0.40101743     18421.214      361.60846     -4.3577412     -1.5037671e-13 -1.0722535e-13  361.60846     -5.152041e-13 
     32250   5339.8897      402.85697      4937.0327      297.03333      2611.2743      0.40101743     18421.214      348.50894     -4.3577412     -1.4864578e-13 -1.0725749e-13  348.50894     -5.1180654e-13
     32500   5354.5508      414.27801      4940.2728      305.45426      2338.6087      0.40101743     18421.214      345.23842     -4.3577412     -1.4901913e-13 -1.073409e-13   345.23842     -5.1272005e-13
     32750   5334.1289      404.09277      4930.0361      297.9445       3700.9329      0.40101743     18421.214      345.57009     -4.3577412     -1.4896024e-13 -1.0746529e-13  345.57009     -5.1285105e-13
     33000   5312.7094      388.53284      4924.1765      286.47191      2006.3449      0.40101743     18421.214      341.50462     -4.3577412     -1.4869844e-13 -1.0751406e-13  341.50462     -5.1242499e-13
     33250   5329.1774      392.72537      4936.4521      289.56313      4276.7932      0.40101743     18421.214      354.29694     -4.3577412     -1.4956591e-13 -1.0754146e-13  354.29694     -5.1421474e-13
     33500   5336.1932      409.64545      4926.5477      302.03859      2222.3293      0.40101743     18421.214      331.89759     -4.3577412     -1.4937813e-13 -1.073777e-13   331.89759     -5.1351167e-13
     33750   5339.1063      409.21831      4929.888       301.72365      2028.6196      0.40101743     18421.214      353.49713     -4.3577412     -1.4873168e-13 -1.0762567e-13  353.49713     -5.1271471e-13
     34000   5355.2393      438.47628      4916.7631      323.29605      4681.0107      0.40101743     18421.214      363.6751      -4.3577412     -1.4826142e-13 -1.0755055e-13  363.6751      -5.1162395e-13
     34250   5318.2704      390.27818      4927.9922      287.75877      3274.0487      0.40101743     18421.214      350.38132     -4.3577412     -1.5009135e-13 -1.0749138e-13  350.38132     -5.1516547e-13
     34500   5331.6567      404.8733       4926.7834      298.52001      3732.3157      0.40101743     18421.214      360.48374     -4.3577412     -1.4883789e-13 -1.0758012e-13  360.48374     -5.1283602e-13
     34750   5321.2721      413.63144      4907.6406      304.97753      4246.5029      0.40101743     18421.214      345.53876     -4.3577412     -1.4838501e-13 -1.0738221e-13  345.53876     -5.1153445e-13
     35000   5332.974       421.25176      4911.7222      310.59612      3572.2485      0.40101743     18421.214      350.94685     -4.3577412     -1.5118822e-13 -1.0729389e-13  350.94685     -5.1696423e-13
     35250   5327.5513      406.95208      4920.5992      300.05273      3474.327       0.40101743     18421.214      345.76583     -4.3577412     -1.4986038e-13 -1.0736846e-13  345.76583     -5.1445767e-13
     35500   5348.4712      385.52913      4962.9421      284.25722      2993.8338      0.40101743     18421.214      351.41724     -4.3577412     -1.4895282e-13 -1.0727437e-13  351.41724     -5.1245437e-13
     35750   5330.4584      403.90236      4926.556       297.80411      2863.2939      0.40101743     18421.214      347.73674     -4.3577412     -1.4946318e-13 -1.071539e-13   347.73674     -5.1323417e-13
     36000   5332.7887      417.40043      4915.3883      307.75647      2608.558       0.40101743     18421.214      347.53225     -4.3577412     -1.4845632e-13 -1.0723866e-13  347.53225     -5.1138996e-13
     36250   5322.7212      388.0979       4934.6233      286.15122      3055.4677      0.40101743     18421.214      339.94559     -4.3577412     -1.495799e-13  -1.073638e-13   339.94559     -5.1388739e-13
     36500   5352.9835      409.93337      4943.0502      302.25088      4078.4672      0.40101743     18421.214      363.06223     -4.3577412     -1.486154e-13  -1.0739101e-13  363.06223     -5.1201283e-13
     36750   5325.518       393.86075      4931.6573      290.40026      3682.1625      0.40101743     18421.214      354.34784     -4.3577412     -1.4663872e-13 -1.0728251e-13  354.34784     -5.0784245e-13
     37000   5317.4416      388.05677      4929.3848      286.12089      3004.6901      0.40101743     18421.214      351.1001      -4.3577412     -1.4695806e-13 -1.0724451e-13  351.1001      -5.0840513e-13
     37250   5370.6069      420.88273      4949.7242      310.32403      3712.8809      0.40101743     18421.214      347.96284     -4.3577412     -1.4830436e-13 -1.0744371e-13  347.96284     -5.1149614e-13
     37500   5316.899       391.08613      4925.8129      288.35449      3124.4136      0.40101743     18421.214      355.42572     -4.3577412     -1.4906631e-13 -1.0741101e-13  355.42572     -5.1295465e-13
     37750   5343.9949      418.124        4925.8709      308.28997      3142.4089      0.40101743     18421.214      344.65928     -4.3577412     -1.5012955e-13 -1.0738694e-13  344.65928     -5.1503298e-13
     38000   5295.3819      398.75478      4896.6271      294.00872      3956.7723      0.40101743     18421.214      355.53361     -4.3577412     -1.4894077e-13 -1.074943e-13   355.53361     -5.1287015e-13
     38250   5364.1479      438.31058      4925.8373      323.17388      1805.4695      0.40101743     18421.214      346.97667     -4.3577412     -1.4997626e-13 -1.0733559e-13  346.97667     -5.1462372e-13
     38500   5300.9664      402.89488      4898.0715      297.06128      3742.562       0.40101743     18421.214      357.46316     -4.3577412     -1.5015209e-13 -1.0725969e-13  357.46316     -5.1482357e-13
     38750   5337.4754      401.99146      4935.4839      296.39517      3211.2193      0.40101743     18421.214      351.17261     -4.3577412     -1.4764402e-13 -1.0714741e-13  351.17261     -5.0958286e-13
     39000   5323.7238      416.43455      4907.2892      307.04431      3514.842       0.40101743     18421.214      351.70189     -4.3577412     -1.4924539e-13 -1.0712376e-13  351.70189     -5.1273831e-13
     39250   5344.3346      403.64411      4940.6905      297.6137       1810.9289      0.40101743     18421.214      328.17301     -4.3577412     -1.4949679e-13 -1.0741635e-13  328.17301     -5.1382627e-13
     39500   5319.7774      380.10646      4939.671       280.25899      2356.3761      0.40101743     18421.214      344.77739     -4.3577412     -1.512387e-13  -1.0750543e-13  344.77739     -5.1748826e-13
     39750   5341.0437      416.68944      4924.3543      307.23224      4219.1452      0.40101743     18421.214      351.83238     -4.3577412     -1.4738401e-13 -1.0750109e-13  351.83238     -5.097702e-13 
     40000   5311.3135      399.99177      4911.3217      294.92077      2064.7766      0.40101743     18421.214      345.31298     -4.3577412     -1.480722e-13  -1.0760308e-13  345.31298     -5.1135058e-13
     40250   5370.9036      432.4838       4938.4198      318.8777       4430.5164      0.40101743     18421.214      362.06674     -4.3577412     -1.4619317e-13 -1.0773659e-13  362.06674     -5.0785951e-13
     40500   5353.7718      403.95394      4949.8179      297.84215      3059.0471      0.40101743     18421.214      350.41508     -4.3577412     -1.4727154e-13 -1.0776624e-13  350.41508     -5.1007554e-13
     40750   5363.2584      417.22641      4946.032       307.62816      3237.1678      0.40101743     18421.214      353.19717     -4.3577412     -1.4727341e-13 -1.0775437e-13  353.19717     -5.1005557e-13
     41000   5330.6425      404.59076      4926.0517      298.31169      2730.42        0.40101743     18421.214      347.45394     -4.3577412     -1.4644701e-13 -1.0767267e-13  347.45394     -5.0823937e-13
     41250   5347.2331      398.30459      4948.9285      293.67679      3056.8079      0.40101743     18421.214      349.4534      -4.3577412     -1.4786478e-13 -1.0756239e-13  349.4534      -5.1085433e-13
     41500   5307.4054      415.54165      4891.8637      306.38596      4147.9828      0.40101743     18421.214      355.1778      -4.3577412     -1.4910672e-13 -1.0720825e-13  355.1778      -5.1262995e-13
     41750   5324.7522      389.04151      4935.7107      286.84695      3807.7687      0.40101743     18421.214      353.12389     -4.3577412     -1.498779e-13  -1.0674425e-13  353.12389     -5.132443e-13 
     42000   5346.1918      395.18734      4951.0045      291.37838      3675.2966      0.40101743     18421.214      353.73988     -4.3577412     -1.5001047e-13 -1.0718889e-13  353.73988     -5.1439872e-13
     42250   5421.8304      456.0516       4965.7788      336.25464      3569.8146      0.40101743     18421.214      340.58989     -4.3577412     -1.4939646e-13 -1.0731918e-13  340.58989     -5.1343127e-13
     42500   5326.0861      384.88519      4941.2009      283.78243      3246.2654      0.40101743     18421.214      345.28911     -4.3577412     -1.5151628e-13 -1.074297e-13   345.28911     -5.1789197e-13
     42750   5358.0766      427.42576      4930.6509      315.14832      2152.1897      0.40101743     18421.214      335.97779     -4.3577412     -1.4975053e-13 -1.0751586e-13  335.97779     -5.1453278e-13
     43000   5339.4161      413.0495       4926.3666      304.54846      2688.1554      0.40101743     18421.214      349.04937     -4.3577412     -1.4790151e-13 -1.0749152e-13  349.04937     -5.1078606e-13
     43250   5326.3903      379.54842      4946.8419      279.84754      1242.1098      0.40101743     18421.214      336.89453     -4.3577412     -1.4803182e-13 -1.0756037e-13  336.89453     -5.1118438e-13
     43500   5328.2271      394.16031      4934.0668      290.62113      4875.7697      0.40101743     18421.214      358.47515     -4.3577412     -1.4809095e-13 -1.0741059e-13  358.47515     -5.1100308e-13
     43750   5333.7531      401.91879      4931.8343      296.34159      3421.9376      0.40101743     18421.214      348.4087      -4.3577412     -1.4952755e-13 -1.0743467e-13  348.4087      -5.1392443e-13
     44000   5339.4454      410.794        4928.6514      302.88544      4204.3381      0.40101743     18421.214      360.93895     -4.3577412     -1.4804216e-13 -1.0751557e-13  360.93895     -5.1111546e-13
     44250   5325.7517      407.39884      4918.3528      300.38213      3289.834       0.40101743     18421.214      351.37906     -4.3577412     -1.48021e-13   -1.0759347e-13  351.37906     -5.1122894e-13
     44500   5378.4106      446.45989      4931.9507      329.18251      2977.9135      0.40101743     18421.214      346.91668     -4.3577412     -1.4726088e-13 -1.0753783e-13  346.91668     -5.0959741e-13
     44750   5331.7875      396.26978      4935.5177      292.17648      2397.1991      0.40101743     18421.214      343.99415     -4.3577412     -1.4799271e-13 -1.0754517e-13  343.99415     -5.1107577e-13
     45000   5330.591       403.30765      4927.2834      297.36562      1936.2786      0.40101743     18421.214      342.33505     -4.3577412     -1.5041479e-13 -1.0753903e-13  342.33505     -5.1590764e-13
     45250   5320.2634      398.99676      4921.2666      294.18713      4935.5209      0.40101743     18421.214      365.99481     -4.3577412     -1.4956573e-13 -1.0771725e-13  365.99481     -5.1456596e-13
     45500   5326.0013      403.0324       4922.9689      297.16267      3672.1064      0.40101743     18421.214      353.24818     -4.3577412     -1.49244e-13   -1.076719e-13   353.24818     -5.1383181e-13
     45750   5352.0657      422.52887      4929.5369      311.53776      3374.2301      0.40101743     18421.214      353.71733     -4.3577412     -1.4759108e-13 -1.0761488e-13  353.71733     -5.1041193e-13
     46000   5321.2881      394.70332      4926.5848      291.02151      3918.3         0.40101743     18421.214      345.56916     -4.3577412     -1.4902319e-13 -1.0772147e-13  345.56916     -5.134893e-13 
     46250   5343.2399      416.0556       4927.1843      306.76491      3252.3309      0.40101743     18421.214      357.19003     -4.3577412     -1.4983786e-13 -1.0773702e-13  357.19003     -5.1514975e-13
     46500   5359.3403      439.90303      4919.4372      324.34802      3085.1229      0.40101743     18421.214      350.28428     -4.3577412     -1.4932403e-13 -1.077839e-13   350.28428     -5.1421584e-13
     46750   5391.2256      450.20824      4941.0174      331.94623      3795.7835      0.40101743     18421.214      362.11502     -4.3577412     -1.4753654e-13 -1.0772045e-13  362.11502     -5.1051397e-13
     47000   5339.1216      405.37109      4933.7505      298.88703      2949.3414      0.40101743     18421.214      349.93424     -4.3577412     -1.4833972e-13 -1.0744946e-13  349.93424     -5.1157836e-13
     47250   5361.3912      398.75177      4962.6394      294.0065       3617.2701      0.40101743     18421.214      346.04063     -4.3577412     -1.4903593e-13 -1.0740139e-13  346.04063     -5.1287465e-13
     47500   5343.6277      424.34422      4919.2835      312.87625      2343.5022      0.40101743     18421.214      339.84736     -4.3577412     -1.4904561e-13 -1.0742672e-13  339.84736     -5.1294467e-13
     47750   5360.4365      412.56639      4947.8701      304.19225      3492.1206      0.40101743     18421.214      357.73748     -4.3577412     -1.4818035e-13 -1.0749943e-13  357.73748     -5.1135956e-13
     48000   5351.1375      407.37206      4943.7654      300.36238      3319.3682      0.40101743     18421.214      348.45483     -4.3577412     -1.4791469e-13 -1.0744904e-13  348.45483     -5.1072746e-13
     48250   5325.3445      416.65938      4908.6851      307.21008      4704.9146      0.40101743     18421.214      364.00563     -4.3577412     -1.491359e-13  -1.075925e-13   364.00563     -5.1345679e-13
     48500   5358.1236      418.44505      4939.6786      308.52669      3142.293       0.40101743     18421.214      347.57751     -4.3577412     -1.4918081e-13 -1.0752292e-13  347.57751     -5.1340746e-13
     48750   5319.0593      397.58107      4921.4783      293.14331      3008.5791      0.40101743     18421.214      348.38541     -4.3577412     -1.4790864e-13 -1.0735249e-13  348.38541     -5.1052226e-13
     49000   5352.1482      434.59574      4917.5525      320.43487      2932.1372      0.40101743     18421.214      349.23836     -4.3577412     -1.4902307e-13 -1.0738937e-13  349.23836     -5.1282489e-13
     49250   5324.0996      397.90429      4926.1954      293.38163      3468.9215      0.40101743     18421.214      350.02124     -4.3577412     -1.4934303e-13 -1.0733997e-13  350.02124     -5.1336599e-13
     49500   5335.5339      410.20791      4925.326       302.4533       2694.6997      0.40101743     18421.214      346.1742      -4.3577412     -1.5058696e-13 -1.0756241e-13  346.1742      -5.1629873e-13
     49750   5347.4452      416.96504      4930.4802      307.43545      3067.9432      0.40101743     18421.214      351.65903     -4.3577412     -1.5044986e-13 -1.0772728e-13  351.65903     -5.1635428e-13
     50000   5363.6955      429.10802      4934.5875      316.38868      4621.1612      0.40101743     18421.214      355.46559     -4.3577412     -1.4843009e-13 -1.0770797e-13  355.46559     -5.1227613e-13
     50250   5362.9825      411.22172      4951.7608      303.2008       3248.5499      0.40101743     18421.214      354.23427     -4.3577412     -1.4955148e-13 -1.0774632e-13  354.23427     -5.1459562e-13
     50500   5324.5972      399.14142      4925.4558      294.29379      2485.83        0.40101743     18421.214      351.408       -4.3577412     -1.4798622e-13 -1.0761779e-13  351.408       -5.1120801e-13
     50750   5324.6685      395.67024      4928.9983      291.73443      3388.4553      0.40101743     18421.214      351.48916     -4.3577412     -1.5013465e-13 -1.07638e-13    351.48916     -5.155453e-13 
     51000   5330.0364      391.76762      4938.2687      288.85697      2918.9954      0.40101743     18421.214      354.76476     -4.3577412     -1.4819168e-13 -1.0775155e-13  354.76476     -5.1188645e-13
     51250   5336.5916      405.08867      4931.5029      298.6788       2900.1372      0.40101743     18421.214      347.71199     -4.3577412     -1.4632356e-13 -1.0767955e-13  347.71199     -5.0800622e-13
     51500   5362.6542      439.78638      4922.8678      324.26202      2766.1526      0.40101743     18421.214      342.72332     -4.3577412     -1.4753177e-13 -1.0764834e-13  342.72332     -5.1036022e-13
     51750   5353.7358      414.45499      4939.2808      305.58475      4194.2383      0.40101743     18421.214      351.11495     -4.3577412     -1.4949285e-13 -1.0754844e-13  351.11495     -5.1408258e-13
     52000   5315.5494      366.22199      4949.3274      270.02173      3048.5132      0.40101743     18421.214      348.48256     -4.3577412     -1.491411e-13  -1.0762357e-13  348.48256     -5.1352932e-13
     52250   5373.3953      414.85283      4958.5425      305.87808      4354.3253      0.40101743     18421.214      354.20646     -4.3577412     -1.4900223e-13 -1.0760225e-13  354.20646     -5.1320895e-13
     52500   5353.4425      410.33185      4943.1107      302.54468      3078.34        0.40101743     18421.214      352.14505     -4.3577412     -1.4735031e-13 -1.0734815e-13  352.14505     -5.0939691e-13
     52750   5334.8984      404.20412      4930.6943      298.02661      2917.7562      0.40101743     18421.214      353.20261     -4.3577412     -1.4686952e-13 -1.0723617e-13  353.20261     -5.0821138e-13
     53000   5332.7753      415.94273      4916.8326      306.68168      4321.1314      0.40101743     18421.214      353.54808     -4.3577412     -1.4727155e-13 -1.0740829e-13  353.54808     -5.0935968e-13
     53250   5377.9566      407.97716      4969.9794      300.80853      1753.8258      0.40101743     18421.214      349.34939     -4.3577412     -1.4847654e-13 -1.0699602e-13  349.34939     -5.1094511e-13
     53500   5342.272       414.91324      4927.3587      305.92263      3090.1727      0.40101743     18421.214      353.58436     -4.3577412     -1.4963007e-13 -1.071255e-13   353.58436     -5.1351113e-13
     53750   5329.6529      402.5184       4927.1345      296.7837       3581.6787      0.40101743     18421.214      365.00479     -4.3577412     -1.46744e-13   -1.0713229e-13  365.00479     -5.0775258e-13
     54000   5349.6129      408.94192      4940.671       301.51986      3253.6019      0.40101743     18421.214      349.22981     -4.3577412     -1.4848248e-13 -1.0733568e-13  349.22981     -5.1163632e-13
     54250   5322.1686      402.29651      4919.8721      296.6201       4270.0371      0.40101743     18421.214      357.3063      -4.3577412     -1.4807028e-13 -1.0734765e-13  357.3063      -5.1083586e-13
     54500   5299.3594      381.78178      4917.5777      281.49423      3140.3695      0.40101743     18421.214      354.52195     -4.3577412     -1.4796747e-13 -1.0735835e-13  354.52195     -5.1065164e-13
     54750   5333.7744      407.76719      4926.0072      300.65372      3920.1754      0.40101743     18421.214      338.48809     -4.3577412     -1.4883964e-13 -1.0724259e-13  338.48809     -5.1216445e-13
     55000   5330.8416      414.24814      4916.5935      305.43224      3259.5944      0.40101743     18421.214      355.14513     -4.3577412     -1.4784004e-13 -1.0723606e-13  355.14513     -5.1015218e-13
     55250   5336.6018      414.6641       4921.9377      305.73893      2050.7992      0.40101743     18421.214      342.63136     -4.3577412     -1.5040826e-13 -1.0736502e-13  342.63136     -5.1554657e-13
     55500   5346.1875      404.18019      4942.0073      298.00897      3155.4417      0.40101743     18421.214      354.477       -4.3577412     -1.4927475e-13 -1.0740625e-13  354.477       -5.13362e-13  
     55750   5356.2067      428.0285       4928.1782      315.59273      4169.2997      0.40101743     18421.214      361.40883     -4.3577412     -1.4985337e-13 -1.0734977e-13  361.40883     -5.1440629e-13
     56000   5331.6131      406.05023      4925.5628      299.38778      5070.3754      0.40101743     18421.214      361.69106     -4.3577412     -1.485845e-13  -1.0713125e-13  361.69106     -5.1143148e-13
     56250   5307.6084      393.03947      4914.569       289.79472      2910.5998      0.40101743     18421.214      344.16302     -4.3577412     -1.4949205e-13 -1.0700505e-13  344.16302     -5.1299421e-13
     56500   5375.854       420.28448      4955.5695      309.88293      3271.5538      0.40101743     18421.214      356.15939     -4.3577412     -1.4960529e-13 -1.0708407e-13  356.15939     -5.1337872e-13
     56750   5305.327       391.90451      4913.4225      288.95789      4276.8963      0.40101743     18421.214      363.02945     -4.3577412     -1.4876615e-13 -1.072276e-13   363.02945     -5.1198751e-13
     57000   5346.9441      396.38174      4950.5623      292.25903      2439.7081      0.40101743     18421.214      341.36513     -4.3577412     -1.4729522e-13 -1.0737006e-13  341.36513     -5.0933056e-13
     57250   5340.4558      397.34279      4943.113       292.96763      3149.8243      0.40101743     18421.214      345.67177     -4.3577412     -1.4966899e-13 -1.0709499e-13  345.67177     -5.1352797e-13
     57500   5336.23        392.40909      4943.8209      289.32993      2901.9548      0.40101743     18421.214      347.03138     -4.3577412     -1.5029779e-13 -1.0719644e-13  347.03138     -5.1498847e-13
     57750   5338.5311      394.69953      4943.8316      291.01871      4146.2988      0.40101743     18421.214      361.71364     -4.3577412     -1.502468e-13  -1.073264e-13   361.71364     -5.151464e-13 
     58000   5370.7164      411.29417      4959.4222      303.25422      3202.033       0.40101743     18421.214      363.27928     -4.3577412     -1.4840836e-13 -1.0746899e-13  363.27928     -5.1175469e-13
     58250   5353.1963      426.4457       4926.7506      314.4257       3383.9802      0.40101743     18421.214      351.05038     -4.3577412     -1.4978662e-13 -1.073899e-13   351.05038     -5.1435303e-13
     58500   5358.8271      412.02994      4946.7971      303.79672      3106.045       0.40101743     18421.214      341.54307     -4.3577412     -1.5039672e-13 -1.072322e-13   341.54307     -5.1525786e-13
     58750   5334.41        400.03871      4934.3713      294.95538      3719.5287      0.40101743     18421.214      359.27496     -4.3577412     -1.4851057e-13 -1.0728772e-13  359.27496     -5.1159657e-13
     59000   5346.4684      423.44211      4923.0262      312.21111      3883.8296      0.40101743     18421.214      355.93952     -4.3577412     -1.4754532e-13 -1.0741043e-13  355.93952     -5.099115e-13 
     59250   5315.2615      395.16617      4920.0953      291.36277      3917.2187      0.40101743     18421.214      344.90735     -4.3577412     -1.4863872e-13 -1.0698309e-13  344.90735     -5.1124363e-13
     59500   5364.5874      414.26503      4950.3224      305.44469      3113.7019      0.40101743     18421.214      341.70369     -4.3577412     -1.4932328e-13 -1.0691894e-13  341.70369     -5.1248443e-13
     59750   5306.9881      400.08759      4906.9005      294.99142      4140.0997      0.40101743     18421.214      350.49826     -4.3577412     -1.4954791e-13 -1.0729562e-13  350.49826     -5.1368707e-13
     60000   5350.086       416.76258      4933.3234      307.28617      3790.1239      0.40101743     18421.214      342.77483     -4.3577412     -1.5164725e-13 -1.0746662e-13  342.77483     -5.1822773e-13
     60250   5369.3289      421.82277      4947.5061      311.01714      2571.899       0.40101743     18421.214      351.46407     -4.3577412     -1.478856e-13  -1.0742461e-13  351.46407     -5.1062043e-13
     60500   5332.0699      393.61528      4938.4546      290.21928      3275.9164      0.40101743     18421.214      344.98785     -4.3577412     -1.5004927e-13 -1.0739077e-13  344.98785     -5.1488007e-13
     60750   5326.6966      406.11445      4920.5822      299.43512      3018.8204      0.40101743     18421.214      350.31819     -4.3577412     -1.5054243e-13 -1.0725797e-13  350.31819     -5.156008e-13 
     61000   5331.1419      406.0775       4925.0644      299.40788      3066.8126      0.40101743     18421.214      351.31011     -4.3577412     -1.5016326e-13 -1.0714662e-13  351.31011     -5.1461977e-13
     61250   5362.2338      421.80902      4940.4247      311.007        3052.8506      0.40101743     18421.214      344.54763     -4.3577412     -1.5007477e-13 -1.0716965e-13  344.54763     -5.1448885e-13
     61500   5359.5509      400.6955       4958.8554      295.43964      3574.107       0.40101743     18421.214      348.53617     -4.3577412     -1.4934827e-13 -1.0693246e-13  348.53617     -5.1256146e-13
     61750   5338.3719      393.15298      4945.2189      289.87841      1914.0983      0.40101743     18421.214      349.34685     -4.3577412     -1.5113644e-13 -1.0719578e-13  349.34685     -5.1666445e-13
     62000   5360.4756      416.53969      4943.9359      307.12183      2637.2168      0.40101743     18421.214      334.21139     -4.3577412     -1.4988535e-13 -1.0742693e-13  334.21139     -5.1462457e-13
     62250   5335.7115      418.17634      4917.5351      308.32857      2269.0047      0.40101743     18421.214      340.12273     -4.3577412     -1.4862842e-13 -1.0754783e-13  340.12273     -5.1235251e-13
     62500   5351.6089      405.35062      4946.2583      298.87194      3648.5397      0.40101743     18421.214      361.38909     -4.3577412     -1.4783385e-13 -1.075114e-13   361.38909     -5.106905e-13 
     62750   5353.5662      434.29395      4919.2722      320.21235      3265.2378      0.40101743     18421.214      345.62226     -4.3577412     -1.5049241e-13 -1.0759144e-13  345.62226     -5.1616771e-13
     63000   5383.643       429.49589      4954.1471      316.67466      4637.9354      0.40101743     18421.214      363.43218     -4.3577412     -1.4901787e-13 -1.0762992e-13  363.43218     -5.1329557e-13
     63250   5297.183       393.69565      4903.4874      290.27853      3504.4089      0.40101743     18421.214      347.08219     -4.3577412     -1.5090998e-13 -1.0769609e-13  347.08219     -5.1721214e-13
     63500   5299.8261      381.72408      4918.102       281.45169      3001.9678      0.40101743     18421.214      349.74384     -4.3577412     -1.4990813e-13 -1.0754046e-13  349.74384     -5.1489716e-13
     63750   5339.2564      418.77628      4920.4801      308.77091      2608.6483      0.40101743     18421.214      341.78222     -4.3577412     -1.5027897e-13 -1.0747633e-13  341.78222     -5.1551061e-13
     64000   5294.1795      378.20801      4915.9714      278.85923      2127.7096      0.40101743     18421.214      350.26967     -4.3577412     -1.4782093e-13 -1.0748056e-13  350.26967     -5.1060298e-13
     64250   5323.602       397.99892      4925.6031      293.45141      2707.8731      0.40101743     18421.214      342.14378     -4.3577412     -1.4914002e-13 -1.0746669e-13  342.14378     -5.1321342e-13
     64500   5341.5489      405.63126      4935.9177      299.07886      3530.1437      0.40101743     18421.214      338.83907     -4.3577412     -1.4905546e-13 -1.077718e-13   338.83907     -5.1365451e-13
     64750   5332.7407      403.32946      4929.4113      297.38171      4755.8284      0.40101743     18421.214      367.23412     -4.3577412     -1.4883596e-13 -1.076212e-13   367.23412     -5.1291432e-13
     65000   5355.1978      412.46838      4942.7294      304.11999      3704.6686      0.40101743     18421.214      356.42004     -4.3577412     -1.4906759e-13 -1.0764208e-13  356.42004     -5.1341933e-13
     65250   5335.1308      404.73802      4930.3928      298.42026      3679.8861      0.40101743     18421.214      347.5113      -4.3577412     -1.4658796e-13 -1.0771492e-13  347.5113      -5.0860575e-13
     65500   5352.1839      398.7453       4953.4386      294.00173      3684.3011      0.40101743     18421.214      350.941       -4.3577412     -1.4762462e-13 -1.077546e-13   350.941       -5.1075843e-13
     65750   5377.4527      416.76343      4960.6892      307.2868       4103.4377      0.40101743     18421.214      360.91045     -4.3577412     -1.4885485e-13 -1.07788e-13    360.91045     -5.1328572e-13
     66000   5321.0796      398.31889      4922.7607      293.68733      4758.8345      0.40101743     18421.214      359.30229     -4.3577412     -1.4912876e-13 -1.0781135e-13  359.30229     -5.1388022e-13
     66250   5339.7432      406.5274       4933.2158      299.7396       4566.7978      0.40101743     18421.214      367.52818     -4.3577412     -1.4999165e-13 -1.0766075e-13  367.52818     -5.1530481e-13
     66500   5344.6037      415.44566      4929.1581      306.31519      4894.8827      0.40101743     18421.214      358.15776     -4.3577412     -1.5126981e-13 -1.0757997e-13  358.15776     -5.1769956e-13
     66750   5352.2725      430.17348      4922.099       317.17426      2645.4228      0.40101743     18421.214      339.06906     -4.3577412     -1.4969391e-13 -1.0754034e-13  339.06906     -5.1446849e-13
     67000   5343.8017      416.73719      4927.0645      307.26746      1791.3173      0.40101743     18421.214      330.98663     -4.3577412     -1.4942991e-13 -1.0729962e-13  330.98663     -5.1345907e-13
     67250   5344.8795      395.93253      4948.947       291.92782      3933.0431      0.40101743     18421.214      363.11849     -4.3577412     -1.4853852e-13 -1.0718188e-13  363.11849     -5.114408e-13 
     67500   5294.4382      374.85687      4919.5814      276.38838      3249.1122      0.40101743     18421.214      353.31048     -4.3577412     -1.4753313e-13 -1.0740473e-13  353.31048     -5.0987573e-13
     67750   5370.841       400.5259       4970.3151      295.31459      2232.461       0.40101743     18421.214      343.69807     -4.3577412     -1.5031275e-13 -1.0732573e-13  343.69807     -5.1527696e-13
     68000   5333.1902      397.93208      4935.2581      293.40213      2578.4123      0.40101743     18421.214      353.20581     -4.3577412     -1.5018342e-13 -1.0741464e-13  353.20581     -5.151961e-13 
     68250   5352.206       418.61491      4933.591       308.65193      3023.6701      0.40101743     18421.214      348.76983     -4.3577412     -1.4926044e-13 -1.0758985e-13  348.76983     -5.137006e-13 
     68500   5342.8558      404.79655      4938.0592      298.46342      3161.0974      0.40101743     18421.214      348.18303     -4.3577412     -1.489506e-13  -1.0774429e-13  348.18303     -5.1338978e-13
     68750   5346.7566      400.51875      4946.2378      295.30932      4391.2736      0.40101743     18421.214      358.22754     -4.3577412     -1.4777363e-13 -1.0762997e-13  358.22754     -5.108072e-13 
     69000   5399.7175      458.73703      4940.9805      338.23465      3879.1407      0.40101743     18421.214      357.08844     -4.3577412     -1.467341e-13  -1.0761364e-13  357.08844     -5.0869548e-13
     69250   5332.2128      394.62476      4937.588       290.96358      3206.3064      0.40101743     18421.214      365.75786     -4.3577412     -1.4698331e-13 -1.0730728e-13  365.75786     -5.0858119e-13
     69500   5332.0989      405.5981       4926.5008      299.05441      2601.8443      0.40101743     18421.214      347.12282     -4.3577412     -1.4733545e-13 -1.0733894e-13  347.12282     -5.0934879e-13
     69750   5358.7879      409.89655      4948.8914      302.22373      2794.5298      0.40101743     18421.214      334.96357     -4.3577412     -1.4702807e-13 -1.0750988e-13  334.96357     -5.0907591e-13
     70000   5355.7326      406.13933      4949.5933      299.45347      2612.9518      0.40101743     18421.214      348.63826     -4.3577412     -1.4767038e-13 -1.0760447e-13  348.63826     -5.1054969e-13
     70250   5356.0035      406.16801      4949.8355      299.47461      2241.9649      0.40101743     18421.214      349.4231      -4.3577412     -1.4747522e-13 -1.0753444e-13  349.4231      -5.1001932e-13
     70500   5362.2481      425.2942       4936.9539      313.57668      3511.2921      0.40101743     18421.214      371.35336     -4.3577412     -1.4722191e-13 -1.0722827e-13  371.35336     -5.0890037e-13
     70750   5350.6889      424.35528      4926.3336      312.8844       3685.2297      0.40101743     18421.214      353.79572     -4.3577412     -1.4761117e-13 -1.0709031e-13  353.79572     -5.0940296e-13
     71000   5342.8397      411.18686      4931.6528      303.1751       3182.9615      0.40101743     18421.214      348.17021     -4.3577412     -1.484835e-13  -1.0716666e-13  348.17021     -5.1130033e-13
     71250   5366.3439      418.2073       4948.1366      308.35139      3313.1912      0.40101743     18421.214      358.94329     -4.3577412     -1.4850129e-13 -1.0724861e-13  358.94329     -5.114998e-13 
     71500   5346.8862      408.69634      4938.1898      301.3388       2524.5766      0.40101743     18421.214      343.18881     -4.3577412     -1.4813101e-13 -1.0742082e-13  343.18881     -5.1110367e-13
     71750   5363.825       430.46485      4933.3602      317.38909      2303.6336      0.40101743     18421.214      354.69929     -4.3577412     -1.4765664e-13 -1.0742021e-13  354.69929     -5.101537e-13 
     72000   5337.3046      399.18846      4938.1161      294.32848      3261.2141      0.40101743     18421.214      350.42859     -4.3577412     -1.4926359e-13 -1.075589e-13   350.42859     -5.1364498e-13
     72250   5354.1483      411.82275      4942.3255      303.64396      4543.8976      0.40101743     18421.214      358.64807     -4.3577412     -1.4764065e-13 -1.0763515e-13  358.64807     -5.105516e-13 
     72500   5325.2464      416.04333      4909.2031      306.75586      2941.9636      0.40101743     18421.214      340.5603      -4.3577412     -1.4839546e-13 -1.0771439e-13  340.5603      -5.122197e-13 
     72750   5314.3527      408.5337       4905.819       301.21888      4469.5681      0.40101743     18421.214      355.43782     -4.3577412     -1.4874341e-13 -1.0773801e-13  355.43782     -5.1296283e-13
     73000   5383.6229      427.5768       4956.0461      315.25968      2893.8152      0.40101743     18421.214      347.50551     -4.3577412     -1.4930119e-13 -1.0777643e-13  347.50551     -5.1415524e-13
     73250   5353.3381      414.12361      4939.2145      305.34042      4276.6011      0.40101743     18421.214      355.10946     -4.3577412     -1.4940802e-13 -1.0777291e-13  355.10946     -5.1436185e-13
     73500   5350.3892      419.28325      4931.1059      309.1447       2620.9656      0.40101743     18421.214      346.69903     -4.3577412     -1.4833833e-13 -1.0771662e-13  346.69903     -5.1210989e-13
     73750   5365.252       432.53314      4932.7188      318.91408      3036.0068      0.40101743     18421.214      337.21987     -4.3577412     -1.4962694e-13 -1.0776663e-13  337.21987     -5.1478714e-13
     74000   5333.619       423.9494       4909.6696      312.58514      3721.2689      0.40101743     18421.214      341.3358      -4.3577412     -1.4978809e-13 -1.0765955e-13  341.3358      -5.1489529e-13
     74250   5324.8379      393.6807       4931.1572      290.26751      3584.1083      0.40101743     18421.214      354.72838     -4.3577412     -1.4705944e-13 -1.0764398e-13  354.72838     -5.0940684e-13
     74500   5310.6754      390.22981      4920.4456      287.72311      3773.1941      0.40101743     18421.214      355.10899     -4.3577412     -1.4792975e-13 -1.0742373e-13  355.10899     -5.1070697e-13
     74750   5329.654       405.52337      4924.1306      298.99931      3688.3438      0.40101743     18421.214      352.66573     -4.3577412     -1.4916698e-13 -1.072781e-13   352.66573     -5.1289016e-13
     75000   5314.2373      395.21979      4919.0175      291.40231      4162.0077      0.40101743     18421.214      357.76588     -4.3577412     -1.511429e-13  -1.0741392e-13  357.76588     -5.1711363e-13
     75250   5348.9241      411.90801      4937.0161      303.70682      2117.1106      0.40101743     18421.214      343.27402     -4.3577412     -1.4958371e-13 -1.0742428e-13  343.27402     -5.1401599e-13
     75500   5363.1534      419.88141      4943.272       309.58574      2245.3693      0.40101743     18421.214      346.63951     -4.3577412     -1.4946184e-13 -1.0746662e-13  346.63951     -5.1385692e-13
     75750   5314.4348      398.43685      4915.9979      293.7743       3940.8181      0.40101743     18421.214      353.63481     -4.3577412     -1.4860749e-13 -1.0740016e-13  353.63481     -5.1201529e-13
     76000   5361.5087      422.84179      4938.6669      311.76848      2650.6135      0.40101743     18421.214      342.98336     -4.3577412     -1.4923903e-13 -1.0716327e-13  342.98336     -5.1280461e-13
     76250   5367.06        409.57007      4957.49        301.98301      1366.4965      0.40101743     18421.214      344.97849     -4.3577412     -1.5014429e-13 -1.0735751e-13  344.97849     -5.150036e-13 
     76500   5314.8199      398.54973      4916.2702      293.85753      1120.3575      0.40101743     18421.214      355.2627      -4.3577412     -1.4933237e-13 -1.072774e-13   355.2627      -5.1321953e-13
     76750   5333.0655      388.09189      4944.9736      286.14678      2858.6419      0.40101743     18421.214      348.05309     -4.3577412     -1.4861012e-13 -1.0709934e-13  348.05309     -5.114189e-13 
     77000   5333.3436      411.89289      4921.4507      303.69567      1792.0328      0.40101743     18421.214      350.99788     -4.3577412     -1.4795267e-13 -1.071849e-13   350.99788     -5.1027514e-13
     77250   5350.0369      405.77941      4944.2575      299.18809      3838.3973      0.40101743     18421.214      356.23608     -4.3577412     -1.4875393e-13 -1.0707978e-13  356.23608     -5.1166742e-13
     77500   5321.8234      399.84545      4921.978       294.81288      4262.4477      0.40101743     18421.214      351.93229     -4.3577412     -1.4703025e-13 -1.0693812e-13  351.93229     -5.0793675e-13
     77750   5346.6665      424.47877      4922.1878      312.97545      3730.2661      0.40101743     18421.214      357.5541      -4.3577412     -1.4916177e-13 -1.0704893e-13  357.5541      -5.1242139e-13
     78000   5338.6472      419.49931      4919.1479      309.30401      2725.6016      0.40101743     18421.214      342.72307     -4.3577412     -1.4949349e-13 -1.0733415e-13  342.72307     -5.1365527e-13
     78250   5373.7947      436.61805      4937.1767      321.92595      4889.8915      0.40101743     18421.214      353.17565     -4.3577412     -1.5043294e-13 -1.0729319e-13  353.17565     -5.1545227e-13
     78500   5359.2294      447.58651      4911.6429      330.01319      4031.7196      0.40101743     18421.214      350.61056     -4.3577412     -1.5121755e-13 -1.0716314e-13  350.61056     -5.1676138e-13
     78750   5323.1459      400.21349      4922.9324      295.08424      3572.3457      0.40101743     18421.214      350.96124     -4.3577412     -1.4917242e-13 -1.0733369e-13  350.96124     -5.1301221e-13
     79000   5347.3659      442.18927      4905.1766      326.03371      3516.926       0.40101743     18421.214      346.04885     -4.3577412     -1.4870613e-13 -1.0729717e-13  346.04885     -5.1200659e-13
     79250   5332.5022      407.85211      4924.6501      300.71633      3199.4708      0.40101743     18421.214      352.75426     -4.3577412     -1.5006766e-13 -1.0739888e-13  352.75426     -5.1493309e-13
     79500   5345.5712      421.93583      4923.6354      311.1005       3609.1712      0.40101743     18421.214      359.74078     -4.3577412     -1.5038479e-13 -1.0751732e-13  359.74078     -5.1580422e-13
     79750   5374.1753      421.89884      4952.2764      311.07322      2178.5828      0.40101743     18421.214      342.03873     -4.3577412     -1.5134562e-13 -1.0771523e-13  342.03873     -5.1812171e-13
     80000   5395.3725      445.63528      4949.7372      328.57451      3226.7087      0.40101743     18421.214      355.95383     -4.3577412     -1.5052814e-13 -1.0766286e-13  355.95383     -5.1638201e-13
     80250   5362.5977      411.70725      4950.8905      303.55879      3765.7555      0.40101743     18421.214      351.41657     -4.3577412     -1.4885018e-13 -1.0759451e-13  351.41657     -5.128894e-13 
     80500   5336.4826      403.99654      4932.486       297.87356      3495.5249      0.40101743     18421.214      355.21998     -4.3577412     -1.4913747e-13 -1.0749913e-13  355.21998     -5.132732e-13 
     80750   5377.7189      426.65763      4951.0612      314.58196      2408.558       0.40101743     18421.214      346.30394     -4.3577412     -1.4921174e-13 -1.0740968e-13  346.30394     -5.1324284e-13
     81000   5349.3246      416.51674      4932.8079      307.10491      3093.5957      0.40101743     18421.214      350.86006     -4.3577412     -1.4852399e-13 -1.0729296e-13  350.86006     -5.1163391e-13
     81250   5363.9966      443.00705      4920.9895      326.63667      4300.0538      0.40101743     18421.214      355.01923     -4.3577412     -1.4947372e-13 -1.0737501e-13  355.01923     -5.1369746e-13
     81500   5357.2454      414.92101      4942.3244      305.92835      4015.6369      0.40101743     18421.214      343.54702     -4.3577412     -1.4954685e-13 -1.0752226e-13  343.54702     -5.1413823e-13
     81750   5352.9355      406.38992      4946.5456      299.63824      3175.0599      0.40101743     18421.214      347.32892     -4.3577412     -1.5064942e-13 -1.0754989e-13  347.32892     -5.1639863e-13
     82000   5341.5319      400.31405      4941.2178      295.15839      3007.4465      0.40101743     18421.214      347.78313     -4.3577412     -1.5020332e-13 -1.0736292e-13  347.78313     -5.1513247e-13
     82250   5323.808       409.44147      4914.3665      301.88819      3165.1689      0.40101743     18421.214      348.77099     -4.3577412     -1.5030277e-13 -1.0745e-13     348.77099     -5.1550554e-13
     82500   5319.8702      402.98792      4916.8823      297.12988      2794.3121      0.40101743     18421.214      341.23102     -4.3577412     -1.5035874e-13 -1.074158e-13   341.23102     -5.1554909e-13
     82750   5332.7031      402.90898      4929.7942      297.07168      3874.1155      0.40101743     18421.214      353.6007      -4.3577412     -1.4943125e-13 -1.0754357e-13  353.6007      -5.1394966e-13
     83000   5332.1849      411.23497      4920.95        303.21057      3149.2174      0.40101743     18421.214      344.67922     -4.3577412     -1.4881971e-13 -1.0752156e-13  344.67922     -5.1268253e-13
     83250   5347.2534      407.62273      4939.6307      300.5472       4271.0116      0.40101743     18421.214      349.52642     -4.3577412     -1.4798666e-13 -1.0719018e-13  349.52642     -5.1035367e-13
     83500   5304.2376      395.45871      4908.7789      291.57846      1995.4301      0.40101743     18421.214      334.75729     -4.3577412     -1.4939122e-13 -1.0710569e-13  334.75729     -5.1299381e-13
     83750   5311.6577      406.80211      4904.8556      299.94215      2947.9824      0.40101743     18421.214      351.74816     -4.3577412     -1.5062445e-13 -1.0736392e-13  351.74816     -5.1597675e-13
     84000   5334.7498      403.75792      4930.9919      297.69762      3062.6701      0.40101743     18421.214      342.11191     -4.3577412     -1.5053716e-13 -1.0715868e-13  342.11191     -5.1539167e-13
     84250   5303.1212      389.05453      4914.0667      286.85656      3810.822       0.40101743     18421.214      355.92419     -4.3577412     -1.4960147e-13 -1.0745117e-13  355.92419     -5.1410529e-13
     84500   5359.5512      400.30074      4959.2505      295.14858      2668.8139      0.40101743     18421.214      358.1481      -4.3577412     -1.5003021e-13 -1.0735488e-13  358.1481      -5.1477018e-13
     84750   5328.9125      405.03022      4923.8823      298.63571      2417.1081      0.40101743     18421.214      347.58292     -4.3577412     -1.5001451e-13 -1.0724931e-13  347.58292     -5.1452762e-13
     85000   5359.0499      419.88058      4939.1694      309.58513      1971.1193      0.40101743     18421.214      338.39774     -4.3577412     -1.487453e-13  -1.0705601e-13  338.39774     -5.1160261e-13
     85250   5387.0509      426.03081      4961.0201      314.1198       3188.5784      0.40101743     18421.214      349.16923     -4.3577412     -1.4943592e-13 -1.0723566e-13  349.16923     -5.1334317e-13
     85500   5320.9597      404.52695      4916.4327      298.26464      2205.642       0.40101743     18421.214      339.2021      -4.3577412     -1.4907436e-13 -1.0727181e-13  339.2021      -5.1269235e-13
     85750   5329.9765      412.75726      4917.2193      304.33298      2327.6716      0.40101743     18421.214      350.01267     -4.3577412     -1.4830809e-13 -1.073254e-13   350.01267     -5.1126697e-13
     86000   5281.5774      372.81978      4908.7576      274.8864       2102.0142      0.40101743     18421.214      349.56631     -4.3577412     -1.4913946e-13 -1.0737372e-13  349.56631     -5.1302635e-13
     86250   5349.4842      411.32365      4938.1606      303.27596      4013.1574      0.40101743     18421.214      360.53239     -4.3577412     -1.5017395e-13 -1.0699814e-13  360.53239     -5.1434416e-13
     86500   5334.7251      407.94553      4926.7795      300.78521      2300.7044      0.40101743     18421.214      340.22915     -4.3577412     -1.4883157e-13 -1.07054e-13    340.22915     -5.1177115e-13
     86750   5364.4894      420.26286      4944.2265      309.86699      2969.8217      0.40101743     18421.214      347.64333     -4.3577412     -1.4959792e-13 -1.0726671e-13  347.64333     -5.1372925e-13
     87000   5372.098       407.0652       4965.0328      300.13613      2796.0559      0.40101743     18421.214      345.92525     -4.3577412     -1.4938584e-13 -1.0704506e-13  345.92525     -5.128618e-13 
     87250   5347.2297      420.63581      4926.5939      310.14197      2397.4355      0.40101743     18421.214      348.59037     -4.3577412     -1.5075154e-13 -1.0718631e-13  348.59037     -5.1587571e-13
     87500   5373.6087      430.10216      4943.5065      317.12168      4814.905       0.40101743     18421.214      353.62502     -4.3577412     -1.4867426e-13 -1.0720958e-13  353.62502     -5.1176769e-13
     87750   5323.9452      417.2708       4906.6744      307.6609       3708.5951      0.40101743     18421.214      345.56496     -4.3577412     -1.4966805e-13 -1.0732026e-13  345.56496     -5.1397662e-13
     88000   5343.3206      400.77072      4942.5499      295.4951       1844.5257      0.40101743     18421.214      348.42537     -4.3577412     -1.4858258e-13 -1.0724272e-13  348.42537     -5.116506e-13 
     88250   5309.0698      395.6675       4913.4023      291.73241      2819.0577      0.40101743     18421.214      349.33883     -4.3577412     -1.4933237e-13 -1.0719881e-13  349.33883     -5.1306236e-13
     88500   5300.7839      377.77052      4923.0134      278.53666      3677.3938      0.40101743     18421.214      351.59531     -4.3577412     -1.4947758e-13 -1.072756e-13   351.59531     -5.1350635e-13
     88750   5339.2331      412.37452      4926.8586      304.05078      2898.3904      0.40101743     18421.214      351.02646     -4.3577412     -1.4808554e-13 -1.072426e-13   351.02646     -5.1065627e-13
     89000   5358.1208      413.66172      4944.4591      304.99986      2150.3535      0.40101743     18421.214      341.33363     -4.3577412     -1.4856459e-13 -1.0741601e-13  341.33363     -5.1196119e-13
     89250   5328.7777      396.48691      4932.2907      292.33658      2548.9403      0.40101743     18421.214      348.24807     -4.3577412     -1.5134151e-13 -1.0749652e-13  348.24807     -5.1767605e-13
     89500   5336.2187      421.91683      4914.3018      311.08649      3285.9496      0.40101743     18421.214      335.10155     -4.3577412     -1.5090825e-13 -1.0742174e-13  335.10155     -5.1665998e-13
     89750   5309.7243      393.39772      4916.3266      290.05886      4167.044       0.40101743     18421.214      369.15367     -4.3577412     -1.4803021e-13 -1.0752944e-13  369.15367     -5.111193e-13 
     90000   5328.4737      383.66367      4944.81        282.88178      3789.763       0.40101743     18421.214      349.00878     -4.3577412     -1.4935507e-13 -1.0728643e-13  349.00878     -5.1328301e-13
     90250   5337.381       400.94556      4936.4354      295.62401      2642.329       0.40101743     18421.214      347.53114     -4.3577412     -1.4989475e-13 -1.0749094e-13  347.53114     -5.1477139e-13
     90500   5344.1532      399.46457      4944.6886      294.53206      3579.7294      0.40101743     18421.214      349.63981     -4.3577412     -1.4724715e-13 -1.0746185e-13  349.63981     -5.0941801e-13
     90750   5364.3022      406.25741      4958.0448      299.54054      3623.552       0.40101743     18421.214      347.26831     -4.3577412     -1.504615e-13  -1.0735821e-13  347.26831     -5.1563941e-13
     91000   5342.2977      422.79025      4919.5074      311.73048      4224.6855      0.40101743     18421.214      367.45379     -4.3577412     -1.4839762e-13 -1.0730467e-13  367.45379     -5.1140457e-13
     91250   5324.925       403.31836      4921.6066      297.37352      3593.3326      0.40101743     18421.214      352.94882     -4.3577412     -1.4863806e-13 -1.0748772e-13  352.94882     -5.1225157e-13
     91500   5359.786       417.14627      4942.6397      307.56907      3393.69        0.40101743     18421.214      353.99907     -4.3577412     -1.4809492e-13 -1.0725905e-13  353.99907     -5.1070794e-13
     91750   5367.8334      394.01687      4973.8165      290.51537      3714.9542      0.40101743     18421.214      357.58978     -4.3577412     -1.487816e-13  -1.0729097e-13  357.58978     -5.1214515e-13
     92000   5332.2789      405.97079      4926.3081      299.32921      4860.171       0.40101743     18421.214      363.08928     -4.3577412     -1.481406e-13  -1.0730966e-13  363.08928     -5.1090053e-13
     92250   5305.0439      386.26946      4918.7744      284.80307      2796.8624      0.40101743     18421.214      345.53139     -4.3577412     -1.4978781e-13 -1.0730618e-13  345.53139     -5.1418798e-13
     92500   5359.4068      421.66601      4937.7408      310.90155      3466.8231      0.40101743     18421.214      346.78547     -4.3577412     -1.5024042e-13 -1.0722173e-13  346.78547     -5.1492431e-13
     92750   5344.1236      418.06011      4926.0635      308.24286      3738.7978      0.40101743     18421.214      344.37785     -4.3577412     -1.4983578e-13 -1.0725189e-13  344.37785     -5.1417533e-13
     93000   5336.0903      397.37521      4938.7151      292.99153      3983.3813      0.40101743     18421.214      355.55403     -4.3577412     -1.4996826e-13 -1.072589e-13   355.55403     -5.1445431e-13
     93250   5352.1482      433.61424      4918.534       319.71119      3511.3194      0.40101743     18421.214      348.07193     -4.3577412     -1.5053909e-13 -1.0725498e-13  348.07193     -5.1558814e-13
     93500   5332.1076      401.73764      4930.37        296.20803      3345.2239      0.40101743     18421.214      348.7279      -4.3577412     -1.4896441e-13 -1.0736061e-13  348.7279      -5.1265003e-13
     93750   5328.1081      414.09988      4914.0082      305.32292      3111.5715      0.40101743     18421.214      341.20259     -4.3577412     -1.487616e-13  -1.0744546e-13  341.20259     -5.1241412e-13
     94000   5323.6794      401.10949      4922.5699      295.74488      3954.849       0.40101743     18421.214      353.7935      -4.3577412     -1.4744726e-13 -1.075453e-13   353.7935      -5.0998511e-13
     94250   5347.3563      415.03672      4932.3196      306.01367      3573.8421      0.40101743     18421.214      354.43521     -4.3577412     -1.4866957e-13 -1.0769639e-13  354.43521     -5.1273194e-13
     94500   5309.6785      388.55523      4921.1233      286.48841      2506.6584      0.40101743     18421.214      329.85189     -4.3577412     -1.4754995e-13 -1.0740359e-13  329.85189     -5.0990707e-13
     94750   5382.7392      442.95165      4939.7876      326.59582      3943.9825      0.40101743     18421.214      357.34201     -4.3577412     -1.4761632e-13 -1.0747145e-13  357.34201     -5.1017554e-13
     95000   5392.7211      414.9062       4977.8149      305.91743      4441.878       0.40101743     18421.214      357.45013     -4.3577412     -1.4879572e-13 -1.0723369e-13  357.45013     -5.1205882e-13
     95250   5375.6677      416.03566      4959.6321      306.7502       2897.3635      0.40101743     18421.214      344.40362     -4.3577412     -1.4864095e-13 -1.0727534e-13  344.40362     -5.1183257e-13
     95500   5367.6394      424.88061      4942.7588      313.27173      2805.3067      0.40101743     18421.214      344.14075     -4.3577412     -1.4929455e-13 -1.0744052e-13  344.14075     -5.1347015e-13
     95750   5364.7241      417.21822      4947.5059      307.62212      3168.5216      0.40101743     18421.214      339.74868     -4.3577412     -1.499076e-13  -1.0711697e-13  339.74868     -5.1404913e-13
     96000   5343.756       410.77166      4932.9843      302.86897      3699.4996      0.40101743     18421.214      347.02564     -4.3577412     -1.4943445e-13 -1.0710578e-13  347.02564     -5.1308046e-13
     96250   5332.1935      395.47603      4936.7175      291.59124      4328.8088      0.40101743     18421.214      368.54559     -4.3577412     -1.5021109e-13 -1.0738236e-13  368.54559     -5.1518689e-13
     96500   5360.467       427.3055       4933.1615      315.05965      4542.2642      0.40101743     18421.214      359.06651     -4.3577412     -1.4997489e-13 -1.0726854e-13  359.06651     -5.1448685e-13
     96750   5309.2689      387.17819      4922.0907      285.4731       3941.111       0.40101743     18421.214      350.0602      -4.3577412     -1.4958171e-13 -1.0737704e-13  350.0602      -5.1391751e-13
     97000   5340.1192      423.96646      4916.1527      312.59772      3192.1527      0.40101743     18421.214      351.91752     -4.3577412     -1.4976501e-13 -1.0735612e-13  351.91752     -5.1424225e-13
     97250   5325.2994      397.95553      4927.3439      293.41941      4132.1849      0.40101743     18421.214      354.26811     -4.3577412     -1.4980267e-13 -1.0743756e-13  354.26811     -5.1448045e-13
     97500   5333.7882      404.90443      4928.8837      298.54296      2794.5297      0.40101743     18421.214      339.08347     -4.3577412     -1.493593e-13  -1.073978e-13   339.08347     -5.1351419e-13
     97750   5318.4317      393.09143      4925.3402      289.83303      4638.8172      0.40101743     18421.214      358.78964     -4.3577412     -1.4770159e-13 -1.0756057e-13  358.78964     -5.1052432e-13
     98000   5341.8598      401.25962      4940.6002      295.85558      2967.7649      0.40101743     18421.214      350.16689     -4.3577412     -1.4925656e-13 -1.0758568e-13  350.16689     -5.1368448e-13
     98250   5336.4746      403.28522      4933.1894      297.34908      3351.3352      0.40101743     18421.214      350.41822     -4.3577412     -1.4677756e-13 -1.0751177e-13  350.41822     -5.0857864e-13
     98500   5356.5549      416.18633      4940.3686      306.86129      3360.8298      0.40101743     18421.214      357.47311     -4.3577412     -1.5136863e-13 -1.0760352e-13  357.47311     -5.179443e-13 
     98750   5370.8477      427.36818      4943.4795      315.10586      2954.0511      0.40101743     18421.214      353.48973     -4.3577412     -1.4736504e-13 -1.0758243e-13  353.48973     -5.0989493e-13
     99000   5362.8794      410.38664      4952.4927      302.58509      2906.2817      0.40101743     18421.214      346.76842     -4.3577412     -1.4799642e-13 -1.0765663e-13  346.76842     -5.1130611e-13
     99250   5313.2831      403.40261      4909.8805      297.43564      3028.3115      0.40101743     18421.214      346.78947     -4.3577412     -1.491908e-13  -1.0759418e-13  346.78947     -5.1356996e-13
     99500   5298.22        383.65147      4914.5685      282.87279      3251.4354      0.40101743     18421.214      345.07191     -4.3577412     -1.5134541e-13 -1.0755001e-13  345.07191     -5.1779085e-13
     99750   5364.8164      406.4741       4958.3423      299.7003       2043.7332      0.40101743     18421.214      349.74339     -4.3577412     -1.4868298e-13 -1.074079e-13   349.74339     -5.1218175e-13
    100000   5333.9748      394.20299      4939.7718      290.6526       3135.4212      0.40101743     18421.214      344.58598     -4.3577412     -1.4923878e-13 -1.0716887e-13  344.58598     -5.128153e-13 
    100250   5361.3406      414.73116      4946.6094      305.78837      3027.7885      0.40101743     18421.214      340.2692      -4.3577412     -1.4980154e-13 -1.0726796e-13  340.2692      -5.1413901e-13
    100500   5314.8392      375.9226       4938.9166      277.17416      2370.7744      0.40101743     18421.214      347.05592     -4.3577412     -1.4974742e-13 -1.0743304e-13  347.05592     -5.1436091e-13
    100750   5375.9525      412.57253      4963.38        304.19678      3564.4034      0.40101743     18421.214      364.35753     -4.3577412     -1.5074491e-13 -1.0732816e-13  364.35753     -5.1614613e-13
    101000   5373.349       431.3089       4942.0401      318.01143      4999.3758      0.40101743     18421.214      357.04097     -4.3577412     -1.4999966e-13 -1.0726013e-13  357.04097     -5.1451957e-13
    101250   5323.5305      398.97278      4924.5577      294.16945      3060.5364      0.40101743     18421.214      345.70082     -4.3577412     -1.5022713e-13 -1.0750227e-13  345.70082     -5.1545881e-13
    101500   5366.8979      434.21748      4932.6804      320.15597      3339.4871      0.40101743     18421.214      354.34096     -4.3577412     -1.4919557e-13 -1.0769457e-13  354.34096     -5.1378029e-13
    101750   5368.8888      428.73144      4940.1574      316.11102      2613.3326      0.40101743     18421.214      345.20441     -4.3577412     -1.4977994e-13 -1.0771164e-13  345.20441     -5.1498316e-13
    102000   5352.5011      414.52921      4937.9718      305.63947      3069.5596      0.40101743     18421.214      340.45693     -4.3577412     -1.4862923e-13 -1.0762226e-13  340.45693     -5.1250298e-13
    102250   5337.0233      404.73011      4932.2932      298.41443      4054.849       0.40101743     18421.214      350.51287     -4.3577412     -1.4951167e-13 -1.0758443e-13  350.51287     -5.1419221e-13
    102500   5385.2778      422.05397      4963.2238      311.1876       3145.3866      0.40101743     18421.214      343.35573     -4.3577412     -1.4819353e-13 -1.0764528e-13  343.35573     -5.1167763e-13
    102750   5313.7619      385.06613      4928.6958      283.91584      3662.0906      0.40101743     18421.214      345.18851     -4.3577412     -1.4868165e-13 -1.0761096e-13  345.18851     -5.1258522e-13
    103000   5357.4842      409.14973      4948.3344      301.67309      2498.0668      0.40101743     18421.214      337.84562     -4.3577412     -1.4843184e-13 -1.0751281e-13  337.84562     -5.1188929e-13
    103250   5369.6395      434.86259      4934.7769      320.63162      3206.5673      0.40101743     18421.214      353.50218     -4.3577412     -1.4987801e-13 -1.0746218e-13  353.50218     -5.1468039e-13
    103500   5337.1296      436.25725      4900.8723      321.65993      2958.4125      0.40101743     18421.214      343.68464     -4.3577412     -1.4777278e-13 -1.0760111e-13  343.68464     -5.1074778e-13
    103750   5356.3939      411.59458      4944.7993      303.47572      2717.2714      0.40101743     18421.214      352.74479     -4.3577412     -1.5043423e-13 -1.0747079e-13  352.74479     -5.1581005e-13
    104000   5355.4191      425.48299      4929.9361      313.71588      4660.4787      0.40101743     18421.214      352.59304     -4.3577412     -1.5056702e-13 -1.0770604e-13  352.59304     -5.1654612e-13
    104250   5335.7569      397.22913      4938.5278      292.88382      3338.279       0.40101743     18421.214      341.63522     -4.3577412     -1.5267941e-13 -1.0764125e-13  341.63522     -5.2064133e-13
    104500   5376.701       396.46497      4980.236       292.3204       3446.4459      0.40101743     18421.214      361.85951     -4.3577412     -1.4843753e-13 -1.0764468e-13  361.85951     -5.1216442e-13
    104750   5358.052       416.84936      4941.2027      307.35016      5075.3272      0.40101743     18421.214      356.30352     -4.3577412     -1.4928702e-13 -1.0764087e-13  356.30352     -5.1385577e-13
    105000   5319.6926      405.56915      4914.1234      299.03306      3986.6724      0.40101743     18421.214      336.07484     -4.3577412     -1.5005157e-13 -1.0766452e-13  336.07484     -5.1543218e-13
    105250   5328.7631      414.57168      4914.1914      305.67079      2738.2568      0.40101743     18421.214      341.27558     -4.3577412     -1.485655e-13  -1.0757327e-13  341.27558     -5.1227754e-13
    105500   5307.1145      392.68392      4914.4306      289.53257      2245.0722      0.40101743     18421.214      338.28729     -4.3577412     -1.4969173e-13 -1.075664e-13   338.28729     -5.1451626e-13
    105750   5288.7445      380.5926       4908.1519      280.61743      2167.8195      0.40101743     18421.214      342.34035     -4.3577412     -1.493748e-13  -1.074945e-13   342.34035     -5.1373859e-13
    106000   5298.5438      393.45305      4905.0907      290.09966      4874.8096      0.40101743     18421.214      355.95218     -4.3577412     -1.4883113e-13 -1.0764824e-13  355.95218     -5.1295874e-13
    106250   5315.745       394.18245      4921.5625      290.63746      3802.6893      0.40101743     18421.214      350.49519     -4.3577412     -1.4997118e-13 -1.077303e-13   350.49519     -5.1540296e-13
    106500   5375.5108      449.33906      4926.1717      331.30537      3695.9102      0.40101743     18421.214      344.40769     -4.3577412     -1.4895138e-13 -1.0782899e-13  344.40769     -5.1356074e-13
    106750   5321.2063      377.95133      4943.255       278.66997      2774.2797      0.40101743     18421.214      349.90909     -4.3577412     -1.4885382e-13 -1.0780651e-13  349.90909     -5.1332068e-13
    107000   5324.0492      396.11694      4927.9323      292.06379      3111.1912      0.40101743     18421.214      347.40673     -4.3577412     -1.4979579e-13 -1.0779471e-13  347.40673     -5.1518099e-13
    107250   5317.8449      400.35327      4917.4917      295.18731      3000.1835      0.40101743     18421.214      337.05572     -4.3577412     -1.5007092e-13 -1.0776128e-13  337.05572     -5.1566441e-13
    107500   5407.2269      431.5671       4975.6598      318.2018       3029.529       0.40101743     18421.214      355.03502     -4.3577412     -1.5062702e-13 -1.0779183e-13  355.03502     -5.1683769e-13
    107750   5317.4862      416.16897      4901.3172      306.8485       3507.827       0.40101743     18421.214      345.92132     -4.3577412     -1.502107e-13  -1.0777754e-13  345.92132     -5.1597649e-13
    108000   5351.3512      391.27673      4960.0745      288.49502      2850.7752      0.40101743     18421.214      356.10906     -4.3577412     -1.5025629e-13 -1.0773774e-13  356.10906     -5.1598806e-13
    108250   5316.4413      377.58186      4938.8595      278.39756      3302.2479      0.40101743     18421.214      352.25936     -4.3577412     -1.5067334e-13 -1.0776077e-13  352.25936     -5.1686821e-13
    108500   5335.6769      409.87358      4925.8033      302.2068       3704.9668      0.40101743     18421.214      358.52317     -4.3577412     -1.4815514e-13 -1.078166e-13   358.52317     -5.1194347e-13
    108750   5344.1005      395.20492      4948.8956      291.39134      2322.2647      0.40101743     18421.214      343.5283      -4.3577412     -1.4904984e-13 -1.0782847e-13  343.5283      -5.137566e-13 
    109000   5361.3981      396.91917      4964.4789      292.65529      3968.2904      0.40101743     18421.214      356.78172     -4.3577412     -1.472755e-13  -1.077862e-13   356.78172     -5.101234e-13 
    109250   5299.441       382.30451      4917.1364      281.87965      3260.8216      0.40101743     18421.214      352.90854     -4.3577412     -1.4937065e-13 -1.078514e-13   352.90854     -5.1444411e-13
    109500   5365.729       426.18479      4939.5442      314.23333      3982.1557      0.40101743     18421.214      365.74478     -4.3577412     -1.4697845e-13 -1.0770569e-13  365.74478     -5.0936828e-13
    109750   5308.9918      384.61837      4924.3734      283.5857       3795.645       0.40101743     18421.214      345.12281     -4.3577412     -1.483034e-13  -1.0779667e-13  345.12281     -5.1220016e-13
    110000   5334.9095      402.68348      4932.226       296.90541      4164.8151      0.40101743     18421.214      358.72524     -4.3577412     -1.4927328e-13 -1.0767387e-13  358.72524     -5.138943e-13 
    110250   5352.6497      437.52636      4915.1233      322.59566      2457.7352      0.40101743     18421.214      348.01266     -4.3577412     -1.4930013e-13 -1.0774602e-13  348.01266     -5.140923e-13 
    110500   5327.7526      403.7843       4923.9683      297.71706      3368.6507      0.40101743     18421.214      344.78806     -4.3577412     -1.4899985e-13 -1.0769003e-13  344.78806     -5.1337976e-13
    110750   5306.8159      397.92558      4908.8903      293.39733      3155.722       0.40101743     18421.214      348.18039     -4.3577412     -1.4964926e-13 -1.0750803e-13  348.18039     -5.1431458e-13
    111000   5332.8704      404.55076      4928.3197      298.28219      3055.9318      0.40101743     18421.214      345.73566     -4.3577412     -1.5017332e-13 -1.0746446e-13  345.73566     -5.1527558e-13
    111250   5384.5784      413.41855      4971.1598      304.82056      3249.7525      0.40101743     18421.214      351.00018     -4.3577412     -1.4972641e-13 -1.0773364e-13  351.00018     -5.149201e-13 
    111500   5307.7587      380.37783      4927.3809      280.45907      3409.4641      0.40101743     18421.214      352.55756     -4.3577412     -1.4869931e-13 -1.0765621e-13  352.55756     -5.1271104e-13
    111750   5326.0507      397.08349      4928.9672      292.77644      4290.7373      0.40101743     18421.214      351.5127      -4.3577412     -1.4831701e-13 -1.0770957e-13  351.5127      -5.1205315e-13
    112000   5338.0706      398.9471       4939.1235      294.15051      2934.6515      0.40101743     18421.214      358.79507     -4.3577412     -1.4722288e-13 -1.0787437e-13  358.79507     -5.101945e-13 
    112250   5294.1599      371.51598      4922.644       273.92508      3111.1311      0.40101743     18421.214      358.97073     -4.3577412     -1.4815467e-13 -1.078404e-13   358.97073     -5.1199015e-13
    112500   5342.5284      404.70545      4937.823       298.39624      4653.5135      0.40101743     18421.214      352.82894     -4.3577412     -1.4774229e-13 -1.0787579e-13  352.82894     -5.1123615e-13
    112750   5352.5709      407.24844      4945.3225      300.27123      2960.3052      0.40101743     18421.214      353.57293     -4.3577412     -1.5052726e-13 -1.0788335e-13  353.57293     -5.1682123e-13
    113000   5315.0745      372.99088      4942.0836      275.01255      2501.8993      0.40101743     18421.214      349.28885     -4.3577412     -1.487326e-13  -1.0786106e-13  349.28885     -5.1318733e-13
    113250   5286.4079      382.24224      4904.1657      281.83373      4094.6316      0.40101743     18421.214      354.16921     -4.3577412     -1.4780189e-13 -1.0768563e-13  354.16921     -5.1097505e-13
    113500   5322.8638      396.2666       4926.5972      292.17413      2413.1781      0.40101743     18421.214      343.0139      -4.3577412     -1.4841706e-13 -1.0765216e-13  343.0139      -5.1213843e-13
    113750   5375.6672      409.05249      4966.6147      301.6014       3366.0339      0.40101743     18421.214      356.50918     -4.3577412     -1.4967367e-13 -1.0769998e-13  356.50918     -5.1474729e-13
    114000   5327.7885      413.31989      4914.4686      304.74782      3434.2339      0.40101743     18421.214      355.26563     -4.3577412     -1.4826115e-13 -1.0780122e-13  355.26563     -5.1212475e-13
    114250   5344.9363      417.16413      4927.7721      307.58224      3759.3912      0.40101743     18421.214      357.4463      -4.3577412     -1.4828217e-13 -1.0769601e-13  357.4463      -5.1195637e-13
    114500   5375.595       429.63511      4945.9599      316.77731      4243.8881      0.40101743     18421.214      351.10654     -4.3577412     -1.494512e-13  -1.0765839e-13  351.10654     -5.1421919e-13
    114750   5323.9076      411.68514      4912.2224      303.54249      3063.8319      0.40101743     18421.214      345.9113      -4.3577412     -1.4809019e-13 -1.0761945e-13  345.9113      -5.1141928e-13
    115000   5324.5084      422.88892      4901.6195      311.80323      3596.3856      0.40101743     18421.214      346.97695     -4.3577412     -1.4959492e-13 -1.0756986e-13  346.97695     -5.1432957e-13
    115250   5333.7059      406.72693      4926.9789      299.88672      4150.5174      0.40101743     18421.214      349.27917     -4.3577412     -1.4978605e-13 -1.0748091e-13  349.27917     -5.1453392e-13
    115500   5321.5445      398.11617      4923.4283      293.53786      3478.2223      0.40101743     18421.214      347.87039     -4.3577412     -1.4863934e-13 -1.0749126e-13  347.87039     -5.1226119e-13
    115750   5339.1121      397.45692      4941.6551      293.05178      5170.3198      0.40101743     18421.214      364.95056     -4.3577412     -1.481474e-13  -1.0754286e-13  364.95056     -5.1138052e-13
    116000   5354.9998      414.54415      4940.4557      305.65049      3910.3267      0.40101743     18421.214      353.24606     -4.3577412     -1.4932592e-13 -1.0756718e-13  353.24606     -5.137862e-13 
    116250   5359.2563      418.85766      4940.3986      308.83091      3547.1455      0.40101743     18421.214      348.76222     -4.3577412     -1.5199742e-13 -1.0743278e-13  348.76222     -5.1886039e-13
    116500   5329.2639      405.46415      4923.7998      298.95565      2160.3455      0.40101743     18421.214      335.95078     -4.3577412     -1.5070487e-13 -1.0747709e-13  335.95078     -5.1636393e-13
    116750   5307.5448      400.52841      4907.0164      295.31644      3302.0948      0.40101743     18421.214      360.90456     -4.3577412     -1.4846328e-13 -1.0737372e-13  360.90456     -5.1167401e-13
    117000   5331.6615      410.31444      4921.347       302.53185      2308.2213      0.40101743     18421.214      344.31284     -4.3577412     -1.498488e-13  -1.0735766e-13  344.31284     -5.1441291e-13
    117250   5364.1379      407.31677      4956.8212      300.32162      5028.4501      0.40101743     18421.214      368.89261     -4.3577412     -1.4855218e-13 -1.0738514e-13  368.89261     -5.1187464e-13
    117500   5335.1346      395.20854      4939.926       291.39401      2865.6497      0.40101743     18421.214      350.75651     -4.3577412     -1.4907616e-13 -1.0721526e-13  350.75651     -5.1258283e-13
    117750   5335.9685      391.29327      4944.6752      288.50721      3376.7571      0.40101743     18421.214      361.23229     -4.3577412     -1.4948936e-13 -1.069524e-13   361.23229     -5.1288352e-13
    118000   5328.4644      403.13015      4925.3343      297.23475      4419.7709      0.40101743     18421.214      364.51403     -4.3577412     -1.4682938e-13 -1.0694772e-13  364.51403     -5.0755421e-13
    118250   5313.5097      392.16895      4921.3408      289.15287      2801.9562      0.40101743     18421.214      334.12006     -4.3577412     -1.4856498e-13 -1.0675733e-13  334.12006     -5.1064463e-13
    118500   5342.6209      403.00258      4939.6184      297.14069      2719.8176      0.40101743     18421.214      359.59395     -4.3577412     -1.4662446e-13 -1.0703005e-13  359.59395     -5.0730903e-13
    118750   5325.1594      398.93129      4926.2281      294.13886      3853.4455      0.40101743     18421.214      355.73527     -4.3577412     -1.4736206e-13 -1.0718196e-13  355.73527     -5.0908806e-13
    119000   5331.1442      394.2415       4936.9027      290.681        3921.1264      0.40101743     18421.214      369.22573     -4.3577412     -1.478629e-13  -1.072702e-13   369.22573     -5.102662e-13 
    119250   5345.3337      411.23719      4934.0965      303.21221      3462.3049      0.40101743     18421.214      346.10603     -4.3577412     -1.4993879e-13 -1.0723891e-13  346.10603     -5.1435541e-13
    119500   5368.2202      409.05969      4959.1605      301.6067       3005.1979      0.40101743     18421.214      348.60009     -4.3577412     -1.4860126e-13 -1.0719005e-13  348.60009     -5.1158263e-13
    119750   5332.3745      410.21102      4922.1635      302.4556       2732.5039      0.40101743     18421.214      341.29551     -4.3577412     -1.4672133e-13 -1.0738155e-13  341.29551     -5.0820577e-13
    120000   5328.5592      405.19584      4923.3633      298.75782      3371.0628      0.40101743     18421.214      346.69603     -4.3577412     -1.4797491e-13 -1.07593e-13    346.69603     -5.1113582e-13
    120250   5321.9844      418.17565      4903.8088      308.32805      2678.0316      0.40101743     18421.214      336.73278     -4.3577412     -1.4820677e-13 -1.0771539e-13  336.73278     -5.1184432e-13
    120500   5384.1811      454.50686      4929.6743      335.11568      3012.971       0.40101743     18421.214      345.99182     -4.3577412     -1.4726579e-13 -1.0762403e-13  345.99182     -5.0977965e-13
    120750   5363.5016      448.38415      4915.1175      330.6013       2034.4858      0.40101743     18421.214      333.04136     -4.3577412     -1.4799694e-13 -1.07587e-13    333.04136     -5.1116788e-13
    121000   5351.991       408.98707      4943.0039      301.55316      1639.7141      0.40101743     18421.214      338.85619     -4.3577412     -1.4655713e-13 -1.0745335e-13  338.85619     -5.0802097e-13
    121250   5357.8088      426.89103      4930.9178      314.75405      2356.4392      0.40101743     18421.214      340.35471     -4.3577412     -1.4924731e-13 -1.0763308e-13  340.35471     -5.1376078e-13
    121500   5359.4818      422.93597      4936.5458      311.83792      2836.5057      0.40101743     18421.214      349.3926      -4.3577412     -1.4769562e-13 -1.0752976e-13  349.3926      -5.1045075e-13
    121750   5340.1385      385.25832      4954.8802      284.05755      2933.5834      0.40101743     18421.214      347.16474     -4.3577412     -1.4989954e-13 -1.0766898e-13  347.16474     -5.1513704e-13
    122000   5372.6204      411.56399      4961.0565      303.45316      2987.5532      0.40101743     18421.214      341.70101     -4.3577412     -1.5082895e-13 -1.0763088e-13  341.70101     -5.1691967e-13
    122250   5361.7966      392.13534      4969.6613      289.12809      2056.3085      0.40101743     18421.214      330.28805     -4.3577412     -1.5034108e-13 -1.0746256e-13  330.28805     -5.156073e-13 
    122500   5333.951       392.39317      4941.5579      289.31819      4146.7973      0.40101743     18421.214      363.14451     -4.3577412     -1.4844632e-13 -1.0734553e-13  363.14451     -5.1158371e-13
    122750   5357.1157      407.73382      4949.3819      300.62911      3844.4044      0.40101743     18421.214      356.11735     -4.3577412     -1.4962192e-13 -1.0745178e-13  356.11735     -5.1414738e-13
    123000   5362.0401      422.3078       4939.7323      311.37476      1429.3139      0.40101743     18421.214      338.49684     -4.3577412     -1.4827829e-13 -1.0776596e-13  338.49684     -5.120885e-13 
    123250   5374.5084      425.22824      4949.2802      313.52805      1915.4136      0.40101743     18421.214      342.34095     -4.3577412     -1.4959099e-13 -1.0774767e-13  342.34095     -5.1467734e-13
    123500   5333.0221      404.3808       4928.6413      298.15687      2302.0909      0.40101743     18421.214      351.77968     -4.3577412     -1.4650222e-13 -1.0771351e-13  351.77968     -5.0843145e-13
    123750   5333.303       387.64009      4945.6629      285.81366      2981.5875      0.40101743     18421.214      357.091       -4.3577412     -1.4880831e-13 -1.0767197e-13  357.091       -5.1296056e-13
    124000   5328.312       405.3516       4922.9604      298.87266      2680.2072      0.40101743     18421.214      343.17467     -4.3577412     -1.4913556e-13 -1.075859e-13   343.17467     -5.1344292e-13
    124250   5358.1698      418.60926      4939.5606      308.64776      3274.045       0.40101743     18421.214      355.20375     -4.3577412     -1.4979177e-13 -1.0769553e-13  355.20375     -5.149746e-13 
    124500   5341.1703      394.87674      4946.2936      291.14937      3249.3936      0.40101743     18421.214      347.30977     -4.3577412     -1.4843177e-13 -1.0772934e-13  347.30977     -5.1232223e-13
    124750   5315.3856      395.78497      4919.6006      291.81902      3639.1102      0.40101743     18421.214      348.76245     -4.3577412     -1.4922857e-13 -1.077834e-13   348.76245     -5.1402394e-13
    125000   5354.8894      411.06994      4943.8195      303.08889      3532.9888      0.40101743     18421.214      362.77296     -4.3577412     -1.4845947e-13 -1.0766737e-13  362.77296     -5.1225368e-13
    125250   5371.23        407.78573      4963.4443      300.66739      3554.4254      0.40101743     18421.214      355.80843     -4.3577412     -1.4913547e-13 -1.0742917e-13  355.80843     -5.1312927e-13
    125500   5345.19        415.10472      4930.0853      306.06381      3658.4         0.40101743     18421.214      362.79407     -4.3577412     -1.4840898e-13 -1.0742507e-13  362.79407     -5.1166812e-13
    125750   5352.477       422.06904      4930.408       311.19872      2573.7364      0.40101743     18421.214      341.10312     -4.3577412     -1.4676873e-13 -1.0730436e-13  341.10312     -5.0814618e-13
    126000   5366.8135      402.39707      4964.4165      296.69423      3333.2613      0.40101743     18421.214      357.84036     -4.3577412     -1.4892059e-13 -1.0733674e-13  357.84036     -5.1251467e-13
    126250   5331.6882      402.45135      4929.2368      296.73426      3108.4395      0.40101743     18421.214      354.75945     -4.3577412     -1.4861917e-13 -1.0736724e-13  354.75945     -5.1197283e-13
    126500   5380.9154      406.58835      4974.327       299.78454      4057.0162      0.40101743     18421.214      359.09946     -4.3577412     -1.4842716e-13 -1.0730596e-13  359.09946     -5.1146624e-13
    126750   5291.1531      375.98683      4915.1663      277.22151      4711.745       0.40101743     18421.214      347.93334     -4.3577412     -1.4973227e-13 -1.0739639e-13  347.93334     -5.1425731e-13
    127000   5310.7399      378.88843      4931.8514      279.36091      4124.712       0.40101743     18421.214      355.19244     -4.3577412     -1.4790184e-13 -1.0749894e-13  355.19244     -5.1080156e-13
    127250   5375.3944      420.05475      4955.3397      309.71355      2315.7186      0.40101743     18421.214      346.31268     -4.3577412     -1.4858298e-13 -1.0750838e-13  346.31268     -5.1218271e-13
    127500   5374.4887      428.34217      4946.1465      315.824        2876.3411      0.40101743     18421.214      352.49333     -4.3577412     -1.4881703e-13 -1.0753243e-13  352.49333     -5.1269891e-13
    127750   5325.8605      393.69742      4932.1631      290.27983      3409.8008      0.40101743     18421.214      338.48845     -4.3577412     -1.4911123e-13 -1.0745834e-13  338.48845     -5.1313914e-13
    128000   5335.8095      405.97823      4929.8313      299.33469      3082.7895      0.40101743     18421.214      348.45618     -4.3577412     -1.488932e-13  -1.0722897e-13  348.45618     -5.1224434e-13
    128250   5374.8605      422.22072      4952.6398      311.31056      3852.2471      0.40101743     18421.214      359.13353     -4.3577412     -1.4886409e-13 -1.0715497e-13  359.13353     -5.1203812e-13
    128500   5368.9522      409.91615      4959.0361      302.23818      4390.6393      0.40101743     18421.214      351.72086     -4.3577412     -1.4878707e-13 -1.0715223e-13  351.72086     -5.1187859e-13
    128750   5362.7069      411.3806       4951.3263      303.31795      4640.2433      0.40101743     18421.214      365.15379     -4.3577412     -1.4687371e-13 -1.0752626e-13  365.15379     -5.0879993e-13
    129000   5373.5264      433.2145       4940.3119      319.41645      4428.4384      0.40101743     18421.214      361.4754      -4.3577412     -1.491742e-13  -1.0757762e-13  361.4754      -5.1350364e-13
    129250   5411.7484      456.9078       4954.8406      336.88593      4422.9518      0.40101743     18421.214      350.92983     -4.3577412     -1.5026506e-13 -1.0741573e-13  350.92983     -5.1536158e-13
    129500   5322.7997      410.21616      4912.5835      302.45939      3942.398       0.40101743     18421.214      357.43565     -4.3577412     -1.4915933e-13 -1.0707357e-13  357.43565     -5.1246579e-13
    129750   5362.2679      428.80903      4933.4589      316.16822      2453.3322      0.40101743     18421.214      338.51024     -4.3577412     -1.4915282e-13 -1.0693596e-13  338.51024     -5.1217756e-13
    130000   5360.7099      437.09487      4923.615       322.27752      3854.6841      0.40101743     18421.214      348.14887     -4.3577412     -1.509139e-13  -1.0668273e-13  348.14887     -5.1519326e-13
    130250   5349.0701      396.19922      4952.8709      292.12446      3544.2572      0.40101743     18421.214      358.21981     -4.3577412     -1.4870318e-13 -1.0667987e-13  358.21981     -5.107661e-13 
    130500   5350.5035      416.85815      4933.6453      307.35664      3486.4913      0.40101743     18421.214      349.90246     -4.3577412     -1.4613287e-13 -1.0670734e-13  349.90246     -5.0568042e-13
    130750   5351.6888      402.53444      4949.1543      296.79552      2711.0276      0.40101743     18421.214      339.89048     -4.3577412     -1.4931375e-13 -1.0703747e-13  339.89048     -5.1270244e-13
    131000   5354.3877      422.74151      4931.6462      311.69454      1732.9864      0.40101743     18421.214      349.03606     -4.3577412     -1.4890033e-13 -1.0735589e-13  349.03606     -5.1251244e-13
    131250   5311.3647      402.53262      4908.8321      296.79418      2759.3672      0.40101743     18421.214      337.47329     -4.3577412     -1.5046571e-13 -1.0732253e-13  337.47329     -5.1557648e-13
    131500   5355.6669      423.83558      4931.8313      312.50121      3027.605       0.40101743     18421.214      350.70917     -4.3577412     -1.4802047e-13 -1.0744488e-13  350.70917     -5.109307e-13 
    131750   5319.7687      410.22076      4909.5479      302.46278      3637.8692      0.40101743     18421.214      353.45499     -4.3577412     -1.4814567e-13 -1.0739694e-13  353.45499     -5.1108523e-13
    132000   5319.3995      400.33339      4919.0662      295.17265      3509.2025      0.40101743     18421.214      350.3357      -4.3577412     -1.4889692e-13 -1.0709554e-13  350.3357      -5.1198493e-13
    132250   5347.7031      398.43836      4949.2647      293.77542      3570.0751      0.40101743     18421.214      357.88028     -4.3577412     -1.4889774e-13 -1.0712537e-13  357.88028     -5.1204621e-13
    132500   5343.0698      397.31033      4945.7595      292.94369      2629.6949      0.40101743     18421.214      347.06466     -4.3577412     -1.5033503e-13 -1.0718516e-13  347.06466     -5.1504038e-13
    132750   5324.356       400.955        4923.401       295.63097      3629.3903      0.40101743     18421.214      352.03062     -4.3577412     -1.495977e-13  -1.0714018e-13  352.03062     -5.1347575e-13
    133000   5354.5345      424.63833      4929.8962      313.0931       3610.6365      0.40101743     18421.214      356.26156     -4.3577412     -1.4883284e-13 -1.0715317e-13  356.26156     -5.1197203e-13
    133250   5368.8324      431.46023      4937.3722      318.123        3369.3485      0.40101743     18421.214      353.37118     -4.3577412     -1.4838256e-13 -1.0728781e-13  353.37118     -5.1134075e-13
    133500   5371.4979      428.80161      4942.6962      316.16276      4067.9878      0.40101743     18421.214      359.15025     -4.3577412     -1.4698759e-13 -1.0727415e-13  359.15025     -5.0852347e-13
    133750   5361.9908      429.92474      4932.0661      316.99086      3434.2604      0.40101743     18421.214      356.1301      -4.3577412     -1.487385e-13  -1.0750947e-13  356.1301      -5.1249593e-13
    134000   5347.813       399.19537      4948.6176      294.33357      1960.3598      0.40101743     18421.214      341.54146     -4.3577412     -1.4929829e-13 -1.0757212e-13  341.54146     -5.1374082e-13
    134250   5348.8826      417.70483      4931.1778      307.98091      2837.6612      0.40101743     18421.214      351.37562     -4.3577412     -1.4983091e-13 -1.0744529e-13  351.37562     -5.145524e-13 
    134500   5337.3327      423.77925      4913.5535      312.45968      3075.0208      0.40101743     18421.214      342.36612     -4.3577412     -1.5039811e-13 -1.0771635e-13  342.36612     -5.1622892e-13
    134750   5373.1937      435.935        4937.2587      321.42233      3604.9435      0.40101743     18421.214      354.13848     -4.3577412     -1.4772754e-13 -1.0768096e-13  354.13848     -5.10817e-13  
    135000   5361.938       417.30578      4944.6322      307.68669      2241.2677      0.40101743     18421.214      348.09853     -4.3577412     -1.4804693e-13 -1.077631e-13   348.09853     -5.1162006e-13
    135250   5322.2896      404.31646      4917.9732      298.10944      3505.5373      0.40101743     18421.214      353.07424     -4.3577412     -1.4908284e-13 -1.077274e-13   353.07424     -5.1362047e-13
    135500   5322.2566      397.91832      4924.3383      293.39198      3283.4959      0.40101743     18421.214      346.32888     -4.3577412     -1.4837754e-13 -1.0759619e-13  346.32888     -5.1194746e-13
    135750   5346.7521      414.38586      4932.3663      305.53378      2747.8512      0.40101743     18421.214      351.00713     -4.3577412     -1.4908242e-13 -1.0760855e-13  351.00713     -5.1338193e-13
    136000   5305.3551      400.42251      4904.9326      295.23836      3629.5775      0.40101743     18421.214      347.64409     -4.3577412     -1.5044797e-13 -1.074785e-13   347.64409     -5.1585294e-13
    136250   5363.9405      451.59024      4912.3502      332.96521      4070.4217      0.40101743     18421.214      354.624       -4.3577412     -1.4873561e-13 -1.073783e-13   354.624       -5.1222783e-13
    136500   5331.0401      403.0439       4927.9962      297.17116      4120.7976      0.40101743     18421.214      352.26669     -4.3577412     -1.4897665e-13 -1.0739142e-13  352.26669     -5.1273613e-13
    136750   5354.9087      421.08991      4933.8188      310.47679      3650.8333      0.40101743     18421.214      359.60475     -4.3577412     -1.4986207e-13 -1.0755808e-13  359.60475     -5.1484031e-13
    137000   5351.2043      414.84253      4936.3618      305.87049      3287.1007      0.40101743     18421.214      343.70661     -4.3577412     -1.4807421e-13 -1.0758236e-13  343.70661     -5.1131314e-13
    137250   5339.7793      406.88437      4932.8949      300.0028       4280.4703      0.40101743     18421.214      352.60084     -4.3577412     -1.4965539e-13 -1.0759313e-13  352.60084     -5.1449705e-13
    137500   5352.4065      422.57163      4929.8349      311.56928      2873.1725      0.40101743     18421.214      353.69633     -4.3577412     -1.503893e-13  -1.0748774e-13  353.69633     -5.157541e-13 
    137750   5360.2419      444.10008      4916.1419      327.44258      2357.4929      0.40101743     18421.214      350.01401     -4.3577412     -1.4888296e-13 -1.0706052e-13  350.01401     -5.1188696e-13
    138000   5367.744       416.16658      4951.5775      306.84673      3423.2505      0.40101743     18421.214      352.49691     -4.3577412     -1.5033255e-13 -1.0719851e-13  352.49691     -5.1506211e-13
    138250   5366.3525      411.17009      4955.1824      303.16273      2882.2564      0.40101743     18421.214      350.48403     -4.3577412     -1.5187107e-13 -1.0760188e-13  350.48403     -5.189459e-13 
    138500   5357.3274      400.04794      4957.2794      294.96219      4221.8043      0.40101743     18421.214      359.29481     -4.3577412     -1.5004227e-13 -1.0748565e-13  359.29481     -5.1505585e-13
    138750   5384.1252      424.00453      4960.1207      312.62579      2423.7359      0.40101743     18421.214      349.86658     -4.3577412     -1.4937749e-13 -1.0759767e-13  349.86658     -5.1395032e-13
    139000   5365.7945      419.53705      4946.2574      309.33184      3196.1264      0.40101743     18421.214      346.69792     -4.3577412     -1.4986144e-13 -1.0748951e-13  346.69792     -5.1470191e-13
    139250   5363.7336      463.37843      4900.3552      341.65684      3218.6991      0.40101743     18421.214      358.93488     -4.3577412     -1.5007444e-13 -1.074872e-13   358.93488     -5.1512328e-13
    139500   5329.0161      417.4455       4911.5706      307.7897       3363.1398      0.40101743     18421.214      350.37341     -4.3577412     -1.4997119e-13 -1.0748594e-13  350.37341     -5.1491427e-13
    139750   5324.8583      396.46936      4928.3889      292.32363      3095.0555      0.40101743     18421.214      343.09587     -4.3577412     -1.488443e-13  -1.0746306e-13  343.09587     -5.1261471e-13
    140000   5363.6267      432.99227      4930.6344      319.2526       4658.5277      0.40101743     18421.214      360.41076     -4.3577412     -1.4941443e-13 -1.0757485e-13  360.41076     -5.1397855e-13
    140250   5340.3809      387.2095       4953.1714      285.49618      3567.8663      0.40101743     18421.214      349.08611     -4.3577412     -1.5056931e-13 -1.0767747e-13  349.08611     -5.1649356e-13
    140500   5375.1433      421.02931      4954.114       310.43211      2710.1339      0.40101743     18421.214      355.06606     -4.3577412     -1.478079e-13  -1.0774847e-13  355.06606     -5.1111274e-13
    140750   5368.0753      426.40922      4941.6661      314.3988       3294.5766      0.40101743     18421.214      351.54954     -4.3577412     -1.4979947e-13 -1.0755728e-13  351.54954     -5.147135e-13 
    141000   5346.2694      404.9547       4941.3147      298.58002      4028.6536      0.40101743     18421.214      346.33399     -4.3577412     -1.4852554e-13 -1.075016e-13   346.33399     -5.1205428e-13
    141250   5345.1469      402.26464      4942.8823      296.5966       2615.5853      0.40101743     18421.214      352.36173     -4.3577412     -1.4916841e-13 -1.0727779e-13  352.36173     -5.128924e-13 
    141500   5333.1215      420.57346      4912.5481      310.096        1457.1796      0.40101743     18421.214      332.59771     -4.3577412     -1.4894699e-13 -1.074241e-13   332.59771     -5.1274219e-13
    141750   5342.4623      434.57834      4907.8839      320.42204      3245.4143      0.40101743     18421.214      337.926       -4.3577412     -1.4908415e-13 -1.0739575e-13  337.926       -5.1295981e-13
    142000   5344.6915      406.73237      4937.9592      299.89073      2815.6511      0.40101743     18421.214      343.09167     -4.3577412     -1.4962876e-13 -1.0752806e-13  343.09167     -5.1431364e-13
    142250   5335.1639      425.53131      4909.6326      313.75151      3072.9605      0.40101743     18421.214      355.52373     -4.3577412     -1.4854311e-13 -1.0724939e-13  355.52373     -5.1158502e-13
    142500   5352.1491      402.71615      4949.4329      296.9295       3376.573       0.40101743     18421.214      362.7474      -4.3577412     -1.490782e-13  -1.0740909e-13  362.7474      -5.1297459e-13
    142750   5343.8465      412.70271      4931.1438      304.29276      3016.3209      0.40101743     18421.214      350.50691     -4.3577412     -1.5077415e-13 -1.0741705e-13  350.50691     -5.1638241e-13
    143000   5330.3171      400.9171       4929.4         295.60303      3580.4342      0.40101743     18421.214      345.73704     -4.3577412     -1.5039917e-13 -1.0762715e-13  345.73704     -5.1605263e-13
    143250   5355.2797      400.49154      4954.7882      295.28926      3076.1847      0.40101743     18421.214      345.87147     -4.3577412     -1.4892739e-13 -1.0732908e-13  345.87147     -5.1251294e-13
    143500   5352.8126      420.39531      4932.4173      309.96465      3025.7787      0.40101743     18421.214      346.18278     -4.3577412     -1.4943286e-13 -1.0739763e-13  346.18278     -5.1366099e-13
    143750   5332.5964      395.6006       4936.9958      291.68308      1472.5136      0.40101743     18421.214      340.98276     -4.3577412     -1.4928228e-13 -1.0746793e-13  340.98276     -5.1350042e-13
    144000   5353.0696      420.63479      4932.4348      310.14122      2970.9765      0.40101743     18421.214      338.54283     -4.3577412     -1.4972641e-13 -1.0720147e-13  338.54283     -5.1385577e-13
    144250   5349.9286      421.88033      4928.0483      311.05958      3274.4997      0.40101743     18421.214      350.17078     -4.3577412     -1.4963752e-13 -1.0705158e-13  350.17078     -5.133782e-13 
    144500   5362.5904      431.30524      4931.2851      318.00872      3495.8532      0.40101743     18421.214      342.26093     -4.3577412     -1.4868993e-13 -1.0716128e-13  342.26093     -5.1170242e-13
    144750   5301.2935      401.86919      4899.4243      296.30502      3888.522       0.40101743     18421.214      349.80829     -4.3577412     -1.4834904e-13 -1.0734344e-13  349.80829     -5.1138495e-13
    145000   5372.6449      427.57559      4945.0693      315.25879      3749.3645      0.40101743     18421.214      349.67697     -4.3577412     -1.5005519e-13 -1.0744529e-13  349.67697     -5.1500097e-13
    145250   5321.3582      404.25408      4917.1042      298.06345      3445.4983      0.40101743     18421.214      343.19845     -4.3577412     -1.5090209e-13 -1.0721788e-13  343.19845     -5.1623994e-13
    145500   5324.0417      406.09301      4917.9487      299.41932      4252.4438      0.40101743     18421.214      353.91146     -4.3577412     -1.4796516e-13 -1.0744853e-13  353.91146     -5.1082738e-13
    145750   5336.1524      388.19055      4947.9618      286.21953      3596.6098      0.40101743     18421.214      351.66319     -4.3577412     -1.5012083e-13 -1.0756538e-13  351.66319     -5.1537242e-13
    146000   5327.175       413.73146      4913.4435      305.05127      3371.5981      0.40101743     18421.214      351.80838     -4.3577412     -1.492318e-13  -1.0761084e-13  351.80838     -5.1368528e-13
    146250   5356.8268      417.81683      4939.01        308.06349      4720.1918      0.40101743     18421.214      355.54025     -4.3577412     -1.4927278e-13 -1.0770034e-13  355.54025     -5.1394624e-13
    146500   5377.3914      429.50325      4947.8882      316.68009      3631.0445      0.40101743     18421.214      356.63883     -4.3577412     -1.4966413e-13 -1.0771694e-13  356.63883     -5.1476214e-13
    146750   5352.853       397.85414      4954.9988      293.34466      2502.3686      0.40101743     18421.214      340.05675     -4.3577412     -1.5081386e-13 -1.0768384e-13  340.05675     -5.169954e-13 
    147000   5315.3923      390.24004      4925.1523      287.73065      4037.0466      0.40101743     18421.214      354.54388     -4.3577412     -1.5004093e-13 -1.0756632e-13  354.54388     -5.1521449e-13
    147250   5376.6025      435.54876      4941.0538      321.13755      3547.2698      0.40101743     18421.214      350.41124     -4.3577412     -1.4892837e-13 -1.0768158e-13  350.41124     -5.132199e-13 
    147500   5377.6947      432.34086      4945.3539      318.7723       3625.2805      0.40101743     18421.214      350.13054     -4.3577412     -1.4716406e-13 -1.0769726e-13  350.13054     -5.0972263e-13
    147750   5343.9922      400.32071      4943.6715      295.1633       2901.3926      0.40101743     18421.214      350.91951     -4.3577412     -1.4975775e-13 -1.0751341e-13  350.91951     -5.1454232e-13
    148000   5313.1003      382.19013      4930.9102      281.79532      1460.9959      0.40101743     18421.214      337.89207     -4.3577412     -1.4996832e-13 -1.0744505e-13  337.89207     -5.1482674e-13
    148250   5381.2594      451.48209      4929.7773      332.88546      3710.0144      0.40101743     18421.214      350.66723     -4.3577412     -1.4946351e-13 -1.072591e-13   350.66723     -5.1344522e-13
    148500   5351.1021      426.66688      4924.4352      314.58879      4038.3946      0.40101743     18421.214      354.60086     -4.3577412     -1.5004243e-13 -1.0711304e-13  354.60086     -5.1431094e-13
    148750   5330.7989      393.22101      4937.5779      289.92857      2013.1497      0.40101743     18421.214      322.58985     -4.3577412     -1.5122965e-13 -1.0738778e-13  322.58985     -5.1723485e-13
    149000   5343.9864      415.54103      4928.4454      306.38551      4347.8766      0.40101743     18421.214      357.9889      -4.3577412     -1.499276e-13  -1.0758248e-13  357.9889      -5.1502016e-13
    149250   5355.495       408.59256      4946.9024      301.26228      4008.0936      0.40101743     18421.214      364.84898     -4.3577412     -1.4809616e-13 -1.0770988e-13  364.84898     -5.1161208e-13
    149500   5310.055       392.84403      4917.211       289.65062      3740.6489      0.40101743     18421.214      361.75347     -4.3577412     -1.5062363e-13 -1.0761424e-13  361.75347     -5.1647575e-13
    149750   5352.5086      410.67575      4941.8329      302.79825      2800.5704      0.40101743     18421.214      341.7812      -4.3577412     -1.493126e-13  -1.0765743e-13  341.7812      -5.1394006e-13
    150000   5336.2276      440.2348       4895.9928      324.59264      3658.0291      0.40101743     18421.214      345.91054     -4.3577412     -1.5085169e-13 -1.0773692e-13  345.91054     -5.1717724e-13
    150250   5372.0758      426.16729      4945.9085      314.22042      3581.2171      0.40101743     18421.214      354.7877      -4.3577412     -1.5124764e-13 -1.0754465e-13  354.7877      -5.1758458e-13
    150500   5346.6641      395.60673      4951.0574      291.6876       3552.0845      0.40101743     18421.214      351.32867     -4.3577412     -1.4824195e-13 -1.074397e-13   351.32867     -5.1136329e-13
    150750   5314.3885      408.9442       4905.4443      301.52155      4308.3599      0.40101743     18421.214      353.78852     -4.3577412     -1.4860623e-13 -1.0761036e-13  353.78852     -5.1243318e-13
    151000   5373.454       430.49679      4942.9573      317.41264      3458.0161      0.40101743     18421.214      350.71969     -4.3577412     -1.4975885e-13 -1.075019e-13   350.71969     -5.1452149e-13
    151250   5342.9002      396.18043      4946.7198      292.1106       4041.6076      0.40101743     18421.214      358.96302     -4.3577412     -1.5050185e-13 -1.075373e-13   358.96302     -5.1607829e-13
    151500   5353.9066      393.91566      4959.9909      290.44075      1977.5435      0.40101743     18421.214      343.02844     -4.3577412     -1.4974026e-13 -1.0759462e-13  343.02844     -5.1466975e-13
    151750   5334.9432      415.92387      4919.0193      306.66778      3336.7408      0.40101743     18421.214      354.02814     -4.3577412     -1.4756639e-13 -1.0778596e-13  354.02814     -5.107047e-13 
    152000   5341.2988      401.91211      4939.3867      296.33667      2706.4157      0.40101743     18421.214      337.81597     -4.3577412     -1.484898e-13  -1.0785249e-13  337.81597     -5.1268457e-13
    152250   5299.7635      391.53019      4908.2333      288.6819       4026.6476      0.40101743     18421.214      358.65828     -4.3577412     -1.4801527e-13 -1.0775694e-13  358.65828     -5.1154443e-13
    152500   5333.8246      396.75416      4937.0704      292.53362      4636.492       0.40101743     18421.214      346.56922     -4.3577412     -1.488904e-13  -1.0782401e-13  346.56922     -5.134288e-13 
    152750   5331.197       389.87106      4941.326       287.4586       4273.5624      0.40101743     18421.214      351.25348     -4.3577412     -1.500689e-13  -1.0773266e-13  351.25348     -5.1560312e-13
    153000   5350.8143      433.15284      4917.6615      319.37099      2014.1113      0.40101743     18421.214      345.33503     -4.3577412     -1.4930699e-13 -1.0757359e-13  345.33503     -5.1376117e-13
    153250   5284.2346      382.84835      4901.3863      282.28063      3377.4943      0.40101743     18421.214      343.92351     -4.3577412     -1.4799763e-13 -1.0740874e-13  343.92351     -5.1081274e-13
    153500   5340.7179      404.55878      4936.1592      298.2881       3478.5161      0.40101743     18421.214      349.98612     -4.3577412     -1.4997265e-13 -1.0741066e-13  349.98612     -5.1476662e-13
    153750   5328.9159      401.45662      4927.4593      296.00083      2934.4972      0.40101743     18421.214      358.66383     -4.3577412     -1.4850348e-13 -1.0742383e-13  358.66383     -5.1185464e-13
    154000   5299.5401      388.29933      4911.2407      286.29973      2514.7079      0.40101743     18421.214      347.29001     -4.3577412     -1.4955581e-13 -1.0747809e-13  347.29001     -5.140678e-13 
    154250   5334.1423      425.29604      4908.8462      313.57804      2071.1645      0.40101743     18421.214      333.82388     -4.3577412     -1.4842678e-13 -1.0757744e-13  333.82388     -5.1200844e-13
    154500   5349.7769      392.58432      4957.1926      289.45913      2976.7498      0.40101743     18421.214      352.10897     -4.3577412     -1.4792275e-13 -1.0763841e-13  352.10897     -5.1112231e-13
    154750   5348.3145      429.43438      4918.8802      316.62931      1894.1601      0.40101743     18421.214      337.47963     -4.3577412     -1.4941878e-13 -1.0753354e-13  337.47963     -5.1390465e-13
    155000   5344.1671      420.15743      4924.0096      309.78926      2826.2594      0.40101743     18421.214      322.2836      -4.3577412     -1.4897504e-13 -1.0748622e-13  322.2836      -5.1292251e-13
    155250   5332.3802      418.1853       4914.1949      308.33517      2838.6331      0.40101743     18421.214      337.43213     -4.3577412     -1.4951696e-13 -1.0749433e-13  337.43213     -5.1402258e-13
    155500   5322.1667      377.6412       4944.5255      278.44131      3243.1587      0.40101743     18421.214      352.671       -4.3577412     -1.4855877e-13 -1.0743224e-13  352.671       -5.1198202e-13
    155750   5369.9186      433.41953      4936.4991      319.56763      2857.4348      0.40101743     18421.214      347.02498     -4.3577412     -1.4875089e-13 -1.0749511e-13  347.02498     -5.1249199e-13
    156000   5350.0226      428.88609      4921.1365      316.22504      1931.4864      0.40101743     18421.214      331.60875     -4.3577412     -1.4945627e-13 -1.0739931e-13  331.60875     -5.1371115e-13
    156250   5314.2926      406.59222      4907.7004      299.78739      2581.3241      0.40101743     18421.214      342.05471     -4.3577412     -1.4775496e-13 -1.0720534e-13  342.05471     -5.099206e-13 
    156500   5338.2516      401.64054      4936.6111      296.13644      3175.8184      0.40101743     18421.214      342.35216     -4.3577412     -1.4693128e-13 -1.0707521e-13  342.35216     -5.0801299e-13
    156750   5314.6441      378.4389       4936.2052      279.02947      2846.9248      0.40101743     18421.214      350.42437     -4.3577412     -1.4764276e-13 -1.0732395e-13  350.42437     -5.0993342e-13
    157000   5328.0438      413.26146      4914.7823      304.70473      2448.4719      0.40101743     18421.214      336.91756     -4.3577412     -1.4856956e-13 -1.0752704e-13  336.91756     -5.1219321e-13
    157250   5358.7649      430.37408      4928.3908      317.32217      3503.2593      0.40101743     18421.214      357.88271     -4.3577412     -1.4786263e-13 -1.0762345e-13  357.88271     -5.1097215e-13
    157500   5322.6063      408.462        4914.1443      301.16602      1945.0346      0.40101743     18421.214      348.88333     -4.3577412     -1.4772441e-13 -1.0771708e-13  348.88333     -5.1088299e-13
    157750   5310.3688      400.49095      4909.8779      295.28882      3652.2165      0.40101743     18421.214      352.07319     -4.3577412     -1.5062058e-13 -1.0774493e-13  352.07319     -5.1673104e-13
    158000   5383.5298      435.95613      4947.5737      321.43791      3496.8746      0.40101743     18421.214      346.50942     -4.3577412     -1.501376e-13  -1.0764534e-13  346.50942     -5.1556588e-13
    158250   5317.3533      382.50651      4934.8468      282.02859      3454.008       0.40101743     18421.214      364.23548     -4.3577412     -1.488509e-13  -1.0768192e-13  364.23548     -5.1306563e-13
    158500   5330.6614      400.87478      4929.7866      295.57182      2314.6189      0.40101743     18421.214      339.43838     -4.3577412     -1.5036509e-13 -1.0773927e-13  339.43838     -5.1620872e-13
    158750   5325.91        404.96969      4920.9403      298.59108      2756.3658      0.40101743     18421.214      339.6927      -4.3577412     -1.4799631e-13 -1.0770978e-13  339.6927      -5.1141217e-13
    159000   5336.5785      403.71286      4932.8657      297.66439      3673.1973      0.40101743     18421.214      341.55565     -4.3577412     -1.4871471e-13 -1.0775708e-13  341.55565     -5.1294358e-13
    159250   5332.9251      409.38232      4923.5428      301.84458      2902.2378      0.40101743     18421.214      344.88305     -4.3577412     -1.4870215e-13 -1.075499e-13   344.88305     -5.125041e-13 
    159500   5337.7155      412.07676      4925.6387      303.83124      3783.5307      0.40101743     18421.214      338.64416     -4.3577412     -1.4882232e-13 -1.0754064e-13  338.64416     -5.1272593e-13
    159750   5375.1387      450.42446      4924.7142      332.10566      3743.2098      0.40101743     18421.214      349.45162     -4.3577412     -1.4915718e-13 -1.073723e-13   349.45162     -5.1305896e-13
    160000   5350.413       410.40532      4940.0077      302.59886      3128.2692      0.40101743     18421.214      353.7543      -4.3577412     -1.5040674e-13 -1.0682941e-13  353.7543      -5.144723e-13 
    160250   5349.7486      414.93721      4934.8114      305.9403       3278.5595      0.40101743     18421.214      364.0413      -4.3577412     -1.4834212e-13 -1.0697464e-13  364.0413      -5.1063353e-13
    160500   5352.9858      393.2468       4959.739       289.94759      2889.407       0.40101743     18421.214      352.10106     -4.3577412     -1.5013454e-13 -1.0734998e-13  352.10106     -5.1496904e-13
    160750   5330.6964      393.693        4937.0034      290.27658      3459.5586      0.40101743     18421.214      352.94165     -4.3577412     -1.5059891e-13 -1.0734159e-13  352.94165     -5.15881e-13  
    161000   5358.7243      415.37004      4943.3542      306.25943      2641.8673      0.40101743     18421.214      347.76169     -4.3577412     -1.4999575e-13 -1.0732365e-13  347.76169     -5.1463879e-13
    161250   5374.3168      417.20856      4957.1082      307.61501      2766.1643      0.40101743     18421.214      349.92198     -4.3577412     -1.4965502e-13 -1.0753284e-13  349.92198     -5.1437573e-13
    161500   5372.1037      418.56307      4953.5406      308.61371      4569.486       0.40101743     18421.214      365.74497     -4.3577412     -1.5012745e-13 -1.0764062e-13  365.74497     -5.1553615e-13
    161750   5290.5031      387.7724       4902.7307      285.91122      3565.2415      0.40101743     18421.214      352.60618     -4.3577412     -1.4944913e-13 -1.0770501e-13  352.60618     -5.1430828e-13
    162000   5360.5203      428.10886      4932.4114      315.65198      3376.4809      0.40101743     18421.214      344.59699     -4.3577412     -1.500951e-13  -1.0779578e-13  344.59699     -5.1578177e-13
    162250   5337.9782      411.85121      4926.127       303.66494      4088.7239      0.40101743     18421.214      352.16639     -4.3577412     -1.4996592e-13 -1.0776789e-13  352.16639     -5.1546762e-13
    162500   5288.8495      360.19747      4928.652       265.57975      3913.3713      0.40101743     18421.214      348.95726     -4.3577412     -1.482385e-13  -1.077634e-13   348.95726     -5.120038e-13 
    162750   5346.7269      444.82485      4901.902       327.97697      4132.1709      0.40101743     18421.214      350.85451     -4.3577412     -1.4884912e-13 -1.0770824e-13  350.85451     -5.1311471e-13
    163000   5352.237       426.27042      4925.9666      314.29647      4262.478       0.40101743     18421.214      349.98794     -4.3577412     -1.5013686e-13 -1.074355e-13   349.98794     -5.1514473e-13
    163250   5356.838       415.72456      4941.1134      306.52083      4211.4422      0.40101743     18421.214      357.13497     -4.3577412     -1.4883207e-13 -1.0750584e-13  357.13497     -5.1267581e-13
    163500   5353.7998      414.21892      4939.5809      305.41069      3007.0213      0.40101743     18421.214      346.19909     -4.3577412     -1.493516e-13  -1.0740388e-13  346.19909     -5.1351096e-13
    163750   5326.9004      415.67107      4911.2294      306.48139      3252.1712      0.40101743     18421.214      349.05572     -4.3577412     -1.4971955e-13 -1.0732621e-13  349.05572     -5.1409153e-13
    164000   5368.3345      425.3133       4943.0212      313.59076      3755.061       0.40101743     18421.214      360.6212      -4.3577412     -1.4918251e-13 -1.0732353e-13  360.6212      -5.1301207e-13
    164250   5338.3017      398.39146      4939.9102      293.74083      1738.4552      0.40101743     18421.214      337.1704      -4.3577412     -1.4816194e-13 -1.0731135e-13  337.1704      -5.1094659e-13
    164500   5343.7579      416.85242      4926.9055      307.35241      2695.3687      0.40101743     18421.214      342.68092     -4.3577412     -1.4740252e-13 -1.0741129e-13  342.68092     -5.0962762e-13
    164750   5337.2         400.23102      4936.9689      295.09717      3353.898       0.40101743     18421.214      351.23625     -4.3577412     -1.4772967e-13 -1.0717166e-13  351.23625     -5.0980267e-13
    165000   5319.9106      387.98585      4931.9247      286.0686       2883.1017      0.40101743     18421.214      344.98887     -4.3577412     -1.4791397e-13 -1.071594e-13   344.98887     -5.1014674e-13
    165250   5342.9769      404.28758      4938.6893      298.08815      2890.9644      0.40101743     18421.214      353.14515     -4.3577412     -1.4830269e-13 -1.0735706e-13  353.14515     -5.113195e-13 
    165500   5349.8308      411.33093      4938.4999      303.28132      3590.3815      0.40101743     18421.214      349.67784     -4.3577412     -1.4868268e-13 -1.0747897e-13  349.67784     -5.123233e-13 
    165750   5377.6569      423.96744      4953.6894      312.59844      3735.9225      0.40101743     18421.214      360.83249     -4.3577412     -1.4929088e-13 -1.074593e-13   360.83249     -5.1350037e-13
    166000   5371.3062      431.74577      4939.5604      318.33353      2896.2813      0.40101743     18421.214      339.87661     -4.3577412     -1.5051651e-13 -1.0755339e-13  339.87661     -5.1613979e-13
    166250   5342.2067      425.89897      4916.3077      314.02259      3315.199       0.40101743     18421.214      348.80162     -4.3577412     -1.4994741e-13 -1.0747499e-13  348.80162     -5.148448e-13 
    166500   5325.1695      409.61328      4915.5562      302.01488      3118.5069      0.40101743     18421.214      358.76917     -4.3577412     -1.4823925e-13 -1.0752479e-13  358.76917     -5.1152807e-13
    166750   5314.2178      380.84032      4933.3775      280.80008      2456.9404      0.40101743     18421.214      339.9082      -4.3577412     -1.4868003e-13 -1.0763684e-13  339.9082      -5.1263375e-13
    167000   5352.6787      418.08813      4934.5906      308.26352      3942.4503      0.40101743     18421.214      365.05103     -4.3577412     -1.4898196e-13 -1.0774001e-13  365.05103     -5.1344393e-13
    167250   5372.2378      432.19429      4940.0435      318.66424      3455.4639      0.40101743     18421.214      353.43038     -4.3577412     -1.4952373e-13 -1.0778545e-13  353.43038     -5.1461837e-13
    167500   5315.5614      391.6825       4923.8789      288.7942       4295.2771      0.40101743     18421.214      358.4609      -4.3577412     -1.4950736e-13 -1.0779189e-13  358.4609      -5.1459851e-13
    167750   5312.6547      406.67725      4905.9775      299.85009      3924.8607      0.40101743     18421.214      348.87745     -4.3577412     -1.4999265e-13 -1.0785224e-13  348.87745     -5.1568977e-13
    168000   5382.2147      437.2075       4945.0072      322.36056      3873.2941      0.40101743     18421.214      354.85076     -4.3577412     -1.5098356e-13 -1.0770991e-13  354.85076     -5.1738694e-13
    168250   5336.2297      413.60645      4922.6233      304.95911      2997.8343      0.40101743     18421.214      340.39913     -4.3577412     -1.4951719e-13 -1.0771585e-13  340.39913     -5.1446609e-13
    168500   5358.98        418.48115      4940.4989      308.5533       4339.8644      0.40101743     18421.214      359.75424     -4.3577412     -1.4839105e-13 -1.0775865e-13  359.75424     -5.1229939e-13
    168750   5317.2035      412.67181      4904.5317      304.26998      3638.6727      0.40101743     18421.214      355.90676     -4.3577412     -1.4997145e-13 -1.0782338e-13  355.90676     -5.1558967e-13
    169000   5312.2244      405.28581      4906.9386      298.82416      2213.9209      0.40101743     18421.214      338.16279     -4.3577412     -1.4859544e-13 -1.0787502e-13  338.16279     -5.1294093e-13
    169250   5337.6614      399.46987      4938.1915      294.53596      4340.0194      0.40101743     18421.214      363.26706     -4.3577412     -1.4960522e-13 -1.0782407e-13  363.26706     -5.1485859e-13
    169500   5320.0157      396.02788      4923.9878      291.99812      3266.1107      0.40101743     18421.214      354.72665     -4.3577412     -1.4906556e-13 -1.0791091e-13  354.72665     -5.1395292e-13
    169750   5334.0604      410.40786      4923.6525      302.60073      4785.4073      0.40101743     18421.214      367.60344     -4.3577412     -1.4692495e-13 -1.0791068e-13  367.60344     -5.0967126e-13
    170000   5327.757       406.38593      4921.371       299.63529      2845.5518      0.40101743     18421.214      338.71965     -4.3577412     -1.4948785e-13 -1.0781383e-13  338.71965     -5.1460337e-13
    170250   5313.7296      379.63517      4934.0945      279.9115       3192.9798      0.40101743     18421.214      355.77181     -4.3577412     -1.4800298e-13 -1.077696e-13   355.77181     -5.1154516e-13
    170500   5345.3281      389.9415       4955.3866      287.51053      2322.2687      0.40101743     18421.214      343.68539     -4.3577412     -1.4970967e-13 -1.0791913e-13  343.68539     -5.152576e-13 
    170750   5317.1834      410.47844      4906.7049      302.65277      3460.7877      0.40101743     18421.214      346.1163      -4.3577412     -1.4859877e-13 -1.0789524e-13  346.1163      -5.1298803e-13
    171000   5346.3223      422.6518       4923.6705      311.6284       3321.3357      0.40101743     18421.214      354.88728     -4.3577412     -1.48923e-13   -1.0789288e-13  354.88728     -5.1363177e-13
    171250   5365.2626      412.00669      4953.2559      303.77957      3685.7285      0.40101743     18421.214      349.58861     -4.3577412     -1.4938095e-13 -1.0772298e-13  349.58861     -5.1420785e-13
    171500   5305.0839      398.22094      4906.863       293.61511      2558.6433      0.40101743     18421.214      349.39366     -4.3577412     -1.4932445e-13 -1.077289e-13   349.39366     -5.1410671e-13
    171750   5305.5203      384.79806      4920.7222      283.71819      3031.6611      0.40101743     18421.214      340.24593     -4.3577412     -1.4892851e-13 -1.0769566e-13  340.24593     -5.1324833e-13
    172000   5300.7606      398.7943       4901.9663      294.03785      2206.126       0.40101743     18421.214      333.61389     -4.3577412     -1.5023813e-13 -1.0776881e-13  333.61389     -5.1601386e-13
    172250   5365.3827      392.53374      4972.8489      289.42184      3097.3682      0.40101743     18421.214      351.08024     -4.3577412     -1.5127031e-13 -1.0783908e-13  351.08024     -5.1821877e-13
    172500   5343.7398      416.41746      4927.3223      307.03171      2917.108       0.40101743     18421.214      353.74232     -4.3577412     -1.4915571e-13 -1.0777087e-13  353.74232     -5.1385317e-13
    172750   5350.9957      414.06957      4936.9261      305.30057      2530.7185      0.40101743     18421.214      333.33953     -4.3577412     -1.4984037e-13 -1.0766501e-13  333.33953     -5.1501076e-13
    173000   5339.1286      405.03941      4934.0892      298.64248      3818.0201      0.40101743     18421.214      364.61656     -4.3577412     -1.4887248e-13 -1.0766964e-13  364.61656     -5.1308424e-13
    173250   5357.0594      422.49728      4934.5622      311.51446      3106.454       0.40101743     18421.214      353.24798     -4.3577412     -1.4943918e-13 -1.0772118e-13  353.24798     -5.1432071e-13
    173500   5315.7513      411.50695      4904.2443      303.41111      3169.9134      0.40101743     18421.214      352.21079     -4.3577412     -1.499622e-13  -1.0761384e-13  352.21079     -5.1515209e-13
    173750   5323.8041      385.1151       4938.689       283.95195      1653.0557      0.40101743     18421.214      343.41715     -4.3577412     -1.4882385e-13 -1.0755276e-13  343.41715     -5.1275322e-13
    174000   5320.3326      412.70862      4907.624       304.29712      3667.2188      0.40101743     18421.214      344.48181     -4.3577412     -1.5062782e-13 -1.0750305e-13  344.48181     -5.1626174e-13
    174250   5318.6514      412.85617      4905.7953      304.40591      3908.8692      0.40101743     18421.214      347.11202     -4.3577412     -1.4870173e-13 -1.0736919e-13  347.11202     -5.1214185e-13
    174500   5325.1554      400.40146      4924.754       295.22284      2215.2066      0.40101743     18421.214      343.41805     -4.3577412     -1.4934254e-13 -1.0763276e-13  343.41805     -5.1395061e-13
    174750   5330.6147      427.61738      4902.9973      315.2896       2896.4624      0.40101743     18421.214      351.33578     -4.3577412     -1.4972403e-13 -1.0764192e-13  351.33578     -5.1473191e-13
    175000   5343.0246      415.98842      4927.0361      306.71538      2635.5007      0.40101743     18421.214      347.00156     -4.3577412     -1.4834029e-13 -1.0747062e-13  347.00156     -5.1162183e-13
    175250   5377.7972      402.42223      4975.3749      296.71279      3616.5602      0.40101743     18421.214      348.38768     -4.3577412     -1.4806741e-13 -1.0744393e-13  348.38768     -5.1102268e-13
    175500   5356.8909      419.76952      4937.1213      309.50324      3895.6429      0.40101743     18421.214      351.71162     -4.3577412     -1.4760893e-13 -1.0750383e-13  351.71162     -5.1022552e-13
    175750   5327.2713      407.46382      4919.8074      300.43004      4803.6668      0.40101743     18421.214      359.79427     -4.3577412     -1.4952939e-13 -1.0751939e-13  359.79427     -5.1409756e-13
    176000   5334.7638      396.06459      4938.6992      292.02519      4666.1582      0.40101743     18421.214      362.85947     -4.3577412     -1.482231e-13  -1.0752099e-13  362.85947     -5.1148816e-13
    176250   5307.364       392.22255      4915.1415      289.19239      2068.5327      0.40101743     18421.214      334.67921     -4.3577412     -1.4963373e-13 -1.0747784e-13  334.67921     -5.1422314e-13
    176500   5363.131       403.93853      4959.1925      297.83078      3027.4896      0.40101743     18421.214      346.628       -4.3577412     -1.4878044e-13 -1.0754752e-13  346.628       -5.1265591e-13
    176750   5414.0937      433.22402      4980.8697      319.42348      2598.9691      0.40101743     18421.214      345.89639     -4.3577412     -1.4830039e-13 -1.0737398e-13  345.89639     -5.1134874e-13
    177000   5351.0196      407.82555      4943.1941      300.69675      3528.7164      0.40101743     18421.214      346.17094     -4.3577412     -1.4807423e-13 -1.0755174e-13  346.17094     -5.1125194e-13
    177250   5336.6434      416.46213      4920.1813      307.06465      4702.2637      0.40101743     18421.214      358.0008      -4.3577412     -1.4782459e-13 -1.0764515e-13  358.0008      -5.1093947e-13
    177500   5330.1138      437.79189      4892.3219      322.79144      2881.1379      0.40101743     18421.214      347.26728     -4.3577412     -1.4829046e-13 -1.0743355e-13  347.26728     -5.1144801e-13
    177750   5316.0437      385.26554      4930.7782      284.06287      2395.0237      0.40101743     18421.214      344.05938     -4.3577412     -1.48574e-13   -1.0748824e-13  344.05938     -5.121245e-13 
    178000   5304.0666      396.13223      4907.9344      292.07507      3679.4718      0.40101743     18421.214      342.30106     -4.3577412     -1.4840144e-13 -1.0742024e-13  342.30106     -5.1164336e-13
    178250   5363.9525      407.36065      4956.5919      300.35397      3064.3657      0.40101743     18421.214      351.12955     -4.3577412     -1.4881106e-13 -1.0741692e-13  351.12955     -5.1245597e-13
    178500   5361.2097      434.67921      4926.5305      320.49641      2538.2096      0.40101743     18421.214      349.15588     -4.3577412     -1.4745059e-13 -1.0739184e-13  349.15588     -5.0968487e-13
    178750   5355.0558      440.63033      4914.4255      324.88427      1927.3047      0.40101743     18421.214      339.60333     -4.3577412     -1.4966382e-13 -1.0717135e-13  339.60333     -5.1367032e-13
    179000   5369.7941      430.5464       4939.2477      317.44922      3551.5808      0.40101743     18421.214      355.86368     -4.3577412     -1.4836392e-13 -1.0730487e-13  355.86368     -5.1133757e-13
    179250   5337.4121      394.37638      4943.0357      290.78045      4751.2755      0.40101743     18421.214      352.97588     -4.3577412     -1.4912273e-13 -1.0721748e-13  352.97588     -5.1268042e-13
    179500   5308.202       420.26756      4887.9344      309.87045      3306.6711      0.40101743     18421.214      340.82038     -4.3577412     -1.5085559e-13 -1.0734995e-13  340.82038     -5.1641107e-13
    179750   5341.4846      416.46931      4925.0153      307.06994      4683.9719      0.40101743     18421.214      356.39879     -4.3577412     -1.5032507e-13 -1.0726201e-13  356.39879     -5.1517416e-13
    180000   5354.4349      412.90573      4941.5291      304.44245      3374.5081      0.40101743     18421.214      351.70846     -4.3577412     -1.4949217e-13 -1.0734539e-13  351.70846     -5.136751e-13 
    180250   5374.5676      440.69171      4933.8759      324.92953      3384.3042      0.40101743     18421.214      348.79742     -4.3577412     -1.484793e-13  -1.0734542e-13  348.79742     -5.1164943e-13
    180500   5349.8131      428.26315      4921.5499      315.76574      3590.1467      0.40101743     18421.214      354.85993     -4.3577412     -1.4815368e-13 -1.0717996e-13  354.85993     -5.1066728e-13
    180750   5341.8202      406.69455      4935.1256      299.86284      2761.0635      0.40101743     18421.214      349.24688     -4.3577412     -1.4942842e-13 -1.0720987e-13  349.24688     -5.1327658e-13
    181000   5347.3243      414.48341      4932.8409      305.6057       3099.189       0.40101743     18421.214      349.41492     -4.3577412     -1.4849799e-13 -1.0716206e-13  349.41492     -5.1132008e-13
    181250   5347.2065      407.3079       4939.8986      300.31508      3375.5867      0.40101743     18421.214      345.4052      -4.3577412     -1.5010872e-13 -1.0709523e-13  345.4052      -5.144079e-13 
    181500   5334.3851      410.2397       4924.1454      302.47674      3637.3943      0.40101743     18421.214      355.23545     -4.3577412     -1.490844e-13  -1.0744491e-13  355.23545     -5.1305861e-13
    181750   5341.0114      404.83434      4936.1771      298.49127      2576.1061      0.40101743     18421.214      345.00648     -4.3577412     -1.4927336e-13 -1.0750575e-13  345.00648     -5.1355823e-13
    182000   5316.3666      363.51147      4952.8552      268.02322      3075.3657      0.40101743     18421.214      342.84981     -4.3577412     -1.482581e-13  -1.0748306e-13  342.84981     -5.1148231e-13
    182250   5305.5455      387.91734      4917.6282      286.01809      3149.5627      0.40101743     18421.214      346.01644     -4.3577412     -1.4908547e-13 -1.0769973e-13  346.01644     -5.1357039e-13
    182500   5346.8074      408.60552      4938.2018      301.27183      2755.7287      0.40101743     18421.214      349.86952     -4.3577412     -1.4941942e-13 -1.0742133e-13  349.86952     -5.1368149e-13
    182750   5346.195       414.56619      4931.6288      305.66674      4336.3869      0.40101743     18421.214      350.21427     -4.3577412     -1.5132561e-13 -1.0729466e-13  350.21427     -5.1724054e-13
    183000   5367.8114      426.24517      4941.5662      314.27785      2760.701       0.40101743     18421.214      357.98342     -4.3577412     -1.4994002e-13 -1.0751097e-13  357.98342     -5.1490199e-13
    183250   5325.4714      402.13199      4923.3394      296.49879      3642.0946      0.40101743     18421.214      345.05548     -4.3577412     -1.4982076e-13 -1.0738404e-13  345.05548     -5.1440961e-13
    183500   5341.6782      397.51774      4944.1605      293.09662      2910.4256      0.40101743     18421.214      350.21491     -4.3577412     -1.4974166e-13 -1.0718449e-13  350.21491     -5.138523e-13 
    183750   5331.4413      399.29675      4932.1446      294.40832      3548.1825      0.40101743     18421.214      339.45645     -4.3577412     -1.5015671e-13 -1.0738444e-13  339.45645     -5.150823e-13 
    184000   5342.8022      430.29037      4912.5118      317.26044      2263.175       0.40101743     18421.214      348.2556      -4.3577412     -1.5029841e-13 -1.0711213e-13  348.2556      -5.1482107e-13
    184250   5322.1317      397.99047      4924.1412      293.44518      2985.4839      0.40101743     18421.214      359.15849     -4.3577412     -1.4870545e-13 -1.0757564e-13  359.15849     -5.1256218e-13
    184500   5330.8577      398.23479      4932.6229      293.62532      2483.8098      0.40101743     18421.214      346.63463     -4.3577412     -1.487158e-13  -1.0768553e-13  346.63463     -5.1280266e-13
    184750   5336.8473      403.55948      4933.2878      297.5513       3541.1814      0.40101743     18421.214      353.05787     -4.3577412     -1.4771689e-13 -1.0767153e-13  353.05787     -5.1077683e-13
    185000   5364.5638      439.61584      4924.948       324.13627      3104.4068      0.40101743     18421.214      350.24817     -4.3577412     -1.4930299e-13 -1.0750033e-13  350.24817     -5.1360665e-13
    185250   5344.0463      409.74636      4934.2999      302.11299      4809.1553      0.40101743     18421.214      357.38934     -4.3577412     -1.4778445e-13 -1.074584e-13   357.38934     -5.1048571e-13
    185500   5345.4251      393.04512      4952.38        289.79888      2950.6058      0.40101743     18421.214      350.62855     -4.3577412     -1.4866062e-13 -1.0744416e-13  350.62855     -5.1220957e-13
    185750   5347.3658      416.45036      4930.9154      307.05597      4166.8654      0.40101743     18421.214      358.69139     -4.3577412     -1.4892162e-13 -1.0742897e-13  358.69139     -5.1270117e-13
    186000   5321.9515      390.2684       4931.683       287.75156      3049.1714      0.40101743     18421.214      354.57232     -4.3577412     -1.4743034e-13 -1.075662e-13   354.57232     -5.0999307e-13
    186250   5375.5412      421.84417      4953.697       311.03292      3189.9429      0.40101743     18421.214      344.24227     -4.3577412     -1.4845167e-13 -1.0775362e-13  344.24227     -5.1241059e-13
    186500   5362.3153      414.69498      4947.6203      305.76169      3747.8971      0.40101743     18421.214      356.81303     -4.3577412     -1.4628514e-13 -1.0765122e-13  356.81303     -5.0787272e-13
    186750   5339.0675      397.0286       4942.0389      292.73597      3472.95        0.40101743     18421.214      365.76629     -4.3577412     -1.4935965e-13 -1.0748432e-13  365.76629     -5.1368794e-13
    187000   5320.4889      399.27727      4921.2116      294.39395      3587.0229      0.40101743     18421.214      347.82258     -4.3577412     -1.5013483e-13 -1.0735104e-13  347.82258     -5.1497175e-13
    187250   5366.4414      434.80784      4931.6335      320.59126      3077.4971      0.40101743     18421.214      339.05978     -4.3577412     -1.4842928e-13 -1.0736786e-13  339.05978     -5.1159429e-13
    187500   5319.7309      400.63189      4919.099       295.39274      4822.321       0.40101743     18421.214      360.57929     -4.3577412     -1.4720683e-13 -1.0735242e-13  360.57929     -5.091185e-13 
    187750   5336.3867      419.63625      4916.7504      309.40498      3717.5658      0.40101743     18421.214      359.34302     -4.3577412     -1.4815544e-13 -1.0718716e-13  359.34302     -5.106852e-13 
    188000   5366.0873      416.59651      4949.4908      307.16372      3631.9393      0.40101743     18421.214      353.54125     -4.3577412     -1.4683424e-13 -1.0718726e-13  353.54125     -5.08043e-13  
    188250   5338.0312      407.79111      4930.2401      300.67135      2511.8991      0.40101743     18421.214      341.78212     -4.3577412     -1.4885179e-13 -1.0710899e-13  341.78212     -5.1192155e-13
    188500   5333.9808      393.72894      4940.2518      290.30307      2506.3495      0.40101743     18421.214      351.88759     -4.3577412     -1.4819581e-13 -1.0728058e-13  351.88759     -5.109528e-13 
    188750   5344.4771      416.20425      4928.2729      306.87451      3749.2963      0.40101743     18421.214      347.17577     -4.3577412     -1.4839931e-13 -1.0753866e-13  347.17577     -5.1187594e-13
    189000   5303.1316      388.16193      4914.9696      286.19842      4046.382       0.40101743     18421.214      356.96074     -4.3577412     -1.4751298e-13 -1.0750798e-13  356.96074     -5.1004193e-13
    189250   5351.6107      415.26253      4936.3482      306.18016      3456.0099      0.40101743     18421.214      358.97113     -4.3577412     -1.497625e-13  -1.0741143e-13  358.97113     -5.1434788e-13
    189500   5384.3959      422.45151      4961.9444      311.48072      2326.5182      0.40101743     18421.214      340.43559     -4.3577412     -1.4840958e-13 -1.074516e-13   340.43559     -5.1172235e-13
    189750   5343.942       399.55568      4944.3863      294.59923      3471.0117      0.40101743     18421.214      359.12512     -4.3577412     -1.4776637e-13 -1.0752671e-13  359.12512     -5.1058615e-13
    190000   5370.4669      427.98361      4942.4833      315.55963      3685.4993      0.40101743     18421.214      348.51238     -4.3577412     -1.4758026e-13 -1.0762711e-13  348.51238     -5.1041474e-13
    190250   5350.499       424.83619      4925.6628      313.23899      3586.7917      0.40101743     18421.214      345.62131     -4.3577412     -1.4786318e-13 -1.0765856e-13  345.62131     -5.1104347e-13
    190500   5346.3679      412.7293       4933.6386      304.31237      2541.5374      0.40101743     18421.214      342.89147     -4.3577412     -1.4925663e-13 -1.077962e-13   342.89147     -5.1410566e-13
    190750   5344.5975      426.71538      4917.8821      314.62455      3180.0685      0.40101743     18421.214      344.61461     -4.3577412     -1.4998578e-13 -1.0777855e-13  344.61461     -5.1552866e-13
    191000   5352.9252      420.67117      4932.254       310.16805      3093.6175      0.40101743     18421.214      345.6719      -4.3577412     -1.4880956e-13 -1.0771945e-13  345.6719      -5.1305802e-13
    191250   5359.5499      406.66116      4952.8887      299.83823      3086.4799      0.40101743     18421.214      367.15351     -4.3577412     -1.4886463e-13 -1.0763897e-13  367.15351     -5.1300721e-13
    191500   5374.6712      438.79632      4935.8749      323.53202      3956.951       0.40101743     18421.214      354.55386     -4.3577412     -1.494673e-13  -1.0763943e-13  354.55386     -5.1421346e-13
    191750   5355.7524      419.10358      4936.6488      309.01224      3179.0727      0.40101743     18421.214      352.56808     -4.3577412     -1.4918449e-13 -1.0746005e-13  352.56808     -5.1328907e-13
    192000   5323.7248      386.67343      4937.0513      285.10093      3038.984       0.40101743     18421.214      352.75657     -4.3577412     -1.4840243e-13 -1.0744566e-13  352.75657     -5.1169617e-13
    192250   5353.9266      417.8016       4936.125       308.05226      2779.2205      0.40101743     18421.214      346.36795     -4.3577412     -1.4828676e-13 -1.0749533e-13  346.36795     -5.1156418e-13
    192500   5339.7548      409.92973      4929.8251      302.2482       2426.8772      0.40101743     18421.214      339.77291     -4.3577412     -1.5006078e-13 -1.0753752e-13  339.77291     -5.151966e-13 
    192750   5376.2851      394.38186      4981.9032      290.78449      2166.848       0.40101743     18421.214      347.19731     -4.3577412     -1.4900302e-13 -1.0738913e-13  347.19731     -5.1278429e-13
    193000   5357.0377      424.98445      4932.0532      313.3483       2328.7504      0.40101743     18421.214      344.30794     -4.3577412     -1.4994549e-13 -1.0767251e-13  344.30794     -5.1523601e-13
    193250   5352.7094      413.90605      4938.8034      305.18         3194.001       0.40101743     18421.214      353.94531     -4.3577412     -1.483232e-13  -1.0737694e-13  353.94531     -5.1140028e-13
    193500   5355.5451      417.40048      4938.1446      307.75651      2398.9761      0.40101743     18421.214      349.08747     -4.3577412     -1.4863823e-13 -1.0713e-13     349.08747     -5.1153647e-13
    193750   5326.9274      410.45811      4916.4693      302.63778      3094.0206      0.40101743     18421.214      346.37274     -4.3577412     -1.4736103e-13 -1.0721355e-13  346.37274     -5.0914915e-13
    194000   5333.5138      401.86958      4931.6442      296.30531      3835.974       0.40101743     18421.214      349.98335     -4.3577412     -1.4793462e-13 -1.0720146e-13  349.98335     -5.1027216e-13
    194250   5352.8297      417.0192       4935.8105      307.47538      2349.9288      0.40101743     18421.214      342.0507      -4.3577412     -1.4856455e-13 -1.0714619e-13  342.0507      -5.1142148e-13
    194500   5327.0933      418.49317      4908.6002      308.56217      2870.4912      0.40101743     18421.214      346.65929     -4.3577412     -1.4953372e-13 -1.073554e-13   346.65929     -5.1377824e-13
    194750   5332.6055      401.37764      4931.2278      295.9426       3643.327       0.40101743     18421.214      344.94981     -4.3577412     -1.4874451e-13 -1.0750083e-13  344.94981     -5.1249069e-13
    195000   5346.4953      420.40502      4926.0903      309.97181      3961.128       0.40101743     18421.214      351.11977     -4.3577412     -1.4826776e-13 -1.0757476e-13  351.11977     -5.1168505e-13
    195250   5306.0412      395.72348      4910.3177      291.77369      2907.8722      0.40101743     18421.214      352.29441     -4.3577412     -1.471665e-13  -1.0751213e-13  352.29441     -5.0935727e-13
    195500   5343.098       410.19832      4932.8997      302.44623      3150.425       0.40101743     18421.214      345.1515      -4.3577412     -1.4802874e-13 -1.0767092e-13  345.1515      -5.1139932e-13
    195750   5343.1541      413.70869      4929.4454      305.03449      2553.2883      0.40101743     18421.214      343.99642     -4.3577412     -1.4941285e-13 -1.0781659e-13  343.99642     -5.1445888e-13
    196000   5335.6339      396.26687      4939.3671      292.17434      3356.7181      0.40101743     18421.214      346.79568     -4.3577412     -1.496894e-13  -1.0768964e-13  346.79568     -5.1475808e-13
    196250   5374.1644      407.52137      4966.6431      300.47247      4949.8821      0.40101743     18421.214      375.80763     -4.3577412     -1.4777315e-13 -1.07714e-13    375.80763     -5.1097429e-13
    196500   5354.2792      408.24836      4946.0308      301.00849      3212.8943      0.40101743     18421.214      344.30913     -4.3577412     -1.4975981e-13 -1.0770898e-13  344.30913     -5.1493758e-13
    196750   5313.7541      402.75587      4910.9982      296.95879      4060.7568      0.40101743     18421.214      349.85676     -4.3577412     -1.5022545e-13 -1.0778958e-13  349.85676     -5.1603005e-13
    197000   5353.8523      407.89102      4945.9613      300.74502      2810.9772      0.40101743     18421.214      354.84587     -4.3577412     -1.494121e-13  -1.076733e-13   354.84587     -5.141708e-13 
    197250   5360.586       438.24984      4922.3362      323.1291       2856.3451      0.40101743     18421.214      336.79193     -4.3577412     -1.5063208e-13 -1.0781203e-13  336.79193     -5.1688821e-13
    197500   5369.0376      426.63025      4942.4074      314.56178      2656.9535      0.40101743     18421.214      354.09152     -4.3577412     -1.4981927e-13 -1.076399e-13   354.09152     -5.1491835e-13
    197750   5360.275       436.57403      4923.701       321.89349      4029.6026      0.40101743     18421.214      354.79905     -4.3577412     -1.4858749e-13 -1.0765581e-13  354.79905     -5.124866e-13 
    198000   5351.0219      408.71604      4942.3059      301.35332      3596.0704      0.40101743     18421.214      354.78234     -4.3577412     -1.5026773e-13 -1.0768921e-13  354.78234     -5.1591388e-13
    198250   5361.0935      438.00549      4923.088       322.94893      3316.782       0.40101743     18421.214      349.72114     -4.3577412     -1.4917822e-13 -1.076398e-13   349.72114     -5.1363604e-13
    198500   5316.3869      409.90537      4906.4816      302.23024      2737.8052      0.40101743     18421.214      342.62399     -4.3577412     -1.5075395e-13 -1.0734619e-13  342.62399     -5.1620027e-13
    198750   5324.2349      399.88122      4924.3537      294.83926      3614.7657      0.40101743     18421.214      359.93772     -4.3577412     -1.5070369e-13 -1.074323e-13   359.93772     -5.1627197e-13
    199000   5354.776       409.51975      4945.2562      301.94591      3171.7438      0.40101743     18421.214      353.38306     -4.3577412     -1.4874022e-13 -1.0755709e-13  353.38306     -5.1259462e-13
    199250   5332.7157      407.8617       4924.8541      300.7234       3281.7215      0.40101743     18421.214      343.05211     -4.3577412     -1.4846727e-13 -1.0741048e-13  343.05211     -5.1175549e-13
    199500   5391.7935      437.06634      4954.7272      322.25648      3207.9786      0.40101743     18421.214      342.6847      -4.3577412     -1.5043977e-13 -1.0756384e-13  342.6847      -5.1600723e-13
    199750   5364.2967      443.61118      4920.6855      327.0821       4080.475       0.40101743     18421.214      357.20763     -4.3577412     -1.4728541e-13 -1.0747596e-13  357.20763     -5.0952274e-13
    200000   5387.82        420.08946      4967.7305      309.73914      4409.5539      0.40101743     18421.214      348.893       -4.3577412     -1.4970993e-13 -1.0742629e-13  348.893       -5.1427243e-13
    200250   5349.4846      412.92466      4936.5599      304.45641      3195.5077      0.40101743     18421.214      344.61333     -4.3577412     -1.5151529e-13 -1.0737636e-13  344.61333     -5.177833e-13 
    200500   5328.6262      394.61037      4934.0158      290.95297      3495.4588      0.40101743     18421.214      352.79276     -4.3577412     -1.4822006e-13 -1.0729418e-13  352.79276     -5.1102849e-13
    200750   5340.6635      413.14434      4927.5191      304.61838      2871.583       0.40101743     18421.214      347.32243     -4.3577412     -1.4683843e-13 -1.0740263e-13  347.32243     -5.0848212e-13
    201000   5316.8033      406.99281      4909.8105      300.08276      4223.9533      0.40101743     18421.214      355.62958     -4.3577412     -1.4758255e-13 -1.0725354e-13  355.62958     -5.0967218e-13
    201250   5354.0153      426.28157      4927.7338      314.30469      4378.1906      0.40101743     18421.214      349.08306     -4.3577412     -1.4965625e-13 -1.0731462e-13  349.08306     -5.1394175e-13
    201500   5343.031       419.49232      4923.5387      309.29886      3618.7945      0.40101743     18421.214      352.77267     -4.3577412     -1.4881717e-13 -1.0746459e-13  352.77267     -5.1256353e-13
    201750   5363.4586      416.24713      4947.2115      306.90612      2994.6616      0.40101743     18421.214      351.07541     -4.3577412     -1.4977161e-13 -1.0753919e-13  351.07541     -5.146216e-13 
    202000   5354.1749      420.3223       4933.8526      309.91081      3390.6111      0.40101743     18421.214      352.1873      -4.3577412     -1.4969478e-13 -1.0770567e-13  352.1873      -5.148009e-13 
    202250   5359.8083      398.25082      4961.5574      293.63714      2902.5691      0.40101743     18421.214      356.40711     -4.3577412     -1.4879941e-13 -1.0773527e-13  356.40711     -5.1306937e-13
    202500   5358.3576      405.31632      4953.0413      298.84665      3525.0118      0.40101743     18421.214      342.16541     -4.3577412     -1.497352e-13  -1.0769497e-13  342.16541     -5.1486033e-13
    202750   5387.3416      448.98823      4938.3534      331.04669      4111.3385      0.40101743     18421.214      353.24859     -4.3577412     -1.4860571e-13 -1.0775918e-13  353.24859     -5.1272979e-13
    203000   5341.4123      408.85864      4932.5537      301.45846      4890.2388      0.40101743     18421.214      362.18822     -4.3577412     -1.4719653e-13 -1.0770988e-13  362.18822     -5.0981283e-13
    203250   5329.5807      410.68264      4918.8981      302.80333      3493.3203      0.40101743     18421.214      358.66632     -4.3577412     -1.4795816e-13 -1.0757305e-13  358.66632     -5.1106243e-13
    203500   5338.5646      394.52156      4944.0431      290.88749      3896.6596      0.40101743     18421.214      352.65691     -4.3577412     -1.4825969e-13 -1.07642e-13    352.65691     -5.1180338e-13
    203750   5343.0269      411.83471      4931.1922      303.65277      2579.8999      0.40101743     18421.214      346.38541     -4.3577412     -1.4674408e-13 -1.0758447e-13  346.38541     -5.0865711e-13
    204000   5355.6551      426.69927      4928.9559      314.61267      4542.467       0.40101743     18421.214      356.30814     -4.3577412     -1.4817623e-13 -1.0753051e-13  356.30814     -5.1141348e-13
    204250   5337.521       412.7982       4924.7228      304.36317      5163.1133      0.40101743     18421.214      360.63632     -4.3577412     -1.4811596e-13 -1.0760815e-13  360.63632     -5.1144821e-13
    204500   5316.336       392.83282      4923.5032      289.64235      3606.183       0.40101743     18421.214      350.71659     -4.3577412     -1.4888768e-13 -1.0772296e-13  350.71659     -5.1322126e-13
    204750   5336.4788      399.90531      4936.5735      294.85702      2191.0295      0.40101743     18421.214      345.33785     -4.3577412     -1.4856378e-13 -1.0766318e-13  345.33785     -5.1245391e-13
    205000   5340.077       416.20995      4923.867       306.87871      2502.9718      0.40101743     18421.214      340.09039     -4.3577412     -1.4931709e-13 -1.0766678e-13  340.09039     -5.1396775e-13
    205250   5341.582       426.75407      4914.8279      314.65307      4105.5533      0.40101743     18421.214      355.7229      -4.3577412     -1.48618e-13   -1.0769945e-13  355.7229      -5.126349e-13 
    205500   5337.8194      407.57183      4930.2476      300.50968      3394.9794      0.40101743     18421.214      350.78107     -4.3577412     -1.488969e-13  -1.0758009e-13  350.78107     -5.1295398e-13
    205750   5334.2983      409.96316      4924.3351      302.27285      2337.1638      0.40101743     18421.214      344.42255     -4.3577412     -1.4944068e-13 -1.0769852e-13  344.42255     -5.142784e-13 
    206000   5361.0657      419.03527      4942.0304      308.96187      4111.2766      0.40101743     18421.214      345.75109     -4.3577412     -1.4974171e-13 -1.0745517e-13  345.75109     -5.1439376e-13
    206250   5317.3158      394.75964      4922.5561      291.06303      3192.9284      0.40101743     18421.214      350.94962     -4.3577412     -1.4820688e-13 -1.0764605e-13  350.94962     -5.1170585e-13
    206500   5313.5786      390.78462      4922.794       288.13218      3999.3574      0.40101743     18421.214      343.09215     -4.3577412     -1.5001678e-13 -1.0761055e-13  343.09215     -5.1525465e-13
    206750   5339.889       385.33337      4954.5556      284.11288      3154.5743      0.40101743     18421.214      357.93125     -4.3577412     -1.5020526e-13 -1.0751113e-13  357.93125     -5.1543278e-13
    207000   5381.8725      424.87451      4956.998       313.26724      2778.2181      0.40101743     18421.214      352.09496     -4.3577412     -1.5057276e-13 -1.076488e-13   352.09496     -5.1644311e-13
    207250   5302.5471      368.61944      4933.9277      271.78942      3061.4248      0.40101743     18421.214      351.90672     -4.3577412     -1.5024861e-13 -1.0765651e-13  351.90672     -5.1581024e-13
    207500   5337.9731      411.41551      4926.5575      303.34369      3749.8261      0.40101743     18421.214      361.39484     -4.3577412     -1.4964068e-13 -1.0774655e-13  361.39484     -5.1477447e-13
    207750   5273.8349      369.52674      4904.3081      272.45838      3645.7036      0.40101743     18421.214      347.23208     -4.3577412     -1.4973481e-13 -1.0768375e-13  347.23208     -5.1483712e-13
    208000   5367.484       435.18476      4932.2992      320.86916      2909.7975      0.40101743     18421.214      354.51998     -4.3577412     -1.5067477e-13 -1.0767552e-13  354.51998     -5.1670058e-13
    208250   5332.486       408.03204      4924.4539      300.849        3639.0688      0.40101743     18421.214      354.14557     -4.3577412     -1.4952074e-13 -1.0762432e-13  354.14557     -5.1429012e-13
    208500   5310.6739      393.01982      4917.6541      289.78023      4920.1728      0.40101743     18421.214      359.86425     -4.3577412     -1.503453e-13  -1.0772592e-13  359.86425     -5.1614244e-13
    208750   5341.3149      412.08584      4929.2291      303.83793      4695.6491      0.40101743     18421.214      358.48433     -4.3577412     -1.5032946e-13 -1.0765306e-13  358.48433     -5.1596502e-13
    209000   5337.4576      390.46633      4946.9913      287.8975       4294.4382      0.40101743     18421.214      368.10356     -4.3577412     -1.4973181e-13 -1.0770506e-13  368.10356     -5.1487374e-13
    209250   5355.6475      408.19884      4947.4487      300.97198      2912.1768      0.40101743     18421.214      352.36085     -4.3577412     -1.4916605e-13 -1.0777881e-13  352.36085     -5.1388971e-13
    209500   5331.6117      406.40478      4925.2069      299.64919      2260.8577      0.40101743     18421.214      346.58272     -4.3577412     -1.5008845e-13 -1.0776882e-13  346.58272     -5.1571454e-13
    209750   5347.0914      427.78925      4919.3021      315.41632      3133.0142      0.40101743     18421.214      352.10453     -4.3577412     -1.4904636e-13 -1.0771786e-13  352.10453     -5.1352844e-13
    210000   5364.8829      420.05183      4944.8311      309.7114       1951.8533      0.40101743     18421.214      350.48981     -4.3577412     -1.5085474e-13 -1.0768388e-13  350.48981     -5.1707724e-13
    210250   5345.4151      413.96025      4931.4549      305.21997      3635.788       0.40101743     18421.214      357.80047     -4.3577412     -1.4932009e-13 -1.0770426e-13  357.80047     -5.1404872e-13
    210500   5353.8057      416.6267       4937.179       307.18599      3864.8467      0.40101743     18421.214      358.39507     -4.3577412     -1.4942938e-13 -1.0770485e-13  358.39507     -5.1426845e-13
    210750   5319.6606      402.87766      4916.7829      297.04859      3550.8584      0.40101743     18421.214      343.67839     -4.3577412     -1.5064271e-13 -1.0777499e-13  343.67839     -5.168354e-13 
    211000   5325.5471      404.90021      4920.6469      298.53984      3583.8378      0.40101743     18421.214      349.29304     -4.3577412     -1.5081214e-13 -1.0788999e-13  349.29304     -5.1740427e-13
    211250   5360.5298      421.29987      4939.2299      310.6316       3556.9049      0.40101743     18421.214      356.71635     -4.3577412     -1.4895855e-13 -1.078342e-13   356.71635     -5.1358551e-13
    211500   5334.6081      418.07904      4916.529       308.25682      3906.7868      0.40101743     18421.214      354.87361     -4.3577412     -1.4794729e-13 -1.0783666e-13  354.87361     -5.1156789e-13
    211750   5304.5213      405.31159      4899.2097      298.84316      4407.1121      0.40101743     18421.214      350.52184     -4.3577412     -1.4965468e-13 -1.0777352e-13  350.52184     -5.1485639e-13
    212000   5301.4846      388.42013      4913.0645      286.3888       3804.1648      0.40101743     18421.214      352.29605     -4.3577412     -1.4764593e-13 -1.0770163e-13  352.29605     -5.1069512e-13
    212250   5372.8392      424.81023      4948.029       313.21985      3621.2986      0.40101743     18421.214      350.47691     -4.3577412     -1.4783023e-13 -1.0768667e-13  350.47691     -5.1103379e-13
    212500   5332.6575      405.38331      4927.2741      298.89604      2942.9053      0.40101743     18421.214      335.9795      -4.3577412     -1.4897726e-13 -1.0767664e-13  335.9795      -5.133078e-13 
    212750   5314.5296      380.32876      4934.2008      280.4229       4366.742       0.40101743     18421.214      363.0688      -4.3577412     -1.4925686e-13 -1.0768779e-13  363.0688      -5.1388931e-13
    213000   5335.5042      412.87805      4922.6262      304.42205      2861.2737      0.40101743     18421.214      342.15091     -4.3577412     -1.4924853e-13 -1.0775348e-13  342.15091     -5.1400403e-13
    213250   5351.043       436.34477      4914.6983      321.72446      3154.7077      0.40101743     18421.214      354.79101     -4.3577412     -1.4775371e-13 -1.0774125e-13  354.79101     -5.1098992e-13
    213500   5378.1092      436.16719      4941.942       321.59352      4536.8555      0.40101743     18421.214      357.80597     -4.3577412     -1.4726827e-13 -1.0776119e-13  357.80597     -5.1005892e-13
    213750   5345.0724      416.84114      4928.2313      307.3441       3665.2782      0.40101743     18421.214      350.70508     -4.3577412     -1.4678198e-13 -1.0774264e-13  350.70508     -5.0904924e-13
    214000   5342.0127      415.85175      4926.161       306.6146       3855.5421      0.40101743     18421.214      352.8668      -4.3577412     -1.4863611e-13 -1.0771611e-13  352.8668      -5.1270445e-13
    214250   5317.3475      397.26866      4920.0789      292.91297      3870.2217      0.40101743     18421.214      350.80128     -4.3577412     -1.4832535e-13 -1.075841e-13   350.80128     -5.118189e-13 
    214500   5312.3109      394.94857      4917.3624      291.20233      3225.3596      0.40101743     18421.214      346.86614     -4.3577412     -1.490249e-13  -1.0755608e-13  346.86614     -5.1316196e-13
    214750   5345.4999      411.54238      4933.9576      303.43723      4089.7681      0.40101743     18421.214      346.91471     -4.3577412     -1.4955817e-13 -1.0763965e-13  346.91471     -5.1439563e-13
    215000   5332.6552      391.59034      4941.0648      288.72625      4734.9503      0.40101743     18421.214      361.59716     -4.3577412     -1.4778716e-13 -1.0774354e-13  361.59716     -5.110614e-13 
    215250   5316.0686      404.63987      4911.4287      298.34789      3036.0084      0.40101743     18421.214      351.49473     -4.3577412     -1.5017231e-13 -1.0768046e-13  351.49473     -5.1570553e-13
    215500   5341.2654      406.17667      4935.0888      299.481        2344.525       0.40101743     18421.214      339.66795     -4.3577412     -1.509028e-13  -1.0763937e-13  339.66795     -5.1708433e-13
    215750   5331.4292      395.67114      4935.758       291.73509      4171.896       0.40101743     18421.214      363.97026     -4.3577412     -1.4808029e-13 -1.0748025e-13  363.97026     -5.1112109e-13
    216000   5355.1797      433.35379      4921.8259      319.51916      3098.2244      0.40101743     18421.214      340.38261     -4.3577412     -1.4992765e-13 -1.0746007e-13  340.38261     -5.1477544e-13
    216250   5354.3686      392.48726      4961.8814      289.38757      4248.9919      0.40101743     18421.214      355.81848     -4.3577412     -1.4991463e-13 -1.073641e-13   355.81848     -5.1455746e-13
    216500   5305.4343      385.86192      4919.5723      284.50259      3341.6475      0.40101743     18421.214      346.80474     -4.3577412     -1.5052112e-13 -1.073913e-13   346.80474     -5.1582484e-13
    216750   5303.4551      387.04241      4916.4127      285.37298      2232.6115      0.40101743     18421.214      341.36736     -4.3577412     -1.499263e-13  -1.0740734e-13  341.36736     -5.1466728e-13
    217000   5363.1034      412.96595      4950.1375      304.48685      3043.367       0.40101743     18421.214      345.6262      -4.3577412     -1.4912649e-13 -1.0740104e-13  345.6262      -5.1305507e-13
    217250   5345.5322      398.4768       4947.0554      293.80376      2385.8517      0.40101743     18421.214      353.51069     -4.3577412     -1.4960842e-13 -1.0744106e-13  353.51069     -5.1409896e-13
    217500   5362.3898      438.98234      4923.4075      323.66918      2723.1301      0.40101743     18421.214      339.61184     -4.3577412     -1.5061687e-13 -1.0726448e-13  339.61184     -5.157627e-13 
    217750   5330.592       408.94574      4921.6463      301.52268      5122.6767      0.40101743     18421.214      365.39691     -4.3577412     -1.4823169e-13 -1.0705106e-13  365.39691     -5.1056549e-13
    218000   5314.0183      379.37396      4934.6443      279.7189       4137.2424      0.40101743     18421.214      351.04107     -4.3577412     -1.4897466e-13 -1.0697956e-13  351.04107     -5.1190845e-13
    218250   5344.5843      390.10255      4954.4817      287.62928      3354.7634      0.40101743     18421.214      342.62511     -4.3577412     -1.5023888e-13 -1.0732321e-13  342.62511     -5.1512417e-13
    218500   5329.902       386.44361      4943.4584      284.93148      2941.8936      0.40101743     18421.214      340.96954     -4.3577412     -1.5142441e-13 -1.0739569e-13  340.96954     -5.1764021e-13
    218750   5357.4287      438.15487      4919.2738      323.05907      3124.5         0.40101743     18421.214      351.2746      -4.3577412     -1.4771263e-13 -1.0730938e-13  351.2746      -5.1004401e-13
    219000   5314.7962      403.41963      4911.3766      297.44818      2335.8952      0.40101743     18421.214      343.68625     -4.3577412     -1.4992917e-13 -1.0730346e-13  343.68625     -5.1446526e-13
    219250   5304.9383      388.10254      4916.8358      286.15464      3051.2749      0.40101743     18421.214      346.25654     -4.3577412     -1.48474e-13   -1.0735305e-13  346.25654     -5.1165411e-13
    219500   5359.6338      394.2415       4965.3923      290.68099      3205.3206      0.40101743     18421.214      350.57119     -4.3577412     -1.4699868e-13 -1.0727355e-13  350.57119     -5.0854446e-13
    219750   5336.5085      415.7039       4920.8046      306.50559      3473.5973      0.40101743     18421.214      352.63049     -4.3577412     -1.4820063e-13 -1.0739118e-13  352.63049     -5.1118362e-13
    220000   5340.8929      396.32293      4944.57        292.21567      2879.5613      0.40101743     18421.214      356.28993     -4.3577412     -1.4845458e-13 -1.0748761e-13  356.28993     -5.1188437e-13
    220250   5316.7649      407.63627      4909.1287      300.55719      2668.4572      0.40101743     18421.214      348.38357     -4.3577412     -1.4888749e-13 -1.07525e-13    348.38357     -5.1282498e-13
    220500   5317.5303      383.00248      4934.5278      282.39428      2861.3795      0.40101743     18421.214      353.93961     -4.3577412     -1.4762688e-13 -1.0754608e-13  353.93961     -5.1034592e-13
    220750   5357.989       430.83548      4927.1536      317.66237      3256.2461      0.40101743     18421.214      349.11863     -4.3577412     -1.4979733e-13 -1.0754414e-13  349.11863     -5.1468294e-13
    221000   5344.49        419.12379      4925.3662      309.02714      3579.8285      0.40101743     18421.214      356.08754     -4.3577412     -1.4863201e-13 -1.0758806e-13  356.08754     -5.1244014e-13
    221250   5364.6771      425.43744      4939.2396      313.6823       2259.7702      0.40101743     18421.214      335.98451     -4.3577412     -1.4802153e-13 -1.0748651e-13  335.98451     -5.1101607e-13
    221500   5323.2002      394.75513      4928.4451      291.0597       2726.1461      0.40101743     18421.214      339.85431     -4.3577412     -1.5010208e-13 -1.0725539e-13  339.85431     -5.1471493e-13
    221750   5327.4885      402.82516      4924.6633      297.00988      2689.6545      0.40101743     18421.214      344.9152      -4.3577412     -1.481951e-13  -1.0740412e-13  344.9152      -5.1119843e-13
    222000   5363.0493      420.22607      4942.8232      309.83986      2293.841       0.40101743     18421.214      347.39472     -4.3577412     -1.4832495e-13 -1.0755123e-13  347.39472     -5.1175236e-13
    222250   5339.376       432.687        4906.689       319.02752      3849.0654      0.40101743     18421.214      358.23612     -4.3577412     -1.4840293e-13 -1.0773024e-13  358.23612     -5.1226634e-13
    222500   5349.9912      398.70842      4951.2828      293.97453      1990.4104      0.40101743     18421.214      342.93069     -4.3577412     -1.4819653e-13 -1.0771225e-13  342.93069     -5.1181756e-13
    222750   5327.0545      408.59956      4918.455       301.26744      3273.5255      0.40101743     18421.214      350.50512     -4.3577412     -1.4916304e-13 -1.0759791e-13  350.50512     -5.1352189e-13
    223000   5324.1552      396.08196      4928.0732      292.038        3699.6148      0.40101743     18421.214      343.26544     -4.3577412     -1.4999156e-13 -1.0774517e-13  343.26544     -5.1547344e-13
    223250   5330.2053      399.3233       4930.882       294.42789      3229.2815      0.40101743     18421.214      353.77642     -4.3577412     -1.4774338e-13 -1.0764474e-13  353.77642     -5.1077625e-13
    223500   5373.909       450.21399      4923.695       331.95047      3096.9437      0.40101743     18421.214      346.47707     -4.3577412     -1.4824772e-13 -1.0767302e-13  346.47707     -5.1184147e-13
    223750   5361.7143      425.50134      4936.213       313.72941      3708.5107      0.40101743     18421.214      334.10962     -4.3577412     -1.4907463e-13 -1.0766191e-13  334.10962     -5.1347307e-13
    224000   5356.7554      404.016        4952.7394      297.8879       2411.123       0.40101743     18421.214      345.06986     -4.3577412     -1.4861436e-13 -1.0743606e-13  345.06986     -5.1210084e-13
    224250   5358.8689      401.91427      4956.9546      296.33826      3954.4815      0.40101743     18421.214      349.11111     -4.3577412     -1.4743873e-13 -1.0750956e-13  349.11111     -5.0989659e-13
    224500   5371.0028      437.33751      4933.6653      322.45642      4163.3289      0.40101743     18421.214      360.23806     -4.3577412     -1.4803715e-13 -1.0746505e-13  360.23806     -5.1100439e-13
    224750   5351.2262      412.8028       4938.4234      304.36656      3520.7477      0.40101743     18421.214      344.49071     -4.3577412     -1.5047561e-13 -1.0739277e-13  344.49071     -5.1573675e-13
    225000   5363.0635      425.43691      4937.6265      313.6819       3892.2374      0.40101743     18421.214      357.44873     -4.3577412     -1.4811532e-13 -1.0749532e-13  357.44873     -5.112213e-13 
    225250   5317.711       401.03431      4916.6767      295.68945      2462.3592      0.40101743     18421.214      342.91388     -4.3577412     -1.4851908e-13 -1.0728813e-13  342.91388     -5.1161442e-13
    225500   5359.1045      422.46023      4936.6442      311.48715      3638.0699      0.40101743     18421.214      340.16926     -4.3577412     -1.5029941e-13 -1.0722986e-13  340.16926     -5.1505855e-13
    225750   5370.2166      453.30937      4916.9072      334.23275      3807.5789      0.40101743     18421.214      352.70541     -4.3577412     -1.5029034e-13 -1.0702032e-13  352.70541     -5.1462132e-13
    226000   5303.2389      371.46792      4931.771       273.88965      3155.3259      0.40101743     18421.214      343.9399      -4.3577412     -1.4935287e-13 -1.0699846e-13  343.9399      -5.1270265e-13
    226250   5347.3348      394.35958      4952.9752      290.76806      3294.566       0.40101743     18421.214      354.41841     -4.3577412     -1.4847699e-13 -1.0719982e-13  354.41841     -5.1135363e-13
    226500   5330.5184      414.37957      4916.1388      305.52914      3339.1082      0.40101743     18421.214      359.22747     -4.3577412     -1.4925963e-13 -1.0715961e-13  359.22747     -5.1283847e-13
    226750   5322.3695      408.8063       4913.5632      301.41987      3429.9812      0.40101743     18421.214      351.7541      -4.3577412     -1.5030813e-13 -1.0747225e-13  351.7541      -5.1556077e-13
    227000   5323.7431      395.10477      4928.6383      291.3175       3974.3566      0.40101743     18421.214      341.99995     -4.3577412     -1.4796933e-13 -1.0736712e-13  341.99995     -5.106729e-13 
    227250   5341.3093      412.06767      4929.2416      303.82454      2921.9223      0.40101743     18421.214      340.41884     -4.3577412     -1.4886816e-13 -1.0740773e-13  340.41884     -5.1255177e-13
    227500   5346.5997      424.93803      4921.6617      313.31408      3374.8983      0.40101743     18421.214      351.51467     -4.3577412     -1.47429e-13   -1.0738132e-13  351.51467     -5.0962063e-13
    227750   5340.2183      428.59105      4911.6273      316.00751      3676.6681      0.40101743     18421.214      340.16147     -4.3577412     -1.4949212e-13 -1.0743197e-13  340.16147     -5.138482e-13 
    228000   5310.0571      377.54604      4932.511       278.37115      3727.9008      0.40101743     18421.214      355.25106     -4.3577412     -1.4993595e-13 -1.0751782e-13  355.25106     -5.1490753e-13
    228250   5319.3656      420.7664       4898.5991      310.23826      3082.2018      0.40101743     18421.214      352.56294     -4.3577412     -1.4841002e-13 -1.073977e-13   352.56294     -5.1161544e-13
    228500   5358.7408      427.02575      4931.7151      314.85338      3715.0713      0.40101743     18421.214      356.10328     -4.3577412     -1.4809441e-13 -1.0761083e-13  356.10328     -5.1141049e-13
    228750   5320.3292      422.33731      4897.9919      311.39652      2434.1575      0.40101743     18421.214      335.823       -4.3577412     -1.4803299e-13 -1.0768198e-13  335.823       -5.1142994e-13
    229000   5382.5404      422.53842      4960.002       311.5448       5148.6777      0.40101743     18421.214      375.31503     -4.3577412     -1.4833636e-13 -1.0750001e-13  375.31503     -5.1167274e-13
    229250   5383.8753      428.48216      4955.3931      315.92722      4118.4058      0.40101743     18421.214      350.08831     -4.3577412     -1.5092421e-13 -1.0737394e-13  350.08831     -5.1659629e-13
    229500   5319.2629      378.44527      4940.8176      279.03417      1957.5896      0.40101743     18421.214      347.22764     -4.3577412     -1.4916289e-13 -1.0742575e-13  347.22764     -5.1317729e-13
    229750   5346.4394      435.0659       4911.3735      320.78152      3350.0595      0.40101743     18421.214      349.65091     -4.3577412     -1.4869943e-13 -1.0747705e-13  349.65091     -5.1235295e-13
    230000   5344.1582      423.39112      4920.7671      312.17351      2545.512       0.40101743     18421.214      354.4276      -4.3577412     -1.4892301e-13 -1.0738615e-13  354.4276      -5.1261833e-13
    230250   5367.8676      413.52951      4954.3381      304.90238      3223.9874      0.40101743     18421.214      344.59838     -4.3577412     -1.4965267e-13 -1.0734633e-13  344.59838     -5.1399801e-13
    230500   5372.9631      436.20984      4936.7533      321.62497      4081.7033      0.40101743     18421.214      374.19964     -4.3577412     -1.47936e-13   -1.0741265e-13  374.19964     -5.1069728e-13
    230750   5345.4019      408.45083      4936.951       301.15778      3414.5708      0.40101743     18421.214      347.59413     -4.3577412     -1.4740219e-13 -1.0736284e-13  347.59413     -5.0953005e-13
    231000   5345.2604      404.67342      4940.587       298.37263      3168.4309      0.40101743     18421.214      356.86515     -4.3577412     -1.4694686e-13 -1.0740855e-13  356.86515     -5.0871083e-13
    231250   5367.5197      439.38011      4928.1396      323.96247      5207.2742      0.40101743     18421.214      355.11372     -4.3577412     -1.4965561e-13 -1.0732262e-13  355.11372     -5.1395647e-13
    231500   5351.6252      423.20046      4928.4248      312.03293      3830.2695      0.40101743     18421.214      352.70966     -4.3577412     -1.4683684e-13 -1.0750292e-13  352.70966     -5.0867952e-13
    231750   5332.4448      376.96924      4955.4755      277.94587      3862.9876      0.40101743     18421.214      349.13438     -4.3577412     -1.5117801e-13 -1.075425e-13   349.13438     -5.1744103e-13
    232000   5319.0031      403.68339      4915.3197      297.64266      4412.762       0.40101743     18421.214      353.02754     -4.3577412     -1.4848226e-13 -1.0744499e-13  353.02754     -5.1185449e-13
    232250   5346.225       388.53832      4957.6867      286.47594      2300.4206      0.40101743     18421.214      338.41095     -4.3577412     -1.4953422e-13 -1.0758508e-13  338.41095     -5.142386e-13 
    232500   5332.0552      411.47059      4920.5846      303.3843       3599.7454      0.40101743     18421.214      356.89365     -4.3577412     -1.4879679e-13 -1.0762615e-13  356.89365     -5.1284588e-13
    232750   5331.2908      393.0743       4938.2165      289.8204       3179.9801      0.40101743     18421.214      343.00272     -4.3577412     -1.4989458e-13 -1.0754934e-13  343.00272     -5.1488784e-13
    233000   5329.591       408.23649      4921.3545      300.99974      4016.4186      0.40101743     18421.214      358.26848     -4.3577412     -1.5016545e-13 -1.0746748e-13  358.26848     -5.1526586e-13
    233250   5293.5675      372.77029      4920.7972      274.84991      4245.5286      0.40101743     18421.214      354.65688     -4.3577412     -1.503489e-13  -1.0769332e-13  354.65688     -5.1608445e-13
    233500   5367.7721      428.76783      4939.0043      316.13785      4620.4436      0.40101743     18421.214      360.13023     -4.3577412     -1.4886195e-13 -1.077984e-13   360.13023     -5.1332071e-13
    233750   5332.0132      385.6713       4946.3419      284.36204      4583.5783      0.40101743     18421.214      366.17761     -4.3577412     -1.4934794e-13 -1.0768708e-13  366.17761     -5.1407003e-13
    234000   5310.9933      389.44701      4921.5463      287.14593      3143.0205      0.40101743     18421.214      352.1489      -4.3577412     -1.4738863e-13 -1.0744021e-13  352.1489      -5.0965767e-13
    234250   5315.5019      400.38447      4915.1174      295.21032      2261.942       0.40101743     18421.214      343.75502     -4.3577412     -1.4978009e-13 -1.0758859e-13  343.75502     -5.1473736e-13
    234500   5356.9496      418.17344      4938.7761      308.32642      3078.825       0.40101743     18421.214      352.10839     -4.3577412     -1.4854173e-13 -1.0752802e-13  352.10839     -5.121395e-13 
    234750   5321.3433      405.72163      4915.6216      299.14549      5274.4745      0.40101743     18421.214      352.69392     -4.3577412     -1.4962526e-13 -1.0749097e-13  352.69392     -5.1423247e-13
    235000   5341.7478      426.46118      4915.2866      314.43712      2116.3051      0.40101743     18421.214      335.46697     -4.3577412     -1.4959171e-13 -1.0742855e-13  335.46697     -5.1404052e-13
    235250   5330.8055      385.15032      4945.6552      283.97791      3670.1505      0.40101743     18421.214      359.37221     -4.3577412     -1.4956002e-13 -1.074821e-13   359.37221     -5.1408425e-13
    235500   5382.301       437.47471      4944.8263      322.55758      2921.305       0.40101743     18421.214      336.55802     -4.3577412     -1.4900601e-13 -1.0764115e-13  336.55802     -5.1329432e-13
    235750   5335.1808      399.50007      4935.6807      294.55823      3916.1578      0.40101743     18421.214      355.73733     -4.3577412     -1.5007467e-13 -1.0748071e-13  355.73733     -5.1511077e-13
    236000   5310.3854      396.34743      4914.038       292.23373      1876.2385      0.40101743     18421.214      352.09108     -4.3577412     -1.5031552e-13 -1.0757508e-13  352.09108     -5.1578121e-13
    236250   5351.7548      413.89599      4937.8588      305.17259      3380.7726      0.40101743     18421.214      355.66573     -4.3577412     -1.4958608e-13 -1.0757679e-13  355.66573     -5.1432573e-13
    236500   5357.4402      416.92956      4940.5107      307.40929      2961.1875      0.40101743     18421.214      344.05826     -4.3577412     -1.5067215e-13 -1.0739297e-13  344.05826     -5.1613024e-13
    236750   5324.5752      377.6684       4946.9068      278.46137      3583.364       0.40101743     18421.214      361.50313     -4.3577412     -1.5064183e-13 -1.0740753e-13  361.50313     -5.1609873e-13
    237000   5376.9239      413.09194      4963.832       304.57975      2410.7588      0.40101743     18421.214      339.52586     -4.3577412     -1.5053871e-13 -1.0715293e-13  339.52586     -5.1538328e-13
    237250   5337.9211      390.24808      4947.673       287.73658      3444.5433      0.40101743     18421.214      354.38894     -4.3577412     -1.5003079e-13 -1.0733708e-13  354.38894     -5.1473574e-13
    237500   5360.5539      438.72335      4921.8306      323.47822      2291.2799      0.40101743     18421.214      341.69025     -4.3577412     -1.4995621e-13 -1.0758513e-13  341.69025     -5.1508268e-13
    237750   5342.49        413.07347      4929.4165      304.56613      4293.9182      0.40101743     18421.214      366.86125     -4.3577412     -1.4985158e-13 -1.0760934e-13  366.86125     -5.1492185e-13
    238000   5342.8524      397.5965       4945.2559      293.15469      4948.4242      0.40101743     18421.214      377.08532     -4.3577412     -1.5066403e-13 -1.074601e-13   377.08532     -5.1624826e-13
    238250   5337.2298      403.66933      4933.5605      297.6323       2868.2183      0.40101743     18421.214      359.27971     -4.3577412     -1.4861367e-13 -1.0725417e-13  359.27971     -5.1173569e-13
    238500   5373.2992      417.18341      4956.1158      307.59646      3519.5279      0.40101743     18421.214      363.44654     -4.3577412     -1.4862979e-13 -1.07349e-13    363.44654     -5.1195759e-13
    238750   5315.4188      414.08827      4901.3305      305.31436      4381.1701      0.40101743     18421.214      347.34271     -4.3577412     -1.4934532e-13 -1.0721011e-13  347.34271     -5.1311087e-13
    239000   5365.1044      425.09329      4940.0111      313.42855      3124.5905      0.40101743     18421.214      355.77503     -4.3577412     -1.513121e-13  -1.072639e-13   355.77503     -5.1715201e-13
    239250   5347.7665      411.33663      4936.4299      303.28553      3952.6249      0.40101743     18421.214      349.43636     -4.3577412     -1.4936687e-13 -1.0709709e-13  349.43636     -5.1292792e-13
    239500   5341.3027      415.77989      4925.5228      306.56162      3381.3935      0.40101743     18421.214      355.67192     -4.3577412     -1.4945701e-13 -1.074455e-13   355.67192     -5.1380501e-13
    239750   5333.0962      413.94065      4919.1556      305.20551      4595.6688      0.40101743     18421.214      365.88237     -4.3577412     -1.4758773e-13 -1.0761312e-13  365.88237     -5.104017e-13 
    240000   5396.7206      415.89845      4980.8221      306.64904      3489.8655      0.40101743     18421.214      366.1455      -4.3577412     -1.4824268e-13 -1.0769216e-13  366.1455      -5.1186968e-13
    240250   5358.1589      390.75966      4967.3992      288.11378      2373.9969      0.40101743     18421.214      336.45027     -4.3577412     -1.4862109e-13 -1.07739e-13    336.45027     -5.1272018e-13
    240500   5327.2371      392.3328       4934.9043      289.27368      2832.6866      0.40101743     18421.214      339.93653     -4.3577412     -1.4778286e-13 -1.0768714e-13  339.93653     -5.1094e-13   
    240750   5331.9902      400.86275      4931.1274      295.56295      4483.7228      0.40101743     18421.214      368.08308     -4.3577412     -1.4859383e-13 -1.076639e-13   368.08308     -5.1251546e-13
    241000   5343.5602      411.84055      4931.7196      303.65708      2647.8374      0.40101743     18421.214      344.11096     -4.3577412     -1.4743295e-13 -1.0774553e-13  344.11096     -5.1035697e-13
    241250   5347.626       398.50901      4949.117       293.8275       2457.6331      0.40101743     18421.214      345.45404     -4.3577412     -1.4943094e-13 -1.077483e-13   345.45404     -5.1435848e-13
    241500   5368.0877      427.27711      4940.8106      315.03872      2379.303       0.40101743     18421.214      336.90894     -4.3577412     -1.5114646e-13 -1.0765595e-13  336.90894     -5.1760481e-13
    241750   5346.3875      415.95378      4930.4337      306.68983      3668.5141      0.40101743     18421.214      353.3898      -4.3577412     -1.5159021e-13 -1.0755016e-13  353.3898      -5.1828075e-13
    242000   5328.6265      426.27988      4902.3466      314.30344      3858.1634      0.40101743     18421.214      355.7043      -4.3577412     -1.4921221e-13 -1.0758013e-13  355.7043      -5.1358467e-13
    242250   5340.5355      417.50837      4923.0272      307.83606      2676.4173      0.40101743     18421.214      342.92932     -4.3577412     -1.4907023e-13 -1.0736773e-13  342.92932     -5.1287592e-13
    242500   5341.9331      414.97495      4926.9582      305.96812      2724.0038      0.40101743     18421.214      352.36935     -4.3577412     -1.4793721e-13 -1.074441e-13   352.36935     -5.1076261e-13
    242750   5325.6281      389.26894      4936.3591      287.01464      2617.1375      0.40101743     18421.214      353.00804     -4.3577412     -1.478092e-13  -1.0745855e-13  353.00804     -5.1053549e-13
    243000   5346.2053      410.71825      4935.487       302.82959      3079.089       0.40101743     18421.214      352.06828     -4.3577412     -1.4946419e-13 -1.0746301e-13  352.06828     -5.138544e-13 
    243250   5370.4059      425.2511       4945.1548      313.5449       2962.9641      0.40101743     18421.214      346.35904     -4.3577412     -1.4900758e-13 -1.0747411e-13  346.35904     -5.1296337e-13
    243500   5340.3441      397.08903      4943.255       292.78053      3219.7365      0.40101743     18421.214      360.87862     -4.3577412     -1.4925359e-13 -1.0750766e-13  360.87862     -5.1352251e-13
    243750   5323.1786      397.15156      4926.027       292.82663      2892.588       0.40101743     18421.214      353.16423     -4.3577412     -1.4835832e-13 -1.0766753e-13  353.16423     -5.1205169e-13
    244000   5337.4779      415.84934      4921.6286      306.61282      3106.6899      0.40101743     18421.214      359.6574      -4.3577412     -1.491283e-13  -1.0771969e-13  359.6574      -5.13696e-13  
    244250   5344.7313      424.63553      4920.0957      313.09103      3258.6644      0.40101743     18421.214      336.62152     -4.3577412     -1.4908681e-13 -1.0774453e-13  336.62152     -5.1366269e-13
    244500   5370.7192      434.44774      4936.2715      320.32574      3811.7631      0.40101743     18421.214      358.4468      -4.3577412     -1.4899418e-13 -1.0764843e-13  358.4468      -5.1328522e-13
    244750   5350.9775      420.85683      4930.1207      310.30493      3870.3249      0.40101743     18421.214      352.02803     -4.3577412     -1.4840092e-13 -1.0763563e-13  352.02803     -5.120731e-13 
    245000   5352.4081      410.16436      4942.2437      302.42119      2927.0201      0.40101743     18421.214      345.82016     -4.3577412     -1.4959476e-13 -1.0736912e-13  345.82016     -5.1392774e-13
    245250   5304.6549      381.96644      4922.6885      281.63038      2490.8383      0.40101743     18421.214      348.548       -4.3577412     -1.4941688e-13 -1.0745779e-13  348.548       -5.1374934e-13
    245500   5308.9684      391.34552      4917.6229      288.54574      2464.1124      0.40101743     18421.214      354.92424     -4.3577412     -1.5018738e-13 -1.0751968e-13  354.92424     -5.1541412e-13
    245750   5339.1355      408.03411      4931.1013      300.85053      3006.8619      0.40101743     18421.214      359.35278     -4.3577412     -1.5185385e-13 -1.0756962e-13  359.35278     -5.1884694e-13
    246000   5321.1386      401.61183      4919.5268      296.11527      3194.2205      0.40101743     18421.214      346.08304     -4.3577412     -1.5149003e-13 -1.0758404e-13  346.08304     -5.1814814e-13
    246250   5345.3515      404.5523       4940.7992      298.28333      2991.0353      0.40101743     18421.214      343.63261     -4.3577412     -1.5093917e-13 -1.0748494e-13  343.63261     -5.1684822e-13
    246500   5339.5344      402.02195      4937.5125      296.41766      3048.7869      0.40101743     18421.214      344.7822      -4.3577412     -1.5261786e-13 -1.0760942e-13  344.7822      -5.2045456e-13
    246750   5304.1642      389.76411      4914.4001      287.37974      3108.4488      0.40101743     18421.214      354.56259     -4.3577412     -1.4934133e-13 -1.0754319e-13  354.56259     -5.1376904e-13
    247000   5359.5972      429.70294      4929.8942      316.82732      4232.8779      0.40101743     18421.214      362.42826     -4.3577412     -1.4898547e-13 -1.0758863e-13  362.42826     -5.131482e-13 
    247250   5353.605       431.21062      4922.3944      317.93896      1774.1799      0.40101743     18421.214      344.85888     -4.3577412     -1.5002591e-13 -1.0769319e-13  344.85888     -5.154382e-13 
    247500   5347.5381      413.10353      4934.4345      304.58829      3783.4997      0.40101743     18421.214      361.95355     -4.3577412     -1.5008138e-13 -1.07592e-13    361.95355     -5.1534676e-13
    247750   5352.0504      387.36857      4964.6818      285.61347      4124.8058      0.40101743     18421.214      357.18653     -4.3577412     -1.4884718e-13 -1.0758122e-13  357.18653     -5.128568e-13 
    248000   5333.6204      401.57468      4932.0458      296.08787      3689.8626      0.40101743     18421.214      367.54779     -4.3577412     -1.472375e-13  -1.0758387e-13  367.54779     -5.0964275e-13
    248250   5344.7561      419.99426      4924.7619      309.66894      3456.3024      0.40101743     18421.214      352.97543     -4.3577412     -1.479216e-13  -1.0763823e-13  352.97543     -5.1111965e-13
    248500   5338.0089      411.90929      4926.0996      303.70776      4086.2406      0.40101743     18421.214      349.06401     -4.3577412     -1.4827397e-13 -1.0769448e-13  349.06401     -5.1193689e-13
    248750   5319.4177      393.54416      4925.8736      290.16683      3363.3527      0.40101743     18421.214      351.31114     -4.3577412     -1.4942513e-13 -1.0779985e-13  351.31114     -5.1444996e-13
    249000   5328.6709      385.14965      4943.5213      283.97742      3174.3952      0.40101743     18421.214      352.04872     -4.3577412     -1.4767718e-13 -1.0785283e-13  352.04872     -5.1106002e-13
    249250   5326.9244      407.62076      4919.3036      300.54575      3147.1809      0.40101743     18421.214      352.78254     -4.3577412     -1.48844e-13   -1.077617e-13   352.78254     -5.132114e-13 
    249500   5329.5085      405.05109      4924.4574      298.65109      2962.1565      0.40101743     18421.214      346.47892     -4.3577412     -1.4956818e-13 -1.0783012e-13  346.47892     -5.1479661e-13
    249750   5347.6726      394.07371      4953.5989      290.55728      3106.071       0.40101743     18421.214      340.10018     -4.3577412     -1.4918196e-13 -1.0778689e-13  340.10018     -5.1393771e-13
    250000   5347.4503      418.11242      4929.3379      308.28143      2696.8728      0.40101743     18421.214      351.42524     -4.3577412     -1.4857357e-13 -1.0763056e-13  351.42524     -5.1240827e-13
    250250   5345.0922      404.29071      4940.8015      298.09045      2729.3513      0.40101743     18421.214      349.18934     -4.3577412     -1.4879627e-13 -1.0759149e-13  349.18934     -5.1277551e-13
    250500   5341.4292      426.97698      4914.4522      314.81743      3490.5552      0.40101743     18421.214      350.36076     -4.3577412     -1.4859706e-13 -1.0751631e-13  350.36076     -5.1222673e-13
    250750   5346.2564      399.65579      4946.6006      294.67304      3113.2223      0.40101743     18421.214      343.09348     -4.3577412     -1.5049311e-13 -1.0733321e-13  343.09348     -5.1565263e-13
    251000   5344.0633      410.18859      4933.8747      302.43906      2839.0065      0.40101743     18421.214      355.70538     -4.3577412     -1.4823182e-13 -1.0740156e-13  355.70538     -5.1126677e-13
    251250   5323.1589      414.48471      4908.6742      305.60666      4646.9233      0.40101743     18421.214      357.63728     -4.3577412     -1.4816805e-13 -1.0750568e-13  357.63728     -5.1134747e-13
    251500   5351.1295      416.9745       4934.155       307.44242      2731.4421      0.40101743     18421.214      355.52722     -4.3577412     -1.4798721e-13 -1.0759037e-13  355.52722     -5.1115516e-13
    251750   5351.4446      400.94914      4950.4954      295.62666      2883.9466      0.40101743     18421.214      358.93804     -4.3577412     -1.4945871e-13 -1.0747854e-13  358.93804     -5.1387451e-13
    252000   5337.6575      403.34469      4934.3129      297.39294      3896.5675      0.40101743     18421.214      362.946       -4.3577412     -1.4909061e-13 -1.0745033e-13  362.946       -5.1308189e-13
    252250   5339.5334      415.06716      4924.4662      306.03611      3303.3317      0.40101743     18421.214      354.98865     -4.3577412     -1.4892105e-13 -1.0753509e-13  354.98865     -5.1291229e-13
    252500   5345.5243      422.24341      4923.2809      311.32728      3402.9394      0.40101743     18421.214      351.81995     -4.3577412     -1.5002312e-13 -1.0749134e-13  351.81995     -5.1502892e-13
    252750   5338.5436      403.57862      4934.965       297.56541      2335.4722      0.40101743     18421.214      341.42238     -4.3577412     -1.479356e-13  -1.0741908e-13  341.42238     -5.1070937e-13
    253000   5347.491       432.31109      4915.1799      318.75036      3210.5533      0.40101743     18421.214      351.60954     -4.3577412     -1.4815645e-13 -1.0742219e-13  351.60954     -5.1115729e-13
    253250   5350.8042      412.09024      4938.7139      303.84118      3578.8998      0.40101743     18421.214      353.68092     -4.3577412     -1.4813455e-13 -1.0761604e-13  353.68092     -5.1150117e-13
    253500   5339.4997      405.17747      4934.3222      298.74428      2337.5422      0.40101743     18421.214      340.97361     -4.3577412     -1.4784686e-13 -1.0737354e-13  340.97361     -5.1044081e-13
    253750   5323.6495      393.10435      4930.5451      289.84256      3190.5977      0.40101743     18421.214      361.21919     -4.3577412     -1.4992017e-13 -1.0732478e-13  361.21919     -5.144899e-13 
    254000   5341.1855      423.13185      4918.0537      311.98235      3176.4193      0.40101743     18421.214      344.76004     -4.3577412     -1.4882139e-13 -1.0728709e-13  344.76004     -5.1221696e-13
    254250   5296.8278      362.09967      4934.7281      266.98227      3043.5837      0.40101743     18421.214      344.80381     -4.3577412     -1.4979684e-13 -1.0728144e-13  344.80381     -5.1415655e-13
    254500   5356.0914      405.89952      4950.1918      299.27665      2944.9033      0.40101743     18421.214      351.71688     -4.3577412     -1.490545e-13  -1.0735797e-13  351.71688     -5.1282495e-13
    254750   5328.4509      401.20465      4927.2463      295.81505      3453.1045      0.40101743     18421.214      350.78388     -4.3577412     -1.4834093e-13 -1.0748448e-13  350.78388     -5.1165081e-13
    255000   5349.7844      425.64439      4924.14        313.83488      2947.2357      0.40101743     18421.214      348.7472      -4.3577412     -1.4884894e-13 -1.0772365e-13  348.7472      -5.1314518e-13
    255250   5339.9497      384.00064      4955.949       283.13024      3621.6472      0.40101743     18421.214      359.58249     -4.3577412     -1.5055458e-13 -1.0760732e-13  359.58249     -5.1632381e-13
    255500   5310.9916      389.74871      4921.2429      287.36838      2510.8438      0.40101743     18421.214      345.04391     -4.3577412     -1.4889692e-13 -1.0764552e-13  345.04391     -5.1308487e-13
    255750   5346.0046      424.6322       4921.3724      313.08858      2070.7092      0.40101743     18421.214      352.58084     -4.3577412     -1.4893999e-13 -1.0759559e-13  352.58084     -5.1307116e-13
    256000   5383.696       419.43058      4964.2654      309.25334      2251.3404      0.40101743     18421.214      345.8547      -4.3577412     -1.4936974e-13 -1.0747565e-13  345.8547      -5.1369078e-13
    256250   5355.7679      423.89819      4931.8697      312.54738      3898.0188      0.40101743     18421.214      358.55653     -4.3577412     -1.4837472e-13 -1.0736281e-13  358.55653     -5.1147505e-13
    256500   5370.448       432.17235      4938.2757      318.64806      3184.9292      0.40101743     18421.214      351.25208     -4.3577412     -1.4764348e-13 -1.0738072e-13  351.25208     -5.100484e-13 
    256750   5336.0666      424.72337      4911.3433      313.1558       3176.4382      0.40101743     18421.214      351.38877     -4.3577412     -1.4790894e-13 -1.074594e-13   351.38877     -5.1073667e-13
    257000   5336.7051      424.42582      4912.2792      312.93641      3229.2691      0.40101743     18421.214      344.03368     -4.3577412     -1.481652e-13  -1.0764058e-13  344.03368     -5.1161155e-13
    257250   5338.6628      399.41274      4939.2501      294.49384      3821.0758      0.40101743     18421.214      347.46566     -4.3577412     -1.4992996e-13 -1.0757167e-13  347.46566     -5.1500326e-13
    257500   5342.7518      404.44907      4938.3028      298.20721      5623.8049      0.40101743     18421.214      365.39765     -4.3577412     -1.4908492e-13 -1.0751443e-13  365.39765     -5.1319869e-13
    257750   5346.3891      433.29523      4913.0939      319.47598      2213.5337      0.40101743     18421.214      343.83359     -4.3577412     -1.4992473e-13 -1.0756741e-13  343.83359     -5.1498427e-13
    258000   5319.7425      397.25886      4922.4837      292.90575      3471.2717      0.40101743     18421.214      349.50718     -4.3577412     -1.5025172e-13 -1.0750164e-13  349.50718     -5.1550672e-13
    258250   5327.9134      399.77376      4928.1397      294.76002      3941.0984      0.40101743     18421.214      361.9868      -4.3577412     -1.4858403e-13 -1.0745781e-13  361.9868      -5.1208368e-13
    258500   5358.559       397.6927       4960.8663      293.22563      3367.9968      0.40101743     18421.214      358.60422     -4.3577412     -1.4908231e-13 -1.0746536e-13  358.60422     -5.1309535e-13
    258750   5350.3928      421.93437      4928.4585      311.09943      3472.5007      0.40101743     18421.214      348.09991     -4.3577412     -1.4774273e-13 -1.0737098e-13  348.09991     -5.1022744e-13
    259000   5334.5978      405.45757      4929.1402      298.9508       2991.2626      0.40101743     18421.214      340.12905     -4.3577412     -1.4934177e-13 -1.075014e-13   340.12905     -5.1368633e-13
    259250   5322.2767      394.66757      4927.6092      290.99514      3245.4238      0.40101743     18421.214      345.17936     -4.3577412     -1.4936473e-13 -1.0740862e-13  345.17936     -5.135467e-13 
    259500   5337.906       415.97337      4921.9326      306.70427      3229.6267      0.40101743     18421.214      342.6427      -4.3577412     -1.5035407e-13 -1.0729145e-13  342.6427      -5.1529106e-13
    259750   5311.6429      381.22158      4930.4213      281.08119      4097.1226      0.40101743     18421.214      350.91931     -4.3577412     -1.4812833e-13 -1.074636e-13   350.91931     -5.1118385e-13
    260000   5343.2814      407.89575      4935.3857      300.74851      4230.8776      0.40101743     18421.214      357.72834     -4.3577412     -1.4915416e-13 -1.0756656e-13  357.72834     -5.1344144e-13
    260250   5348.5157      407.66352      4940.8522      300.57728      4518.0908      0.40101743     18421.214      353.78519     -4.3577412     -1.4947354e-13 -1.0739414e-13  353.78519     -5.1373534e-13
    260500   5339.5714      409.72002      4929.8514      302.09357      3861.6226      0.40101743     18421.214      348.36262     -4.3577412     -1.4939404e-13 -1.0747729e-13  348.36262     -5.1374266e-13
    260750   5327.3497      423.62453      4903.7252      312.34561      2935.0406      0.40101743     18421.214      344.14606     -4.3577412     -1.4779458e-13 -1.076e-13      344.14606     -5.1078915e-13
    261000   5340.9822      426.58295      4914.3993      314.5269       2796.6534      0.40101743     18421.214      349.28248     -4.3577412     -1.5038657e-13 -1.077033e-13   349.28248     -5.1617974e-13
    261250   5381.0356      433.35914      4947.6765      319.5231       1912.5615      0.40101743     18421.214      339.94606     -4.3577412     -1.5032836e-13 -1.0760566e-13  339.94606     -5.1586805e-13
    261500   5323.7401      399.57642      4924.1637      294.61453      3651.3738      0.40101743     18421.214      360.0561      -4.3577412     -1.4857499e-13 -1.0760963e-13  360.0561      -5.1236923e-13
    261750   5345.4323      408.63314      4936.7992      301.2922       4311.9251      0.40101743     18421.214      354.77008     -4.3577412     -1.4933385e-13 -1.07558e-13    354.77008     -5.1378369e-13
    262000   5345.5462      412.41495      4933.1312      304.08059      3229.9747      0.40101743     18421.214      350.9611      -4.3577412     -1.4904599e-13 -1.0755111e-13  350.9611      -5.131942e-13 
    262250   5362.4484      430.61773      4931.8307      317.50181      3357.5312      0.40101743     18421.214      347.36332     -4.3577412     -1.5139348e-13 -1.07673e-13    347.36332     -5.1813296e-13
    262500   5359.1816      421.60236      4937.5792      310.85463      2675.613       0.40101743     18421.214      344.90252     -4.3577412     -1.4877051e-13 -1.0757275e-13  344.90252     -5.1268652e-13
    262750   5350.657       425.37723      4925.2798      313.6379       3628.8168      0.40101743     18421.214      351.95817     -4.3577412     -1.5101954e-13 -1.0761907e-13  351.95817     -5.1727722e-13
    263000   5342.6193      432.94813      4909.6711      319.22005      4772.4899      0.40101743     18421.214      352.28939     -4.3577412     -1.4859593e-13 -1.077963e-13   352.28939     -5.1278447e-13
    263250   5376.3747      423.68743      4952.6873      312.39198      2376.0091      0.40101743     18421.214      343.1663      -4.3577412     -1.4866125e-13 -1.0772777e-13  343.1663      -5.1277804e-13
    263500   5365.2245      422.46698      4942.7575      311.49212      3376.1208      0.40101743     18421.214      358.82911     -4.3577412     -1.4932035e-13 -1.0776924e-13  358.82911     -5.1417918e-13
    263750   5362.7531      427.2848       4935.4683      315.04438      3044.9901      0.40101743     18421.214      358.10715     -4.3577412     -1.4920037e-13 -1.0766264e-13  358.10715     -5.1372603e-13
    264000   5362.8694      424.45782      4938.4116      312.96001      789.50087      0.40101743     18421.214      335.72109     -4.3577412     -1.4902009e-13 -1.0764691e-13  335.72109     -5.1333399e-13
    264250   5348.9396      389.22483      4959.7147      286.98212      2991.614       0.40101743     18421.214      338.72314     -4.3577412     -1.4845199e-13 -1.0775349e-13  338.72314     -5.1241095e-13
    264500   5359.5709      410.61809      4948.9528      302.75574      3213.0225      0.40101743     18421.214      345.4458      -4.3577412     -1.4990154e-13 -1.0758254e-13  345.4458      -5.1496816e-13
    264750   5318.1544      381.2616       4936.8928      281.11069      4390.0922      0.40101743     18421.214      356.42719     -4.3577412     -1.492808e-13  -1.0755873e-13  356.42719     -5.1367905e-13
    265000   5294.1213      363.28611      4930.8352      267.85706      2976.9568      0.40101743     18421.214      351.36861     -4.3577412     -1.4943546e-13 -1.07509e-13    351.36861     -5.1388892e-13
    265250   5361.1664      430.68994      4930.4765      317.55506      3985.002       0.40101743     18421.214      345.65209     -4.3577412     -1.4886869e-13 -1.0760784e-13  345.65209     -5.1295306e-13
    265500   5374.5681      420.96417      4953.604       310.38408      3641.3963      0.40101743     18421.214      351.14665     -4.3577412     -1.511447e-13  -1.0772812e-13  351.14665     -5.1774564e-13
    265750   5368.3053      424.32714      4943.9781      312.86365      3299.5511      0.40101743     18421.214      351.25847     -4.3577412     -1.5001146e-13 -1.0771495e-13  351.25847     -5.1545284e-13
    266000   5366.2222      432.16531      4934.0569      318.64287      4080.7028      0.40101743     18421.214      358.42213     -4.3577412     -1.4841056e-13 -1.0759549e-13  358.42213     -5.120121e-13 
    266250   5352.2737      414.14431      4938.1294      305.35568      3655.2048      0.40101743     18421.214      354.94348     -4.3577412     -1.4982467e-13 -1.0755015e-13  354.94348     -5.1474966e-13
    266500   5336.8858      404.68821      4932.1976      298.38353      2756.6611      0.40101743     18421.214      341.40217     -4.3577412     -1.4988934e-13 -1.0758347e-13  341.40217     -5.1494562e-13
    266750   5343.3438      421.41163      4921.9322      310.714        2464.0855      0.40101743     18421.214      339.41479     -4.3577412     -1.4981169e-13 -1.0756587e-13  339.41479     -5.1475512e-13
    267000   5327.2724      388.39796      4938.8745      286.37246      2585.607       0.40101743     18421.214      346.70741     -4.3577412     -1.4932818e-13 -1.0745474e-13  346.70741     -5.1356584e-13
    267250   5310.5544      392.99229      4917.5621      289.75994      3120.1516      0.40101743     18421.214      342.85439     -4.3577412     -1.5058297e-13 -1.076813e-13   342.85439     -5.1652853e-13
    267500   5353.4587      409.19866      4944.2601      301.70916      4239.7413      0.40101743     18421.214      364.02159     -4.3577412     -1.5026707e-13 -1.0767627e-13  364.02159     -5.1588669e-13
    267750   5315.395       410.8286       4904.5664      302.91095      4269.0201      0.40101743     18421.214      351.44316     -4.3577412     -1.4847006e-13 -1.0749242e-13  351.44316     -5.1192496e-13
    268000   5349.342       399.79366      4949.5484      294.7747       2302.0267      0.40101743     18421.214      342.53698     -4.3577412     -1.4872653e-13 -1.0754825e-13  342.53698     -5.1254955e-13
    268250   5351.3808      422.39336      4928.9875      311.43785      3210.5096      0.40101743     18421.214      353.04548     -4.3577412     -1.4822612e-13 -1.0738121e-13  353.04548     -5.1121466e-13
    268500   5360.5015      416.19739      4944.3041      306.86945      3340.5622      0.40101743     18421.214      349.42325     -4.3577412     -1.4878533e-13 -1.0734712e-13  349.42325     -5.122649e-13 
    268750   5326.146       406.02181      4920.1242      299.36682      2366.9602      0.40101743     18421.214      339.8332      -4.3577412     -1.4866549e-13 -1.0719774e-13  339.8332      -5.1172646e-13
    269000   5324.5045      413.51465      4910.9899      304.89142      2977.9571      0.40101743     18421.214      347.56802     -4.3577412     -1.4847094e-13 -1.0709714e-13  347.56802     -5.1113615e-13
    269250   5348.4849      424.5116       4923.9733      312.99966      3735.5274      0.40101743     18421.214      357.20738     -4.3577412     -1.4955572e-13 -1.072239e-13   357.20738     -5.1355924e-13
    269500   5307.423       381.37009      4926.0529      281.19069      2561.798       0.40101743     18421.214      348.75443     -4.3577412     -1.4851757e-13 -1.0719763e-13  348.75443     -5.114304e-13 
    269750   5333.0625      410.0969       4922.9656      302.37146      3747.9065      0.40101743     18421.214      349.13392     -4.3577412     -1.5009695e-13 -1.0729657e-13  349.13392     -5.1478703e-13
    270000   5369.0588      408.93839      4960.1204      301.51727      3755.8487      0.40101743     18421.214      364.07766     -4.3577412     -1.4928151e-13 -1.0734538e-13  364.07766     -5.1325377e-13
    270250   5324.59        407.04788      4917.5421      300.12336      1953.8298      0.40101743     18421.214      342.81686     -4.3577412     -1.4935525e-13 -1.0736563e-13  342.81686     -5.1344178e-13
    270500   5310.895       392.63671      4918.2583      289.49776      2482.2694      0.40101743     18421.214      337.22881     -4.3577412     -1.4937891e-13 -1.0757959e-13  337.22881     -5.1391701e-13
    270750   5337.7423      424.21851      4913.5238      312.78356      3511.6097      0.40101743     18421.214      341.18551     -4.3577412     -1.4964937e-13 -1.0762214e-13  341.18551     -5.1454301e-13
    271000   5320.2432      386.97003      4933.2731      285.31962      3820.236       0.40101743     18421.214      361.48752     -4.3577412     -1.5020699e-13 -1.0741828e-13  361.48752     -5.1525054e-13
    271250   5336.4168      389.63706      4946.7797      287.28606      3229.3297      0.40101743     18421.214      352.49744     -4.3577412     -1.4820449e-13 -1.0736478e-13  352.49744     -5.1113854e-13
    271500   5341.4395      402.32712      4939.1124      296.64266      3749.369       0.40101743     18421.214      358.39467     -4.3577412     -1.4951973e-13 -1.0744698e-13  358.39467     -5.1393342e-13
    271750   5368.5122      433.03072      4935.4815      319.28095      2921.5782      0.40101743     18421.214      342.60576     -4.3577412     -1.4901342e-13 -1.0750368e-13  342.60576     -5.1303419e-13
    272000   5330.7326      396.48283      4934.2497      292.33357      2428.1206      0.40101743     18421.214      334.7783      -4.3577412     -1.4866326e-13 -1.0744414e-13  334.7783      -5.122148e-13 
    272250   5347.9704      411.75734      4936.213       303.59573      3551.9133      0.40101743     18421.214      346.36917     -4.3577412     -1.5017877e-13 -1.0763849e-13  346.36917     -5.1563452e-13
    272500   5316.7091      398.00768      4918.7014      293.45787      3153.3401      0.40101743     18421.214      351.25207     -4.3577412     -1.4809145e-13 -1.0760463e-13  351.25207     -5.1139216e-13
    272750   5322.3489      381.39262      4940.9563      281.2073       2873.3434      0.40101743     18421.214      341.24802     -4.3577412     -1.497033e-13  -1.0756201e-13  341.24802     -5.1453062e-13
    273000   5365.3495      440.15168      4925.1978      324.53135      3386.4387      0.40101743     18421.214      347.53668     -4.3577412     -1.4905451e-13 -1.0739492e-13  347.53668     -5.1289885e-13
    273250   5333.4105      393.73823      4939.6723      290.30993      3931.7735      0.40101743     18421.214      364.45355     -4.3577412     -1.4977878e-13 -1.0719526e-13  364.45355     -5.1394808e-13
    273500   5333.1465      387.12945      4946.017       285.43716      3793.9963      0.40101743     18421.214      344.18758     -4.3577412     -1.5005068e-13 -1.069996e-13   344.18758     -5.1410054e-13
    273750   5324.0868      410.75523      4913.3316      302.85685      3183.8771      0.40101743     18421.214      346.37094     -4.3577412     -1.4928329e-13 -1.0711343e-13  346.37094     -5.1279345e-13
    274000   5324.1023      398.62086      4925.4814      293.90998      3867.2335      0.40101743     18421.214      361.30746     -4.3577412     -1.5082986e-13 -1.0745892e-13  361.30746     -5.1657755e-13
    274250   5334.0197      386.29766      4947.722       284.82387      2756.2826      0.40101743     18421.214      347.7749      -4.3577412     -1.4764674e-13 -1.0753861e-13  347.7749      -5.103707e-13 
    274500   5357.3868      406.24748      4951.1393      299.53321      3635.4873      0.40101743     18421.214      356.35568     -4.3577412     -1.4938475e-13 -1.0758049e-13  356.35568     -5.1393048e-13
    274750   5291.9079      357.66902      4934.2388      263.71548      3402.8806      0.40101743     18421.214      359.08311     -4.3577412     -1.4945522e-13 -1.074358e-13   359.08311     -5.1378203e-13
    275000   5329.034       409.40062      4919.6333      301.85808      4463.3909      0.40101743     18421.214      350.22077     -4.3577412     -1.4918782e-13 -1.0764183e-13  350.22077     -5.1365931e-13
    275250   5348.4743      419.36504      4929.1093      309.20501      3485.2356      0.40101743     18421.214      355.88872     -4.3577412     -1.492617e-13  -1.0764153e-13  355.88872     -5.1380646e-13
    275500   5341.3365      412.3662       4928.9703      304.04465      4821.5797      0.40101743     18421.214      362.96652     -4.3577412     -1.4895094e-13 -1.0761326e-13  362.96652     -5.131284e-13 
    275750   5305.3157      383.64442      4921.6712      282.86759      4079.4771      0.40101743     18421.214      346.76454     -4.3577412     -1.4971209e-13 -1.0768856e-13  346.76454     -5.148013e-13 
    276000   5302.218       385.6849       4916.5331      284.37207      3358.653       0.40101743     18421.214      349.77429     -4.3577412     -1.4787757e-13 -1.0751555e-13  349.77429     -5.1078625e-13
    276250   5327.3136      398.48282      4928.8307      293.80819      4155.2426      0.40101743     18421.214      346.84927     -4.3577412     -1.4877245e-13 -1.0759664e-13  346.84927     -5.1273818e-13
    276500   5319.6574      406.61643      4913.0409      299.80524      3268.7085      0.40101743     18421.214      352.49509     -4.3577412     -1.4975871e-13 -1.0763547e-13  352.49509     -5.1478836e-13
    276750   5330.7463      394.72573      4936.0205      291.03803      3559.061       0.40101743     18421.214      352.67565     -4.3577412     -1.4869318e-13 -1.0762976e-13  352.67565     -5.1264588e-13
    277000   5309.5831      392.51012      4917.073       289.40442      3668.1738      0.40101743     18421.214      352.52031     -4.3577412     -1.4831723e-13 -1.0742015e-13  352.52031     -5.1147476e-13
    277250   5359.6731      425.98926      4933.6838      314.08916      3061.9449      0.40101743     18421.214      345.40996     -4.3577412     -1.4911552e-13 -1.0739007e-13  345.40996     -5.1301117e-13
    277500   5409.3973      445.33045      4964.0668      328.34976      4661.4024      0.40101743     18421.214      350.38333     -4.3577412     -1.491746e-13  -1.0750739e-13  350.38333     -5.1336398e-13
    277750   5395.5822      438.34203      4957.2402      323.19707      4647.5252      0.40101743     18421.214      374.97617     -4.3577412     -1.4874298e-13 -1.0747871e-13  374.97617     -5.1244339e-13
    278000   5349.3709      406.19391      4943.177       299.49371      2846.0263      0.40101743     18421.214      341.52117     -4.3577412     -1.4947864e-13 -1.0729329e-13  341.52117     -5.1354385e-13
    278250   5373.6287      408.15467      4965.474       300.93941      3684.3815      0.40101743     18421.214      356.21271     -4.3577412     -1.4908311e-13 -1.0745636e-13  356.21271     -5.1307893e-13
    278500   5362.5305      401.03006      4961.5005      295.68631      1878.4293      0.40101743     18421.214      341.05225     -4.3577412     -1.4853338e-13 -1.074799e-13   341.05225     -5.1202657e-13
    278750   5370.746       437.67028      4933.0757      322.70178      2328.6216      0.40101743     18421.214      332.51605     -4.3577412     -1.4905287e-13 -1.0744596e-13  332.51605     -5.1299766e-13
    279000   5352.9833      409.76053      4943.2227      302.12344      3165.2329      0.40101743     18421.214      356.07955     -4.3577412     -1.4790303e-13 -1.0737055e-13  356.07955     -5.1054715e-13
    279250   5379.9348      451.50269      4928.4321      332.90065      3357.509       0.40101743     18421.214      348.45401     -4.3577412     -1.4880383e-13 -1.0749245e-13  348.45401     -5.1259255e-13
    279500   5342.9879      389.82333      4953.1645      287.42341      3799.8093      0.40101743     18421.214      354.97494     -4.3577412     -1.4719826e-13 -1.0757039e-13  354.97494     -5.095373e-13 
    279750   5352.8369      408.8191       4944.0178      301.42931      4289.2891      0.40101743     18421.214      355.08111     -4.3577412     -1.4858962e-13 -1.0727011e-13  355.08111     -5.1171946e-13
    280000   5315.0671      397.9047       4917.1624      293.38194      3892.9442      0.40101743     18421.214      351.98255     -4.3577412     -1.4900931e-13 -1.0733104e-13  351.98255     -5.1268071e-13
    280250   5333.6546      409.9311       4923.7235      302.24921      3125.7353      0.40101743     18421.214      350.75394     -4.3577412     -1.5042248e-13 -1.0742448e-13  350.75394     -5.1569392e-13
    280500   5347.7015      412.35216      4935.3494      304.03429      3261.4356      0.40101743     18421.214      348.96922     -4.3577412     -1.4974573e-13 -1.076093e-13   348.96922     -5.1471007e-13
    280750   5372.6333      408.2506       4964.3827      301.01015      2698.3601      0.40101743     18421.214      350.3849      -4.3577412     -1.4850456e-13 -1.0747427e-13  350.3849      -5.1195766e-13
    281000   5330.6558      399.4639       4931.1919      294.53156      3351.5163      0.40101743     18421.214      361.85154     -4.3577412     -1.4944715e-13 -1.0759786e-13  361.85154     -5.1409004e-13
    281250   5366.5341      418.78589      4947.7482      308.778        3544.5488      0.40101743     18421.214      349.30732     -4.3577412     -1.4849214e-13 -1.0776592e-13  349.30732     -5.1251612e-13
    281500   5362.4623      420.01879      4942.4435      309.68704      3959.1108      0.40101743     18421.214      350.37433     -4.3577412     -1.5056123e-13 -1.0760422e-13  350.37433     -5.1633089e-13
    281750   5368.3485      432.32783      4936.0207      318.7627       3763.2219      0.40101743     18421.214      355.96994     -4.3577412     -1.512065e-13  -1.0758024e-13  355.96994     -5.1757347e-13
    282000   5294.121       374.39363      4919.7274      276.04683      3086.9565      0.40101743     18421.214      357.80528     -4.3577412     -1.4867472e-13 -1.0760397e-13  357.80528     -5.1255737e-13
    282250   5322.8558      395.68729      4927.1685      291.747        2854.4765      0.40101743     18421.214      341.00583     -4.3577412     -1.5155201e-13 -1.0759894e-13  341.00583     -5.1830188e-13
    282500   5364.6217      401.84879      4962.7729      296.28998      1657.6498      0.40101743     18421.214      338.98401     -4.3577412     -1.4969149e-13 -1.0774539e-13  338.98401     -5.1487376e-13
    282750   5320.8281      400.02883      4920.7993      294.9481       2999.9622      0.40101743     18421.214      339.69753     -4.3577412     -1.4991587e-13 -1.0771022e-13  339.69753     -5.1525219e-13
    283000   5353.2718      417.67146      4935.6004      307.95631      2700.5748      0.40101743     18421.214      343.30864     -4.3577412     -1.5015292e-13 -1.0741438e-13  343.30864     -5.1513461e-13
    283250   5366.11        418.23072      4947.8792      308.36866      2146.513       0.40101743     18421.214      348.25702     -4.3577412     -1.4795095e-13 -1.074458e-13   348.25702     -5.107935e-13 
    283500   5369.8306      415.93706      4953.8935      306.67751      3459.1607      0.40101743     18421.214      341.98463     -4.3577412     -1.500613e-13  -1.0747966e-13  341.98463     -5.1508191e-13
    283750   5336.459       402.54421      4933.9148      296.80273      4437.2844      0.40101743     18421.214      368.32981     -4.3577412     -1.4871887e-13 -1.0750712e-13  368.32981     -5.1245197e-13
    284000   5315.503       393.83652      4921.6665      290.38239      3916.8202      0.40101743     18421.214      361.41781     -4.3577412     -1.4992036e-13 -1.0744243e-13  361.41781     -5.1472558e-13
    284250   5349.5331      413.22825      4936.3049      304.68025      3578.1413      0.40101743     18421.214      351.91356     -4.3577412     -1.4869666e-13 -1.0732547e-13  351.91356     -5.1204426e-13
    284500   5341.515       411.85496      4929.6601      303.6677       3056.4662      0.40101743     18421.214      344.66        -4.3577412     -1.4888744e-13 -1.0750892e-13  344.66        -5.1279272e-13
    284750   5349.7679      405.12175      4944.6462      298.70319      2983.7484      0.40101743     18421.214      346.22237     -4.3577412     -1.4796487e-13 -1.0742116e-13  346.22237     -5.1077206e-13
    285000   5361.5091      432.359        4929.1501      318.78568      3123.498       0.40101743     18421.214      359.30305     -4.3577412     -1.4868693e-13 -1.0739271e-13  359.30305     -5.1215927e-13
    285250   5361.3388      418.90605      4942.4328      308.86659      4940.5153      0.40101743     18421.214      363.70262     -4.3577412     -1.5036011e-13 -1.0735138e-13  363.70262     -5.1542298e-13
    285500   5315.8313      382.775        4933.0563      282.22655      4237.6486      0.40101743     18421.214      356.37111     -4.3577412     -1.484267e-13  -1.0716406e-13  356.37111     -5.1118152e-13
    285750   5354.2135      403.98889      4950.2246      297.86791      3700.3395      0.40101743     18421.214      353.59547     -4.3577412     -1.5053015e-13 -1.0683649e-13  353.59547     -5.1473328e-13
    286000   5348.9402      408.86789      4940.0723      301.46528      3117.4171      0.40101743     18421.214      359.67447     -4.3577412     -1.4852946e-13 -1.0691526e-13  359.67447     -5.1088944e-13
    286250   5363.0314      425.53122      4937.5002      313.75144      3985.9136      0.40101743     18421.214      360.1262      -4.3577412     -1.5056124e-13 -1.0720182e-13  360.1262      -5.1552613e-13
    286500   5337.5165      387.6884       4949.8281      285.84928      3633.1359      0.40101743     18421.214      347.15613     -4.3577412     -1.4867342e-13 -1.0722899e-13  347.15613     -5.1180483e-13
    286750   5344.6515      395.15426      4949.4972      291.35399      3955.0585      0.40101743     18421.214      346.4247      -4.3577412     -1.5049193e-13 -1.071764e-13   346.4247      -5.1533666e-13
    287000   5364.1577      440.93387      4923.2238      325.10808      3320.1658      0.40101743     18421.214      345.89445     -4.3577412     -1.4860193e-13 -1.0723871e-13  345.89445     -5.1168129e-13
    287250   5339.6929      412.27544      4927.4174      303.97773      3672.759       0.40101743     18421.214      351.54384     -4.3577412     -1.4982539e-13 -1.0710954e-13  351.54384     -5.1386984e-13
    287500   5310.7965      412.56479      4898.2317      304.19107      4114.6154      0.40101743     18421.214      355.65803     -4.3577412     -1.4955283e-13 -1.0712461e-13  355.65803     -5.1335489e-13
    287750   5319.6466      402.13913      4917.5074      296.50405      3899.7273      0.40101743     18421.214      357.5484      -4.3577412     -1.4969415e-13 -1.0716412e-13  357.5484      -5.1371655e-13
    288000   5346.7634      424.51301      4922.2504      313.0007       3404.4821      0.40101743     18421.214      352.2295      -4.3577412     -1.496154e-13  -1.0711936e-13  352.2295      -5.1346953e-13
    288250   5343.901       408.55108      4935.3499      301.23169      3979.2012      0.40101743     18421.214      357.63519     -4.3577412     -1.5040673e-13 -1.0678126e-13  357.63519     -5.1437598e-13
    288500   5315.744       392.60837      4923.1356      289.47686      4481.2513      0.40101743     18421.214      358.76049     -4.3577412     -1.4898013e-13 -1.0706011e-13  358.76049     -5.1208048e-13
    288750   5344.342       401.28338      4943.0586      295.87309      2653.1791      0.40101743     18421.214      332.33201     -4.3577412     -1.5094595e-13 -1.0741452e-13  332.33201     -5.1672093e-13
    289000   5319.9091      411.77376      4908.1354      303.60783      2399.5557      0.40101743     18421.214      346.72023     -4.3577412     -1.4990956e-13 -1.0765764e-13  346.72023     -5.1513439e-13
    289250   5370.4659      420.38853      4950.0774      309.95965      3068.7014      0.40101743     18421.214      355.53913     -4.3577412     -1.4751194e-13 -1.0751285e-13  355.53913     -5.1004958e-13
    289500   5352.6795      412.54342      4940.136       304.17532      3318.0618      0.40101743     18421.214      349.12602     -4.3577412     -1.4849569e-13 -1.0754793e-13  349.12602     -5.1208723e-13
    289750   5349.8279      402.4124       4947.4155      296.70554      2825.6168      0.40101743     18421.214      344.75861     -4.3577412     -1.4998936e-13 -1.073916e-13   344.75861     -5.1476192e-13
    290000   5343.955       410.06306      4933.892       302.3465       3230.9303      0.40101743     18421.214      356.30699     -4.3577412     -1.4835807e-13 -1.0711078e-13  356.30699     -5.1093769e-13
    290250   5317.55        390.52826      4927.0218      287.94316      3902.3496      0.40101743     18421.214      348.23546     -4.3577412     -1.4836151e-13 -1.0736964e-13  348.23546     -5.114623e-13 
    290500   5387.8038      441.60616      4946.1976      325.60377      3651.824       0.40101743     18421.214      344.46948     -4.3577412     -1.4686586e-13 -1.0743608e-13  344.46948     -5.0860388e-13
    290750   5329.1045      409.53498      4919.5695      301.95714      3766.6935      0.40101743     18421.214      355.61675     -4.3577412     -1.478061e-13  -1.0727463e-13  355.61675     -5.1016147e-13
    291000   5343.6346      393.50612      4950.1285      290.13879      1482.2248      0.40101743     18421.214      339.69614     -4.3577412     -1.4879208e-13 -1.0747412e-13  339.69614     -5.1253239e-13
    291250   5361.841       421.97201      4939.869       311.12717      1759.3543      0.40101743     18421.214      334.57184     -4.3577412     -1.4871993e-13 -1.076517e-13   334.57184     -5.1274326e-13
    291500   5341.8806      392.25829      4949.6223      289.21874      2598.201       0.40101743     18421.214      358.80274     -4.3577412     -1.472891e-13  -1.0753023e-13  358.80274     -5.0963865e-13
    291750   5300.6657      395.46799      4905.1978      291.58531      3505.6056      0.40101743     18421.214      349.47095     -4.3577412     -1.4997543e-13 -1.0764109e-13  349.47095     -5.1523304e-13
    292000   5356.0833      409.2651       4946.8182      301.75815      3559.2166      0.40101743     18421.214      358.79389     -4.3577412     -1.492231e-13  -1.0766947e-13  358.79389     -5.1378515e-13
    292250   5376.4546      428.89703      4947.5575      316.23311      3087.8031      0.40101743     18421.214      342.8301      -4.3577412     -1.4904143e-13 -1.0774897e-13  342.8301      -5.135808e-13 
    292500   5340.4161      399.94635      4940.4697      294.88728      2822.6418      0.40101743     18421.214      353.66771     -4.3577412     -1.4807705e-13 -1.0767651e-13  353.66771     -5.1150711e-13
    292750   5342.9845      408.58469      4934.3998      301.25648      2334.3393      0.40101743     18421.214      341.52042     -4.3577412     -1.502481e-13  -1.0757383e-13  341.52042     -5.1564385e-13
    293000   5349.5773      403.21917      4946.3581      297.30038      3185.5642      0.40101743     18421.214      340.37783     -4.3577412     -1.4968064e-13 -1.075391e-13   340.37783     -5.1443948e-13
    293250   5346.0285      423.30858      4922.7199      312.11265      3384.343       0.40101743     18421.214      352.70314     -4.3577412     -1.4821562e-13 -1.0759383e-13  352.70314     -5.116189e-13 
    293500   5308.7158      369.40182      4939.314       272.36627      2389.678       0.40101743     18421.214      351.0049      -4.3577412     -1.4863102e-13 -1.076675e-13   351.0049      -5.1259704e-13
    293750   5372.4395      416.28238      4956.1571      306.93212      3550.4384      0.40101743     18421.214      345.33276     -4.3577412     -1.4876042e-13 -1.0757893e-13  345.33276     -5.1267872e-13
    294000   5341.8812      416.02971      4925.8515      306.74582      3201.3291      0.40101743     18421.214      347.69941     -4.3577412     -1.4847117e-13 -1.0745765e-13  347.69941     -5.1185764e-13
    294250   5321.5415      394.07899      4927.4625      290.56117      3255.2272      0.40101743     18421.214      342.6462      -4.3577412     -1.4826874e-13 -1.074117e-13   342.6462      -5.1136089e-13
    294500   5360.4408      415.26412      4945.1767      306.18133      3578.1644      0.40101743     18421.214      353.47453     -4.3577412     -1.4791454e-13 -1.073999e-13   353.47453     -5.1062888e-13
    294750   5345.5151      425.95946      4919.5556      314.06719      3263.5826      0.40101743     18421.214      354.32351     -4.3577412     -1.5079313e-13 -1.0715966e-13  354.32351     -5.1590558e-13
    295000   5339.2931      397.00667      4942.2864      292.7198       3136.2985      0.40101743     18421.214      345.54536     -4.3577412     -1.5123469e-13 -1.0716307e-13  345.54536     -5.1679553e-13
    295250   5308.5163      380.59199      4927.9243      280.61698      2751.5588      0.40101743     18421.214      330.31394     -4.3577412     -1.4975968e-13 -1.073857e-13   330.31394     -5.1429076e-13
    295500   5334.3967      429.51447      4904.8823      316.68836      3467.3762      0.40101743     18421.214      350.74385     -4.3577412     -1.4978674e-13 -1.0742483e-13  350.74385     -5.1442313e-13
    295750   5332.0161      404.00687      4928.0092      297.88117      4217.0379      0.40101743     18421.214      357.45546     -4.3577412     -1.5012497e-13 -1.0762049e-13  357.45546     -5.1549092e-13
    296000   5355.3863      422.22963      4933.1567      311.31712      2742.5628      0.40101743     18421.214      344.34861     -4.3577412     -1.4861224e-13 -1.0766076e-13  344.34861     -5.1254601e-13
    296250   5352.0985      398.31042      4953.7881      293.68108      2866.0208      0.40101743     18421.214      352.72666     -4.3577412     -1.4840017e-13 -1.0774229e-13  352.72666     -5.1228493e-13
    296500   5365.8095      429.97316      4935.8363      317.02656      3866.5181      0.40101743     18421.214      358.71328     -4.3577412     -1.4739427e-13 -1.0765899e-13  358.71328     -5.1010652e-13
    296750   5361.1614      415.19157      4945.9698      306.12784      4646.463       0.40101743     18421.214      345.85137     -4.3577412     -1.4783018e-13 -1.0763369e-13  345.85137     -5.1092775e-13
    297000   5355.4427      419.27414      4936.1686      309.13799      3786.5442      0.40101743     18421.214      354.98843     -4.3577412     -1.4871317e-13 -1.0750473e-13  354.98843     -5.124358e-13 
    297250   5371.8768      423.77074      4948.1061      312.45341      3862.1997      0.40101743     18421.214      347.87114     -4.3577412     -1.4858508e-13 -1.0737893e-13  347.87114     -5.1192802e-13
    297500   5340.3256      402.28712      4938.0385      296.61317      2960.766       0.40101743     18421.214      362.42506     -4.3577412     -1.4752885e-13 -1.0745398e-13  362.42506     -5.0996565e-13
    297750   5336.3368      392.49747      4943.8394      289.39509      3225.9535      0.40101743     18421.214      352.67481     -4.3577412     -1.4895613e-13 -1.0745423e-13  352.67481     -5.1282071e-13
    298000   5336.9603      411.92077      4925.0395      303.71622      1856.7087      0.40101743     18421.214      334.57809     -4.3577412     -1.5037382e-13 -1.0740286e-13  334.57809     -5.1555336e-13
    298250   5316.1854      397.03393      4919.1515      292.7399       3860.0409      0.40101743     18421.214      360.11766     -4.3577412     -1.4897592e-13 -1.0744344e-13  360.11766     -5.128387e-13 
    298500   5337.7822      414.48394      4923.2982      305.6061       3284.8513      0.40101743     18421.214      345.69801     -4.3577412     -1.4914722e-13 -1.0729776e-13  345.69801     -5.1288996e-13
    298750   5343.9755      432.73825      4911.2373      319.06531      2291.9171      0.40101743     18421.214      336.84432     -4.3577412     -1.4942715e-13 -1.0725472e-13  336.84432     -5.1336374e-13
    299000   5315.6227      410.53941      4905.0833      302.69772      4655.9998      0.40101743     18421.214      360.52975     -4.3577412     -1.499198e-13  -1.0743533e-13  360.52975     -5.1471025e-13
    299250   5349.6455      414.80578      4934.8397      305.84339      3823.8286      0.40101743     18421.214      352.0377      -4.3577412     -1.4897217e-13 -1.0752988e-13  352.0377      -5.130041e-13 
    299500   5327.3722      408.03272      4919.3394      300.8495       1581.6618      0.40101743     18421.214      335.46166     -4.3577412     -1.4977461e-13 -1.0751502e-13  335.46166     -5.1457926e-13
    299750   5355.6272      417.35771      4938.2695      307.72497      2373.7888      0.40101743     18421.214      343.95401     -4.3577412     -1.4893754e-13 -1.0758565e-13  343.95401     -5.1304636e-13
    300000   5364.175       428.58706      4935.588       316.00456      3425.3654      0.40101743     18421.214      349.08113     -4.3577412     -1.4910065e-13 -1.0757283e-13  349.08113     -5.1334697e-13
    300250   5376.4002      450.42734      4925.9729      332.10778      3811.559       0.40101743     18421.214      346.4114      -4.3577412     -1.5018215e-13 -1.0749301e-13  346.4114      -5.1535033e-13
    300500   5342.665       426.10936      4916.5557      314.17772      4309.9103      0.40101743     18421.214      359.24117     -4.3577412     -1.5215869e-13 -1.0751374e-13  359.24117     -5.1934486e-13
    300750   5341.5412      404.84152      4936.6997      298.49657      4968.034       0.40101743     18421.214      359.4564      -4.3577412     -1.4871694e-13 -1.0749056e-13  359.4564      -5.1241499e-13
    301000   5318.5151      404.74003      4913.7751      298.42174      3492.5557      0.40101743     18421.214      346.99057     -4.3577412     -1.4863495e-13 -1.0749868e-13  346.99057     -5.1226727e-13
    301250   5398.0078      439.68869      4958.3191      324.18999      2353.5184      0.40101743     18421.214      345.99801     -4.3577412     -1.4774067e-13 -1.076001e-13   345.99801     -5.1068153e-13
    301500   5324.217       393.09941      4931.1176      289.83891      2726.4077      0.40101743     18421.214      349.42605     -4.3577412     -1.47305e-13   -1.0768538e-13  349.42605     -5.0998075e-13
    301750   5359.519       429.49415      4930.0249      316.67338      3819.6846      0.40101743     18421.214      355.86393     -4.3577412     -1.4772151e-13 -1.0758242e-13  355.86393     -5.1060786e-13
    302000   5352.1075      415.44199      4936.6655      306.31248      3199.9118      0.40101743     18421.214      345.72157     -4.3577412     -1.5031496e-13 -1.0767294e-13  345.72157     -5.1597581e-13
    302250   5347.578       411.56996      4936.0081      303.45756      3248.4904      0.40101743     18421.214      344.38069     -4.3577412     -1.5084901e-13 -1.0781151e-13  344.38069     -5.1732104e-13
    302500   5319.0058      378.87575      4940.1301      279.35156      3959.8662      0.40101743     18421.214      347.72207     -4.3577412     -1.4962097e-13 -1.0770799e-13  347.72207     -5.1465792e-13
    302750   5347.4161      419.27719      4928.1389      309.14024      4576.2192      0.40101743     18421.214      351.4732      -4.3577412     -1.5046507e-13 -1.0765814e-13  351.4732      -5.1624642e-13
    303000   5312.8154      385.22854      4927.5869      284.03559      3740.2059      0.40101743     18421.214      355.66666     -4.3577412     -1.5076434e-13 -1.0747301e-13  355.66666     -5.1647469e-13
    303250   5342.6627      402.77617      4939.8865      296.97376      2986.3236      0.40101743     18421.214      343.32302     -4.3577412     -1.4925535e-13 -1.0742214e-13  343.32302     -5.1335498e-13
    303500   5346.7337      414.61175      4932.1219      305.70033      2937.8677      0.40101743     18421.214      349.0482      -4.3577412     -1.5036041e-13 -1.0727439e-13  349.0482      -5.1526959e-13
    303750   5354.9148      416.15803      4938.7568      306.84043      1852.5899      0.40101743     18421.214      343.72559     -4.3577412     -1.5114438e-13 -1.0752237e-13  343.72559     -5.1733351e-13
    304000   5355.6696      428.68878      4926.9809      316.07957      3265.5564      0.40101743     18421.214      352.24158     -4.3577412     -1.5101894e-13 -1.0725041e-13  352.24158     -5.1653869e-13
    304250   5331.6624      395.56872      4936.0937      291.65958      3639.973       0.40101743     18421.214      340.27347     -4.3577412     -1.4973124e-13 -1.0732678e-13  340.27347     -5.1411604e-13
    304500   5319.4494      410.93902      4908.5103      302.99237      3334.5096      0.40101743     18421.214      350.73517     -4.3577412     -1.4871155e-13 -1.0751521e-13  350.73517     -5.1245352e-13
    304750   5347.1556      426.70945      4920.4461      314.62017      3419.3727      0.40101743     18421.214      363.76994     -4.3577412     -1.4833253e-13 -1.075722e-13   363.76994     -5.1180946e-13
    305000   5363.0231      426.43023      4936.5929      314.41429      2998.9103      0.40101743     18421.214      356.10664     -4.3577412     -1.4855086e-13 -1.0736893e-13  356.10664     -5.1183958e-13
    305250   5375.6526      443.69034      4931.9622      327.14047      2534.0853      0.40101743     18421.214      348.92489     -4.3577412     -1.4989691e-13 -1.0729727e-13  348.92489     -5.1438834e-13
    305500   5324.0105      420.95744      4903.053       310.37911      3320.3387      0.40101743     18421.214      351.37781     -4.3577412     -1.5015669e-13 -1.0727723e-13  351.37781     -5.1486785e-13
    305750   5351.7039      433.00808      4918.6959      319.26426      4258.6675      0.40101743     18421.214      351.18301     -4.3577412     -1.4980793e-13 -1.0720184e-13  351.18301     -5.1401954e-13
    306000   5346.0298      407.90575      4938.124       300.75588      2938.3183      0.40101743     18421.214      341.68354     -4.3577412     -1.5001621e-13 -1.0728976e-13  341.68354     -5.1461193e-13
    306250   5350.3906      419.82682      4930.5638      309.54549      3983.1044      0.40101743     18421.214      360.61776     -4.3577412     -1.4785744e-13 -1.0727895e-13  360.61776     -5.102728e-13 
    306500   5360.4946      410.49587      4949.9987      302.66562      4068.5498      0.40101743     18421.214      352.40084     -4.3577412     -1.4880074e-13 -1.0740266e-13  352.40084     -5.1240679e-13
    306750   5371.7959      418.67458      4953.1213      308.69592      3784.0107      0.40101743     18421.214      356.3485      -4.3577412     -1.4737061e-13 -1.0750226e-13  356.3485      -5.0974574e-13
    307000   5357.2415      407.56521      4949.6763      300.5048       2737.2295      0.40101743     18421.214      342.77239     -4.3577412     -1.4691757e-13 -1.0742125e-13  342.77239     -5.0867763e-13
    307250   5365.4753      400.9955       4964.4798      295.66083      4007.6596      0.40101743     18421.214      366.66237     -4.3577412     -1.4885868e-13 -1.0751995e-13  366.66237     -5.1275726e-13
    307500   5326.3692      402.65372      4923.7155      296.88347      3690.3636      0.40101743     18421.214      354.06236     -4.3577412     -1.4674728e-13 -1.0737323e-13  354.06236     -5.0824102e-13
    307750   5343.9432      393.49795      4950.4452      290.13276      3390.0661      0.40101743     18421.214      349.334       -4.3577412     -1.4957454e-13 -1.0735144e-13  349.334       -5.1385196e-13
    308000   5336.7637      409.06703      4927.6967      301.61211      2989.2107      0.40101743     18421.214      358.83115     -4.3577412     -1.4668393e-13 -1.0737039e-13  358.83115     -5.0810864e-13
    308250   5353.1752      392.02697      4961.1482      289.04818      3868.1275      0.40101743     18421.214      358.39044     -4.3577412     -1.4852521e-13 -1.0718709e-13  358.39044     -5.1142461e-13
    308500   5314.0658      383.38605      4930.6797      282.67709      3002.3166      0.40101743     18421.214      344.13953     -4.3577412     -1.4980589e-13 -1.0706541e-13  344.13953     -5.137426e-13 
    308750   5329.9161      395.54903      4934.3671      291.64506      3025.7281      0.40101743     18421.214      347.28082     -4.3577412     -1.4978608e-13 -1.0731334e-13  347.28082     -5.1419882e-13
    309000   5359.189       424.91399      4934.275       313.29635      3276.2808      0.40101743     18421.214      346.78489     -4.3577412     -1.4700066e-13 -1.0741157e-13  346.78489     -5.0882447e-13
    309250   5324.5004      410.41786      4914.0825      302.6081       2309.9075      0.40101743     18421.214      346.7398      -4.3577412     -1.4833628e-13 -1.0744038e-13  346.7398      -5.1155332e-13
    309500   5368.885       437.62664      4931.2583      322.6696       2902.9517      0.40101743     18421.214      344.01222     -4.3577412     -1.4819104e-13 -1.0745637e-13  344.01222     -5.1129482e-13
    309750   5318.8378      417.49001      4901.3478      307.82252      3056.7027      0.40101743     18421.214      341.99209     -4.3577412     -1.4883646e-13 -1.0740527e-13  341.99209     -5.1248346e-13
    310000   5331.6046      410.23746      4921.3671      302.47509      2749.6034      0.40101743     18421.214      349.59109     -4.3577412     -1.4891601e-13 -1.0757483e-13  349.59109     -5.1298167e-13
    310250   5332.8243      389.38292      4943.4414      287.09868      3080.2576      0.40101743     18421.214      348.06065     -4.3577412     -1.4996355e-13 -1.0747965e-13  348.06065     -5.148864e-13 
    310500   5321.3538      407.39731      4913.9565      300.381        4001.4706      0.40101743     18421.214      343.11986     -4.3577412     -1.4992091e-13 -1.0758167e-13  343.11986     -5.1500516e-13
    310750   5362.5016      403.29441      4959.2072      297.35587      2531.7224      0.40101743     18421.214      348.90758     -4.3577412     -1.496898e-13  -1.0755198e-13  348.90758     -5.1448355e-13
    311000   5337.4101      417.79709      4919.613       308.04893      3643.8181      0.40101743     18421.214      340.65213     -4.3577412     -1.4903339e-13 -1.0753704e-13  340.65213     -5.1314086e-13
    311250   5304.4734      400.83478      4903.6387      295.54234      3968.1314      0.40101743     18421.214      359.30478     -4.3577412     -1.4941916e-13 -1.0741267e-13  359.30478     -5.1366366e-13
    311500   5359.0448      431.66377      4927.3811      318.27307      4017.8479      0.40101743     18421.214      341.24762     -4.3577412     -1.4971273e-13 -1.0705469e-13  341.24762     -5.1353484e-13
    311750   5358.8104      402.88097      4955.9294      297.05103      2511.1854      0.40101743     18421.214      338.81814     -4.3577412     -1.5009916e-13 -1.0722366e-13  338.81814     -5.1464564e-13
    312000   5378.0282      437.02017      4941.008       322.22244      3008.0064      0.40101743     18421.214      338.6747      -4.3577412     -1.4842037e-13 -1.0671618e-13  338.6747      -5.102731e-13 
    312250   5323.9249      405.6611       4918.2638      299.10086      2924.5836      0.40101743     18421.214      345.33397     -4.3577412     -1.478611e-13  -1.0703826e-13  345.33397     -5.0979871e-13
    312500   5341.3679      406.16571      4935.2022      299.47292      4150.1031      0.40101743     18421.214      356.6743      -4.3577412     -1.4830066e-13 -1.0711491e-13  356.6743      -5.1083114e-13
    312750   5332.6145      405.37218      4927.2423      298.88784      1584.435       0.40101743     18421.214      341.92524     -4.3577412     -1.4849894e-13 -1.0723547e-13  341.92524     -5.114688e-13 
    313000   5336.5075      393.04229      4943.4652      289.7968       3871.6947      0.40101743     18421.214      373.42717     -4.3577412     -1.4782213e-13 -1.0734686e-13  373.42717     -5.1033798e-13
    313250   5338.5531      400.44822      4938.1049      295.25732      4170.4916      0.40101743     18421.214      357.03399     -4.3577412     -1.4779178e-13 -1.0744715e-13  357.03399     -5.1047786e-13
    313500   5363.6357      436.49813      4927.1375      321.83753      3613.3176      0.40101743     18421.214      346.2174      -4.3577412     -1.4801799e-13 -1.075337e-13   346.2174      -5.1110338e-13
    313750   5333.7006      416.92411      4916.7765      307.40527      3157.2883      0.40101743     18421.214      342.44669     -4.3577412     -1.4817617e-13 -1.0740833e-13  342.44669     -5.11169e-13  
    314000   5326.1566      396.65672      4929.4999      292.46178      3426.2298      0.40101743     18421.214      347.79213     -4.3577412     -1.4852199e-13 -1.0751634e-13  347.79213     -5.1207665e-13
    314250   5360.1807      426.17792      4934.0028      314.22826      4524.3495      0.40101743     18421.214      362.08289     -4.3577412     -1.4836738e-13 -1.0759172e-13  362.08289     -5.1191821e-13
    314500   5357.9163      410.42687      4947.4894      302.61475      3457.4975      0.40101743     18421.214      340.77394     -4.3577412     -1.4959509e-13 -1.0753375e-13  340.77394     -5.1425767e-13
    314750   5310.3257      398.59687      4911.7288      293.89228      1893.8624      0.40101743     18421.214      340.37383     -4.3577412     -1.4943013e-13 -1.0750088e-13  340.37383     -5.1386202e-13
    315000   5340.2511      404.83467      4935.4164      298.49153      3780.4981      0.40101743     18421.214      359.60905     -4.3577412     -1.4929491e-13 -1.0752164e-13  359.60905     -5.1363309e-13
    315250   5358.59        422.08645      4936.5035      311.21155      4495.5841      0.40101743     18421.214      358.26113     -4.3577412     -1.4796288e-13 -1.0764721e-13  358.26113     -5.112202e-13 
    315500   5350.6305      423.95975      4926.6707      312.59277      3922.5363      0.40101743     18421.214      340.46643     -4.3577412     -1.4953222e-13 -1.075643e-13   340.46643     -5.1419304e-13
    315750   5369.6153      392.67875      4976.9365      289.52876      2599.5301      0.40101743     18421.214      342.45604     -4.3577412     -1.4986947e-13 -1.0749677e-13  342.45604     -5.1473248e-13
    316000   5313.4006      409.08982      4904.3108      301.62891      3991.2023      0.40101743     18421.214      348.84073     -4.3577412     -1.4880348e-13 -1.0748099e-13  348.84073     -5.1256893e-13
    316250   5353.5009      421.66908      4931.8318      310.90382      3105.5847      0.40101743     18421.214      339.38882     -4.3577412     -1.4897331e-13 -1.0761049e-13  339.38882     -5.1316759e-13
    316500   5359.1314      421.69264      4937.4388      310.92119      3245.2659      0.40101743     18421.214      339.05805     -4.3577412     -1.5042079e-13 -1.0771202e-13  339.05805     -5.1626562e-13
    316750   5360.8824      417.00681      4943.8755      307.46625      3608.117       0.40101743     18421.214      353.78181     -4.3577412     -1.4655589e-13 -1.0763875e-13  353.78181     -5.0838928e-13
    317000   5330.7522      407.719        4923.0332      300.61819      2718.9926      0.40101743     18421.214      342.91083     -4.3577412     -1.5074019e-13 -1.0771215e-13  342.91083     -5.1690467e-13
    317250   5346.2902      411.95246      4934.3378      303.73959      4995.8794      0.40101743     18421.214      365.18379     -4.3577412     -1.4919317e-13 -1.0741643e-13  365.18379     -5.132192e-13 
    317500   5329.2501      417.88076      4911.3694      308.11063      1979.2068      0.40101743     18421.214      344.5798      -4.3577412     -1.4967476e-13 -1.0760484e-13  344.5798      -5.145592e-13 
    317750   5312.3614      384.63235      4927.7291      283.59601      3669.2042      0.40101743     18421.214      346.90563     -4.3577412     -1.4887004e-13 -1.0753341e-13  346.90563     -5.128069e-13 
    318000   5316.7539      404.60348      4912.1504      298.32106      3502.5537      0.40101743     18421.214      353.07084     -4.3577412     -1.4851689e-13 -1.0750357e-13  353.07084     -5.1204091e-13
    318250   5368.7477      425.83016      4942.9175      313.97185      2119.9752      0.40101743     18421.214      344.11654     -4.3577412     -1.4870461e-13 -1.0741511e-13  344.11654     -5.1223945e-13
    318500   5381.611       423.26657      4958.3444      312.08167      3156.1322      0.40101743     18421.214      350.31153     -4.3577412     -1.4584849e-13 -1.0735986e-13  350.31153     -5.0641669e-13
    318750   5318.7869      399.02128      4919.7656      294.20521      2916.1107      0.40101743     18421.214      344.98481     -4.3577412     -1.4878337e-13 -1.0748499e-13  344.98481     -5.1253672e-13
    319000   5355.9775      422.24978      4933.7277      311.33198      1594.1898      0.40101743     18421.214      335.42229     -4.3577412     -1.4890653e-13 -1.0756375e-13  335.42229     -5.1294058e-13
    319250   5322.9404      382.22463      4940.7158      281.82075      4234.2997      0.40101743     18421.214      356.21013     -4.3577412     -1.4951257e-13 -1.0739138e-13  356.21013     -5.1380791e-13
    319500   5324.9978      398.79946      4926.1983      294.04166      3403.1801      0.40101743     18421.214      351.265       -4.3577412     -1.5058905e-13 -1.0758363e-13  351.265       -5.1634535e-13
    319750   5352.2514      413.82271      4938.4287      305.11856      3700.4257      0.40101743     18421.214      350.95486     -4.3577412     -1.4938251e-13 -1.0776787e-13  350.95486     -5.1430076e-13
    320000   5360.5699      415.38283      4945.1871      306.26886      3849.7518      0.40101743     18421.214      347.82601     -4.3577412     -1.5031341e-13 -1.0783728e-13  347.82601     -5.163014e-13 
    320250   5340.4881      407.88936      4932.5988      300.7438       2924.4397      0.40101743     18421.214      348.01441     -4.3577412     -1.491432e-13  -1.0781314e-13  348.01441     -5.1391269e-13
    320500   5361.2837      430.16942      4931.1143      317.17127      4174.7214      0.40101743     18421.214      354.89591     -4.3577412     -1.4751703e-13 -1.0770311e-13  354.89591     -5.1044029e-13
    320750   5358.7624      409.93337      4948.829       302.25088      3415.6492      0.40101743     18421.214      344.17356     -4.3577412     -1.5021353e-13 -1.0767729e-13  344.17356     -5.1578165e-13
    321000   5344.834       402.48304      4942.3509      296.75762      2804.135       0.40101743     18421.214      350.12603     -4.3577412     -1.4792841e-13 -1.0761668e-13  350.12603     -5.1109018e-13
    321250   5355.3177      419.11501      4936.2027      309.02066      1577.1654      0.40101743     18421.214      340.35607     -4.3577412     -1.4982367e-13 -1.0754849e-13  340.35607     -5.1474432e-13
    321500   5340.7738      407.73331      4933.0405      300.62874      3553.7811      0.40101743     18421.214      354.2753      -4.3577412     -1.4809731e-13 -1.0723336e-13  354.2753      -5.1066134e-13
    321750   5324.1443      396.41763      4927.7267      292.28549      3386.4112      0.40101743     18421.214      355.95633     -4.3577412     -1.4542864e-13 -1.0718802e-13  355.95633     -5.0523333e-13
    322000   5340.1272      414.74402      4925.3832      305.79786      2775.7151      0.40101743     18421.214      336.83124     -4.3577412     -1.4797317e-13 -1.0756687e-13  336.83124     -5.1108009e-13
    322250   5360.3206      434.77367      4925.5469      320.56606      3885.697       0.40101743     18421.214      360.37469     -4.3577412     -1.4883704e-13 -1.07616e-13    360.37469     -5.1290607e-13
    322500   5332.4975      410.19594      4922.3016      302.44448      4033.0362      0.40101743     18421.214      362.98173     -4.3577412     -1.4704469e-13 -1.0745253e-13  362.98173     -5.0899443e-13
    322750   5353.0167      426.17913      4926.8375      314.22915      4290.3714      0.40101743     18421.214      350.17003     -4.3577412     -1.5069648e-13 -1.0764383e-13  350.17003     -5.1668063e-13
    323000   5387.2786      413.92797      4973.3507      305.19617      4465.2068      0.40101743     18421.214      352.86779     -4.3577412     -1.4826393e-13 -1.0763287e-13  352.86779     -5.1179361e-13
    323250   5332.4203      405.41521      4927.0051      298.91956      3941.9613      0.40101743     18421.214      354.40514     -4.3577412     -1.4770337e-13 -1.0763318e-13  354.40514     -5.1067308e-13
    323500   5347.1945      430.71721      4916.4773      317.57516      4422.8001      0.40101743     18421.214      353.20895     -4.3577412     -1.4797313e-13 -1.0764559e-13  353.20895     -5.1123744e-13
    323750   5333.6702      405.81619      4927.8541      299.21521      2376.7547      0.40101743     18421.214      332.98191     -4.3577412     -1.4989826e-13 -1.0753127e-13  332.98191     -5.1485907e-13
    324000   5384.264       439.85971      4944.4043      324.31608      2923.7673      0.40101743     18421.214      343.26018     -4.3577412     -1.4944162e-13 -1.0753711e-13  343.26018     -5.1395747e-13
    324250   5336.2747      424.11674      4912.1579      312.70852      3353.484       0.40101743     18421.214      352.49816     -4.3577412     -1.4774399e-13 -1.0769123e-13  352.49816     -5.1087043e-13
    324500   5367.6861      405.33462      4962.3515      298.86014      3688.9358      0.40101743     18421.214      351.40313     -4.3577412     -1.4783159e-13 -1.0776991e-13  351.40313     -5.11203e-13  
    324750   5325.6002      387.90458      4937.6956      286.00868      3807.3482      0.40101743     18421.214      357.35067     -4.3577412     -1.4999767e-13 -1.0772515e-13  357.35067     -5.1544563e-13
    325000   5355.2654      405.97179      4949.2936      299.32994      2794.2282      0.40101743     18421.214      355.85106     -4.3577412     -1.4945447e-13 -1.0758919e-13  355.85106     -5.1408732e-13
    325250   5306.1291      388.27636      4917.8527      286.2828       3112.9826      0.40101743     18421.214      344.53666     -4.3577412     -1.4909414e-13 -1.0735694e-13  344.53666     -5.1290216e-13
    325500   5356.0455      409.59226      4946.4532      301.99938      4234.3009      0.40101743     18421.214      353.44987     -4.3577412     -1.4929191e-13 -1.0761849e-13  353.44987     -5.1382079e-13
    325750   5316.7809      382.53315      4934.2477      282.04823      2913.399       0.40101743     18421.214      350.31001     -4.3577412     -1.5060701e-13 -1.0738939e-13  350.31001     -5.159928e-13 
    326000   5343.0564      410.59981      4932.4566      302.74226      3209.1126      0.40101743     18421.214      350.00443     -4.3577412     -1.4851092e-13 -1.0761616e-13  350.00443     -5.1225415e-13
    326250   5319.79        389.48416      4930.3058      287.17333      3318.753       0.40101743     18421.214      355.43145     -4.3577412     -1.488465e-13  -1.0759235e-13  355.43145     -5.1287771e-13
    326500   5350.23        414.29243      4935.9376      305.46489      3556.0989      0.40101743     18421.214      343.4324      -4.3577412     -1.50119e-13   -1.0746332e-13  343.4324      -5.1516464e-13
    326750   5375.7654      431.57454      4944.1908      318.20729      2398.2109      0.40101743     18421.214      350.34634     -4.3577412     -1.4916418e-13 -1.07182e-13    350.34634     -5.1269236e-13
    327000   5312.4244      387.51788      4924.9066      285.72356      3222.4032      0.40101743     18421.214      351.75552     -4.3577412     -1.4972303e-13 -1.0725328e-13  351.75552     -5.1395263e-13
    327250   5309.9681      390.05232      4919.9158      287.59224      4020.5262      0.40101743     18421.214      351.46508     -4.3577412     -1.5050902e-13 -1.0730573e-13  351.46508     -5.156295e-13 
    327500   5375.6675      424.3051       4951.3624      312.8474       4464.6992      0.40101743     18421.214      355.71745     -4.3577412     -1.4882357e-13 -1.0723137e-13  355.71745     -5.1210987e-13
    327750   5302.2861      377.46173      4924.8244      278.30899      3033.6881      0.40101743     18421.214      347.10126     -4.3577412     -1.4914753e-13 -1.0721817e-13  347.10126     -5.1273141e-13
    328000   5364.5617      425.75353      4938.8082      313.91535      1899.9221      0.40101743     18421.214      342.68401     -4.3577412     -1.4947782e-13 -1.0734844e-13  342.68401     -5.1365251e-13
    328250   5318.195       406.34639      4911.8487      299.60614      4464.9013      0.40101743     18421.214      359.08893     -4.3577412     -1.5124374e-13 -1.0739962e-13  359.08893     -5.1728672e-13
    328500   5354.2067      416.17031      4938.0364      306.84948      4794.9039      0.40101743     18421.214      370.23782     -4.3577412     -1.5009029e-13 -1.0722073e-13  370.23782     -5.1462204e-13
    328750   5366.5201      425.26255      4941.2576      313.55335      2721.0154      0.40101743     18421.214      342.28371     -4.3577412     -1.4891583e-13 -1.0749004e-13  342.28371     -5.1281173e-13
    329000   5350.8355      425.19027      4925.6452      313.50005      3840.2453      0.40101743     18421.214      339.52651     -4.3577412     -1.5026584e-13 -1.075305e-13   339.52651     -5.1559269e-13
    329250   5361.9041      411.49386      4950.4103      303.40145      3628.497       0.40101743     18421.214      349.90476     -4.3577412     -1.512794e-13  -1.0756821e-13  349.90476     -5.1769522e-13
    329500   5349.938       414.86413      4935.0738      305.88642      2167.6191      0.40101743     18421.214      342.45134     -4.3577412     -1.5100309e-13 -1.0751841e-13  342.45134     -5.17043e-13  
    329750   5320.3708      421.69398      4898.6768      310.92218      2928.4043      0.40101743     18421.214      341.72982     -4.3577412     -1.4992542e-13 -1.0762324e-13  341.72982     -5.150973e-13 
    330000   5362.6734      424.45664      4938.2167      312.95914      861.42273      0.40101743     18421.214      330.72607     -4.3577412     -1.488383e-13  -1.0760717e-13  330.72607     -5.1289094e-13
    330250   5336.5354      397.14325      4939.3922      292.82051      3525.1707      0.40101743     18421.214      344.05675     -4.3577412     -1.499741e-13  -1.0771139e-13  344.05675     -5.1537097e-13
    330500   5328.2107      416.62034      4911.5904      307.1813       3632.8012      0.40101743     18421.214      347.19035     -4.3577412     -1.5034793e-13 -1.0776058e-13  347.19035     -5.1621702e-13
    330750   5324.4989      441.37509      4883.1238      325.4334       4642.9122      0.40101743     18421.214      369.33006     -4.3577412     -1.4947443e-13 -1.0748838e-13  369.33006     -5.1392561e-13
    331000   5315.2442      381.67514      4933.5691      281.41561      4709.8902      0.40101743     18421.214      364.89508     -4.3577412     -1.4713949e-13 -1.0737453e-13  364.89508     -5.0902803e-13
    331250   5337.9616      425.63886      4912.3228      313.83081      2911.7509      0.40101743     18421.214      341.34045     -4.3577412     -1.5065558e-13 -1.0737613e-13  341.34045     -5.1606343e-13
    331500   5321.232       388.74571      4932.4863      286.62885      3386.9521      0.40101743     18421.214      360.65574     -4.3577412     -1.4968132e-13 -1.075883e-13   360.65574     -5.1453924e-13
    331750   5340.3326      409.69859      4930.634       302.07777      4080.2128      0.40101743     18421.214      348.05683     -4.3577412     -1.4926892e-13 -1.0764007e-13  348.05683     -5.1381799e-13
    332000   5384.1229      430.37853      4953.7443      317.32545      4522.6256      0.40101743     18421.214      351.27094     -4.3577412     -1.4929691e-13 -1.0757703e-13  351.27094     -5.1374788e-13
    332250   5307.028       402.95069      4904.0773      297.10243      3176.6291      0.40101743     18421.214      341.88028     -4.3577412     -1.5032145e-13 -1.0754716e-13  341.88028     -5.1573723e-13
    332500   5337.0186      422.89384      4914.1247      311.80686      3438.6892      0.40101743     18421.214      348.1385      -4.3577412     -1.4817303e-13 -1.0760859e-13  348.1385      -5.1156325e-13
    332750   5351.9529      412.60222      4939.3507      304.21867      3393.9244      0.40101743     18421.214      356.60786     -4.3577412     -1.4754812e-13 -1.0757993e-13  356.60786     -5.102561e-13 
    333000   5373.5545      430.71218      4942.8423      317.57145      4605.8501      0.40101743     18421.214      348.75586     -4.3577412     -1.4885122e-13 -1.0732471e-13  348.75586     -5.1235186e-13
    333250   5374.4185      424.05838      4950.3601      312.66549      4472.516       0.40101743     18421.214      354.44022     -4.3577412     -1.4856516e-13 -1.0703093e-13  354.44022     -5.1119217e-13
    333500   5366.0458      422.24749      4943.7983      311.33029      4382.9655      0.40101743     18421.214      346.41622     -4.3577412     -1.4806864e-13 -1.0721992e-13  346.41622     -5.1057712e-13
    333750   5333.058       402.39167      4930.6663      296.69026      3784.017       0.40101743     18421.214      343.56981     -4.3577412     -1.4904278e-13 -1.0747417e-13  343.56981     -5.130339e-13 
    334000   5344.7189      411.2281       4933.4908      303.2055       4005.7388      0.40101743     18421.214      350.75545     -4.3577412     -1.4985401e-13 -1.0763338e-13  350.75545     -5.1497479e-13
    334250   5329.6346      399.69882      4929.9358      294.70477      3429.5767      0.40101743     18421.214      351.78124     -4.3577412     -1.5011221e-13 -1.0737018e-13  351.78124     -5.1496478e-13
    334500   5339.9254      407.88303      4932.0423      300.73913      3086.6528      0.40101743     18421.214      356.90124     -4.3577412     -1.4841167e-13 -1.0734354e-13  356.90124     -5.1151043e-13
    334750   5374.5633      422.69758      4951.8657      311.66215      3009.1454      0.40101743     18421.214      347.9801      -4.3577412     -1.4944874e-13 -1.0752209e-13  347.9801      -5.1394165e-13
    335000   5330.6954      415.60842      4915.087       306.43519      4346.5758      0.40101743     18421.214      357.23498     -4.3577412     -1.4987547e-13 -1.0740992e-13  357.23498     -5.1457078e-13
    335250   5373.8218      405.174        4968.6478      298.74172      2703.9855      0.40101743     18421.214      340.02201     -4.3577412     -1.497203e-13  -1.0749824e-13  340.02201     -5.1443709e-13
    335500   5388.8886      448.983        4939.9056      331.04284      3074.5855      0.40101743     18421.214      342.60768     -4.3577412     -1.4877086e-13 -1.0752576e-13  342.60768     -5.1259324e-13
    335750   5335.7758      398.2303       4937.5455      293.62201      3161.72        0.40101743     18421.214      352.69483     -4.3577412     -1.4838539e-13 -1.0740017e-13  352.69483     -5.1157112e-13
    336000   5349.7515      406.75606      4942.9954      299.9082       3473.8557      0.40101743     18421.214      356.20454     -4.3577412     -1.475791e-13  -1.0758284e-13  356.20454     -5.1032388e-13
    336250   5317.2886      390.70858      4926.58        288.07611      3787.2168      0.40101743     18421.214      347.18098     -4.3577412     -1.5010799e-13 -1.0762254e-13  347.18098     -5.1546105e-13
    336500   5339.811       409.4213       4930.3897      301.87332      1930.9428      0.40101743     18421.214      331.18845     -4.3577412     -1.4952582e-13 -1.0766234e-13  331.18845     -5.1437633e-13
    336750   5344.384       418.25911      4926.1249      308.38959      3353.9128      0.40101743     18421.214      344.36311     -4.3577412     -1.4957264e-13 -1.0762917e-13  344.36311     -5.1440362e-13
    337000   5365.3367      421.98579      4943.3509      311.13734      4073.1898      0.40101743     18421.214      361.44476     -4.3577412     -1.5026555e-13 -1.0773908e-13  361.44476     -5.1600926e-13
    337250   5328.679       382.67275      4946.0063      282.15116      3146.5069      0.40101743     18421.214      346.97056     -4.3577412     -1.4802304e-13 -1.0782567e-13  346.97056     -5.1169743e-13
    337500   5337.769       398.45122      4939.3177      293.7849       3638.7954      0.40101743     18421.214      361.66996     -4.3577412     -1.4711301e-13 -1.0777249e-13  361.66996     -5.09771e-13  
    337750   5346.3006      398.71205      4947.5885      293.97721      3733.8268      0.40101743     18421.214      366.35049     -4.3577412     -1.4996664e-13 -1.0772292e-13  366.35049     -5.1537912e-13
    338000   5349.6057      426.6744       4922.9313      314.59433      3357.182       0.40101743     18421.214      345.81419     -4.3577412     -1.500731e-13  -1.0761826e-13  345.81419     -5.1538272e-13
    338250   5324.3058      405.7021       4918.6037      299.13109      3764.8837      0.40101743     18421.214      354.03088     -4.3577412     -1.4869636e-13 -1.0761667e-13  354.03088     -5.1262606e-13
    338500   5348.6195      388.59412      4960.0254      286.51709      2341.3954      0.40101743     18421.214      341.29828     -4.3577412     -1.4998154e-13 -1.0758997e-13  341.29828     -5.1514302e-13
    338750   5372.2685      459.95088      4912.3177      339.12965      2845.1028      0.40101743     18421.214      341.38118     -4.3577412     -1.482117e-13  -1.0759543e-13  341.38118     -5.1161426e-13
    339000   5345.8065      413.37662      4932.4299      304.78965      3493.0042      0.40101743     18421.214      347.36911     -4.3577412     -1.4880487e-13 -1.075473e-13   347.36911     -5.1270435e-13
    339250   5342.3294      400.22708      4942.1024      295.09426      5187.4704      0.40101743     18421.214      357.58816     -4.3577412     -1.5071215e-13 -1.0770155e-13  357.58816     -5.1682741e-13
    339500   5350.412       417.77721      4932.6348      308.03428      4515.462       0.40101743     18421.214      350.5128      -4.3577412     -1.5108811e-13 -1.0768783e-13  350.5128      -5.1755189e-13
    339750   5308.2187      395.23651      4912.9822      291.41463      4255.6564      0.40101743     18421.214      353.99285     -4.3577412     -1.5072648e-13 -1.0755072e-13  353.99285     -5.165544e-13 
    340000   5369.5001      426.58051      4942.9196      314.5251       4177.7467      0.40101743     18421.214      346.82851     -4.3577412     -1.4954284e-13 -1.0782613e-13  346.82851     -5.1473795e-13
    340250   5384.2643      455.36248      4928.9019      335.74654      3207.3877      0.40101743     18421.214      337.2411      -4.3577412     -1.4901084e-13 -1.078894e-13   337.2411      -5.1380048e-13
    340500   5324.8907      394.65048      4930.2402      290.98254      3885.3585      0.40101743     18421.214      364.05707     -4.3577412     -1.4794508e-13 -1.0793025e-13  364.05707     -5.1175068e-13
    340750   5322.6664      403.46803      4919.1983      297.48388      1990.7157      0.40101743     18421.214      345.35325     -4.3577412     -1.4892074e-13 -1.0786146e-13  345.35325     -5.135644e-13 
    341000   5345.9754      405.10632      4940.869       298.69182      2892.763       0.40101743     18421.214      346.36661     -4.3577412     -1.4845446e-13 -1.0783239e-13  346.36661     -5.1257369e-13
    341250   5346.4854      399.83094      4946.6545      294.80218      3992.8815      0.40101743     18421.214      358.25779     -4.3577412     -1.4757027e-13 -1.0773716e-13  358.25779     -5.1061485e-13
    341500   5338.8415      418.08543      4920.7561      308.26154      2533.0925      0.40101743     18421.214      346.04135     -4.3577412     -1.4999869e-13 -1.076772e-13   346.04135     -5.1535178e-13
    341750   5353.44        405.60065      4947.8393      299.05629      3421.8323      0.40101743     18421.214      347.81553     -4.3577412     -1.4953059e-13 -1.0761447e-13  347.81553     -5.1429011e-13
    342000   5362.3581      433.35904      4928.9991      319.52303      2920.3421      0.40101743     18421.214      340.87788     -4.3577412     -1.4913077e-13 -1.0765758e-13  340.87788     -5.1357669e-13
    342250   5322.0754      401.27274      4920.8026      295.86525      3090.005       0.40101743     18421.214      341.83466     -4.3577412     -1.4943202e-13 -1.0783286e-13  341.83466     -5.1452975e-13
    342500   5336.6555      395.31512      4941.3403      291.47259      4394.8752      0.40101743     18421.214      361.02169     -4.3577412     -1.4924008e-13 -1.0777062e-13  361.02169     -5.1402141e-13
    342750   5359.3735      415.47669      4943.8968      306.33806      4075.8072      0.40101743     18421.214      364.17018     -4.3577412     -1.4790604e-13 -1.0782289e-13  364.17018     -5.1145786e-13
    343000   5362.6467      405.20631      4957.4404      298.76554      3585.083       0.40101743     18421.214      348.57852     -4.3577412     -1.4977205e-13 -1.078454e-13   348.57852     -5.1523489e-13
    343250   5351.5136      410.97095      4940.5426      303.0159       4064.7745      0.40101743     18421.214      372.40736     -4.3577412     -1.4652576e-13 -1.0789088e-13  372.40736     -5.0883327e-13
    343500   5359.6937      407.86777      4951.826       300.72788      3307.0188      0.40101743     18421.214      354.13056     -4.3577412     -1.4960507e-13 -1.0777462e-13  354.13056     -5.1475938e-13
    343750   5342.5418      400.34574      4942.1961      295.18176      5014.3087      0.40101743     18421.214      349.49349     -4.3577412     -1.4994639e-13 -1.0766811e-13  349.49349     -5.1522899e-13
    344000   5317.2448      406.03411      4911.2107      299.37589      4172.3071      0.40101743     18421.214      369.67612     -4.3577412     -1.5001959e-13 -1.0760951e-13  369.67612     -5.1525821e-13
    344250   5316.7418      397.41787      4919.324       293.02299      3023.3762      0.40101743     18421.214      342.4043      -4.3577412     -1.5008769e-13 -1.0754557e-13  342.4043      -5.1526653e-13
    344500   5342.8014      421.72907      4921.0723      310.94805      3361.1628      0.40101743     18421.214      356.91991     -4.3577412     -1.4846425e-13 -1.0744121e-13  356.91991     -5.118109e-13 
    344750   5322.2896      406.89247      4915.3971      300.00877      1982.0178      0.40101743     18421.214      326.22359     -4.3577412     -1.4820288e-13 -1.0737593e-13  326.22359     -5.1115764e-13
    345000   5364.3663      417.85239      4946.5139      308.08971      2795.2203      0.40101743     18421.214      339.49312     -4.3577412     -1.4864706e-13 -1.0726611e-13  339.49312     -5.1182633e-13
    345250   5323.4841      408.73134      4914.7527      301.36461      4312.5393      0.40101743     18421.214      352.94385     -4.3577412     -1.4926815e-13 -1.0707361e-13  352.94385     -5.1268353e-13
    345500   5318.7658      399.21416      4919.5517      294.34743      4316.1088      0.40101743     18421.214      357.06225     -4.3577412     -1.493994e-13  -1.0688666e-13  357.06225     -5.1257213e-13
    345750   5378.2256      431.50883      4946.7168      318.15883      4260.7841      0.40101743     18421.214      354.49314     -4.3577412     -1.4861987e-13 -1.068749e-13   354.49314     -5.1098954e-13
    346000   5372.7582      447.01283      4925.7454      329.5902       3374.8264      0.40101743     18421.214      349.63747     -4.3577412     -1.4875797e-13 -1.0683101e-13  349.63747     -5.1117796e-13
    346250   5335.9401      437.05954      4898.8806      322.25147      2954.6577      0.40101743     18421.214      356.97101     -4.3577412     -1.4943697e-13 -1.0699734e-13  356.97101     -5.1286861e-13
    346500   5327.6755      409.05209      4918.6234      301.6011       4278.9767      0.40101743     18421.214      349.71556     -4.3577412     -1.4975155e-13 -1.0722176e-13  349.71556     -5.1394662e-13
    346750   5342.2794      415.17859      4927.1008      306.11827      3097.3         0.40101743     18421.214      347.26572     -4.3577412     -1.4924899e-13 -1.0713192e-13  347.26572     -5.1276182e-13
    347000   5358.6453      408.44835      4950.1969      301.15595      3978.407       0.40101743     18421.214      359.29144     -4.3577412     -1.4961553e-13 -1.0739449e-13  359.29144     -5.1402004e-13
    347250   5332.7178      415.06182      4917.656       306.03218      2913.8351      0.40101743     18421.214      351.61012     -4.3577412     -1.4967446e-13 -1.0751394e-13  351.61012     -5.143768e-13 
    347500   5336.7859      418.82951      4917.9564      308.81016      3468.8454      0.40101743     18421.214      340.64532     -4.3577412     -1.5057249e-13 -1.0762111e-13  340.64532     -5.163872e-13 
    347750   5334.3441      405.68657      4928.6575      299.11964      3454.8891      0.40101743     18421.214      358.95463     -4.3577412     -1.5012676e-13 -1.0761924e-13  358.95463     -5.1549199e-13
    348000   5335.3129      401.64023      4933.6727      296.13621      5017.2012      0.40101743     18421.214      356.27446     -4.3577412     -1.4922414e-13 -1.0746927e-13  356.27446     -5.1338682e-13
    348250   5303.2176      397.48825      4905.7293      293.07488      4118.7679      0.40101743     18421.214      347.10272     -4.3577412     -1.4987337e-13 -1.0762791e-13  347.10272     -5.1500256e-13
    348500   5297.5812      390.83056      4906.7507      288.16605      3457.653       0.40101743     18421.214      349.20135     -4.3577412     -1.4872963e-13 -1.0743297e-13  349.20135     -5.1232521e-13
    348750   5334.5169      385.95061      4948.5663      284.56798      2732.1563      0.40101743     18421.214      350.2971      -4.3577412     -1.5018802e-13 -1.0712304e-13  350.2971      -5.1462212e-13
    349000   5361.0873      417.91079      4943.1765      308.13277      4164.7332      0.40101743     18421.214      362.63848     -4.3577412     -1.4849751e-13 -1.0730204e-13  362.63848     -5.115991e-13 
    349250   5325.2241      399.13724      4926.0869      294.29071      4435.2152      0.40101743     18421.214      353.52435     -4.3577412     -1.4970964e-13 -1.0753154e-13  353.52435     -5.1448236e-13
    349500   5318.7882      384.44754      4934.3407      283.45975      4757.09        0.40101743     18421.214      381.71965     -4.3577412     -1.4809329e-13 -1.0757553e-13  381.71965     -5.1133766e-13
    349750   5354.2039      427.55219      4926.6517      315.24154      2926.2111      0.40101743     18421.214      328.11689     -4.3577412     -1.493638e-13  -1.0743737e-13  328.11689     -5.1360234e-13
    350000   5329.8254      396.88473      4932.9407      292.62989      3454.933       0.40101743     18421.214      348.56709     -4.3577412     -1.5009215e-13 -1.0730122e-13  348.56709     -5.1478674e-13
    350250   5332.5643      406.80675      4925.7575      299.94557      3980.9177      0.40101743     18421.214      352.0813      -4.3577412     -1.4894768e-13 -1.0731665e-13  352.0813      -5.1252866e-13
    350500   5370.9129      421.92153      4948.9914      311.08995      2829.736       0.40101743     18421.214      339.80338     -4.3577412     -1.4924372e-13 -1.0734435e-13  339.80338     -5.1317614e-13
    350750   5356.7204      405.3995       4951.3209      298.90798      3037.4937      0.40101743     18421.214      365.89865     -4.3577412     -1.4953867e-13 -1.0730553e-13  365.89865     -5.1368839e-13
    351000   5351.3978      419.51194      4931.8858      309.31332      4614.3212      0.40101743     18421.214      356.64971     -4.3577412     -1.4880486e-13 -1.0743698e-13  356.64971     -5.1248367e-13
    351250   5339.1913      413.39809      4925.7932      304.80548      3106.5655      0.40101743     18421.214      345.15677     -4.3577412     -1.4900642e-13 -1.0747977e-13  345.15677     -5.1297238e-13
    351500   5339.2645      406.87537      4932.3891      299.99616      3555.0867      0.40101743     18421.214      359.7959      -4.3577412     -1.489077e-13  -1.0754061e-13  359.7959      -5.1289663e-13
    351750   5352.0884      410.43855      4941.6499      302.62336      3639.6498      0.40101743     18421.214      357.3825      -4.3577412     -1.5113423e-13 -1.0743367e-13  357.3825      -5.1713581e-13
    352000   5366.7703      423.60663      4943.1636      312.33241      3161.2788      0.40101743     18421.214      359.07734     -4.3577412     -1.4934028e-13 -1.0734956e-13  359.07734     -5.1337969e-13
    352250   5350.1799      420.48686      4929.6931      310.03215      4212.2961      0.40101743     18421.214      356.49379     -4.3577412     -1.4946599e-13 -1.0740292e-13  356.49379     -5.1373782e-13
    352500   5309.5726      397.61463      4911.9579      293.16807      3090.941       0.40101743     18421.214      332.45248     -4.3577412     -1.5034301e-13 -1.074946e-13   332.45248     -5.1567521e-13
    352750   5338.5305      403.80822      4934.7223      297.73471      3578.4646      0.40101743     18421.214      343.07599     -4.3577412     -1.5086012e-13 -1.0749979e-13  343.07599     -5.1671984e-13
    353000   5356.8396      408.63815      4948.2015      301.29589      4527.3001      0.40101743     18421.214      360.64214     -4.3577412     -1.4852857e-13 -1.0749216e-13  360.64214     -5.1204146e-13
    353250   5353.5585      395.22036      4958.3382      291.40272      3860.8108      0.40101743     18421.214      366.34874     -4.3577412     -1.4942485e-13 -1.0743844e-13  366.34874     -5.1372659e-13
    353500   5329.6895      414.96115      4914.7284      305.95795      4067.732       0.40101743     18421.214      349.63216     -4.3577412     -1.4894474e-13 -1.071193e-13   349.63216     -5.1212809e-13
    353750   5349.5285      419.27867      4930.2498      309.14133      3059.5244      0.40101743     18421.214      344.89808     -4.3577412     -1.4848259e-13 -1.0697037e-13  344.89808     -5.1090593e-13
    354000   5362.2895      418.01261      4944.2769      308.20784      2189.4447      0.40101743     18421.214      337.98922     -4.3577412     -1.4980905e-13 -1.0720994e-13  337.98922     -5.1403796e-13
    354250   5343.8018      398.87015      4944.9317      294.09378      3067.3426      0.40101743     18421.214      354.70836     -4.3577412     -1.5050801e-13 -1.072076e-13   354.70836     -5.1543123e-13
    354500   5356.1723      424.43097      4931.7414      312.94021      3505.7996      0.40101743     18421.214      355.45977     -4.3577412     -1.4969622e-13 -1.0736114e-13  355.45977     -5.1411471e-13
    354750   5377.3474      408.28386      4969.0636      301.03467      3782.9669      0.40101743     18421.214      355.95874     -4.3577412     -1.5096796e-13 -1.0740159e-13  355.95874     -5.1673911e-13
    355000   5332.8581      387.34847      4945.5097      285.59865      3369.1839      0.40101743     18421.214      362.51481     -4.3577412     -1.4868042e-13 -1.0722417e-13  362.51481     -5.1180919e-13
    355250   5342.8845      414.07668      4928.8078      305.30582      3080.3023      0.40101743     18421.214      355.41375     -4.3577412     -1.5074944e-13 -1.075197e-13   355.41375     -5.1653829e-13
    355500   5335.4983      413.23125      4922.267       304.68247      3271.0334      0.40101743     18421.214      345.94895     -4.3577412     -1.4973302e-13 -1.0765021e-13  345.94895     -5.1476647e-13
    355750   5330.3728      411.42998      4918.9428      303.35436      3370.2289      0.40101743     18421.214      355.16978     -4.3577412     -1.501432e-13  -1.075917e-13   355.16978     -5.154698e-13 
    356000   5331.5883      407.43846      4924.1498      300.41134      2818.0623      0.40101743     18421.214      344.72864     -4.3577412     -1.4839759e-13 -1.075411e-13   344.72864     -5.1187738e-13
    356250   5321.2603      402.34968      4918.9106      296.6593       2978.987       0.40101743     18421.214      339.59171     -4.3577412     -1.4887749e-13 -1.0727961e-13  339.59171     -5.1231419e-13
    356500   5358.8039      424.35231      4934.4516      312.88221      2140.7726      0.40101743     18421.214      341.13865     -4.3577412     -1.4955443e-13 -1.0721701e-13  341.13865     -5.1354288e-13
    356750   5355.2337      413.50643      4941.7272      304.88536      4354.965       0.40101743     18421.214      348.97248     -4.3577412     -1.5069904e-13 -1.07249e-13    348.97248     -5.1589608e-13
    357000   5347.525       423.2375       4924.2875      312.06024      2760.5289      0.40101743     18421.214      344.85692     -4.3577412     -1.4947819e-13 -1.0745772e-13  344.85692     -5.1387181e-13
    357250   5380.7166      431.53033      4949.1863      318.17469      3725.7447      0.40101743     18421.214      340.36445     -4.3577412     -1.4963428e-13 -1.0763742e-13  340.36445     -5.145434e-13 
    357500   5323.3228      387.3883       4935.9345      285.62801      2578.5507      0.40101743     18421.214      347.00682     -4.3577412     -1.4939921e-13 -1.076892e-13   347.00682     -5.1417682e-13
    357750   5378.6291      424.5232       4954.1059      313.00821      4019.0038      0.40101743     18421.214      359.39003     -4.3577412     -1.4858262e-13 -1.0771316e-13  359.39003     -5.1259156e-13
    358000   5348.773       404.2864       4944.4866      298.08727      3698.091       0.40101743     18421.214      362.26451     -4.3577412     -1.4641462e-13 -1.0762684e-13  362.26451     -5.0808292e-13
    358250   5352.138       436.64495      4915.4931      321.94579      4198.9708      0.40101743     18421.214      354.61808     -4.3577412     -1.4826647e-13 -1.0754694e-13  354.61808     -5.1162683e-13
    358500   5329.2545      411.85095      4917.4036      303.66475      4180.6331      0.40101743     18421.214      355.7761      -4.3577412     -1.4858852e-13 -1.0729218e-13  355.7761      -5.117614e-13 
    358750   5333.4212      417.45207      4915.9691      307.79455      4586.196       0.40101743     18421.214      355.63677     -4.3577412     -1.497756e-13  -1.0734505e-13  355.63677     -5.1424131e-13
    359000   5337.9176      414.34323      4923.5743      305.50235      4027.2411      0.40101743     18421.214      360.03782     -4.3577412     -1.4726015e-13 -1.0715067e-13  360.03782     -5.0882165e-13
    359250   5365.4831      420.71281      4944.7703      310.19874      2956.9115      0.40101743     18421.214      357.52985     -4.3577412     -1.4762614e-13 -1.0755494e-13  357.52985     -5.1036215e-13
    359500   5369.3178      430.80715      4938.5107      317.64147      2525.0605      0.40101743     18421.214      354.55431     -4.3577412     -1.4840547e-13 -1.0765545e-13  354.55431     -5.1212185e-13
    359750   5351.8837      393.69225      4958.1915      290.27602      3961.7739      0.40101743     18421.214      346.59292     -4.3577412     -1.4940338e-13 -1.0783624e-13  346.59292     -5.1447924e-13
    360000   5303.4579      383.502        4919.9559      282.76258      2530.2685      0.40101743     18421.214      347.54275     -4.3577412     -1.4797182e-13 -1.0780852e-13  347.54275     -5.1156068e-13
    360250   5340.8587      394.79314      4946.0656      291.08773      2734.1033      0.40101743     18421.214      352.24197     -4.3577412     -1.4813564e-13 -1.0783008e-13  352.24197     -5.1193143e-13
    360500   5314.7738      401.29833      4913.4754      295.88412      3833.2012      0.40101743     18421.214      358.63355     -4.3577412     -1.4651856e-13 -1.0767464e-13  358.63355     -5.083864e-13 
    360750   5355.069       393.25478      4961.8142      289.95347      3162.1657      0.40101743     18421.214      349.59721     -4.3577412     -1.4871404e-13 -1.0752363e-13  349.59721     -5.1247534e-13
    361000   5305.8969      398.83915      4907.0577      294.07092      3471.6662      0.40101743     18421.214      352.365       -4.3577412     -1.4899257e-13 -1.0754459e-13  352.365       -5.1307433e-13
    361250   5372.4965      444.70004      4927.7965      327.88494      4394.645       0.40101743     18421.214      351.72613     -4.3577412     -1.4895934e-13 -1.0762117e-13  351.72613     -5.1316102e-13
    361500   5365.0265      406.99741      4958.0291      300.08615      2921.3483      0.40101743     18421.214      348.6705      -4.3577412     -1.4974097e-13 -1.0758867e-13  348.6705      -5.1465928e-13
    361750   5339.4459      404.25496      4935.191       298.06409      3083.1412      0.40101743     18421.214      350.38993     -4.3577412     -1.4866211e-13 -1.075911e-13   350.38993     -5.1250643e-13
    362000   5333.0717      402.71527      4930.3564      296.92885      3689.1006      0.40101743     18421.214      354.27823     -4.3577412     -1.4915215e-13 -1.0748191e-13  354.27823     -5.1326812e-13
    362250   5350.5972      409.15038      4941.4468      301.67357      2923.1009      0.40101743     18421.214      354.16656     -4.3577412     -1.4887015e-13 -1.0750877e-13  354.16656     -5.1275784e-13
    362500   5328.9333      412.78052      4916.1527      304.35013      3131.4491      0.40101743     18421.214      353.6775      -4.3577412     -1.4952251e-13 -1.0743885e-13  353.6775      -5.1392272e-13
    362750   5326.3242      408.19526      4918.1289      300.96934      3491.2732      0.40101743     18421.214      350.27762     -4.3577412     -1.4913086e-13 -1.0757355e-13  350.27762     -5.1340882e-13
    363000   5328.6833      405.2642       4923.4191      298.80822      3270.7231      0.40101743     18421.214      353.4787      -4.3577412     -1.4759439e-13 -1.0745086e-13  353.4787      -5.1009049e-13
    363250   5352.4691      417.72467      4934.7444      307.99554      2325.609       0.40101743     18421.214      355.86796     -4.3577412     -1.4707417e-13 -1.0719149e-13  355.86796     -5.0853131e-13
    363500   5336.0479      414.44642      4921.6015      305.57843      3477.7156      0.40101743     18421.214      353.39542     -4.3577412     -1.489435e-13  -1.0706036e-13  353.39542     -5.1200771e-13
    363750   5308.2484      386.48612      4921.7622      284.96282      3824.3886      0.40101743     18421.214      343.48883     -4.3577412     -1.4924305e-13 -1.0742338e-13  343.48883     -5.1333287e-13
    364000   5354.3102      409.10005      4945.2102      301.63646      3082.3356      0.40101743     18421.214      350.08976     -4.3577412     -1.4967827e-13 -1.0762284e-13  350.08976     -5.1460221e-13
    364250   5329.1018      397.05605      4932.0458      292.75621      2749.8433      0.40101743     18421.214      348.47834     -4.3577412     -1.5076486e-13 -1.0749213e-13  348.47834     -5.1651398e-13
    364500   5323.6549      402.01377      4921.6412      296.41162      2918.587       0.40101743     18421.214      350.11415     -4.3577412     -1.4930514e-13 -1.073889e-13   350.11415     -5.1338807e-13
    364750   5314.393       404.56385      4909.8291      298.29184      3626.4024      0.40101743     18421.214      340.81897     -4.3577412     -1.4999437e-13 -1.07381e-13    340.81897     -5.1475075e-13
    365000   5356.815       404.53823      4952.2768      298.27295      3417.0121      0.40101743     18421.214      346.66994     -4.3577412     -1.4860885e-13 -1.0754886e-13  346.66994     -5.1231542e-13
    365250   5346.4142      405.17288      4941.2413      298.74089      3501.5132      0.40101743     18421.214      360.67097     -4.3577412     -1.4873439e-13 -1.0749811e-13  360.67097     -5.1246501e-13
    365500   5317.2975      392.08416      4925.2134      289.09035      3146.5521      0.40101743     18421.214      349.69221     -4.3577412     -1.500217e-13  -1.0738462e-13  349.69221     -5.1481263e-13
    365750   5333.9338      416.10081      4917.833       306.79824      2915.2839      0.40101743     18421.214      344.91944     -4.3577412     -1.4933036e-13 -1.0710028e-13  344.91944     -5.1286129e-13
    366000   5381.2457      429.85595      4951.3897      316.94014      2571.7016      0.40101743     18421.214      353.95737     -4.3577412     -1.4786425e-13 -1.0692228e-13  353.95737     -5.0957305e-13
    366250   5352.5874      414.41246      4938.175       305.55339      4223.1796      0.40101743     18421.214      358.09938     -4.3577412     -1.4875254e-13 -1.0685515e-13  358.09938     -5.1121538e-13
    366500   5369.2007      410.07537      4959.1253      302.35558      3297.9244      0.40101743     18421.214      351.58029     -4.3577412     -1.4707799e-13 -1.0665047e-13  351.58029     -5.0745692e-13
    366750   5368.6485      444.96734      4923.6812      328.08202      3820.5503      0.40101743     18421.214      348.85896     -4.3577412     -1.4969798e-13 -1.0679969e-13  348.85896     -5.1299534e-13
    367000   5364.2075      437.45188      4926.7556      322.54075      4255.5619      0.40101743     18421.214      351.88732     -4.3577412     -1.481762e-13  -1.069255e-13   351.88732     -5.1020342e-13
    367250   5340.0477      422.97883      4917.0689      311.86952      3997.9719      0.40101743     18421.214      353.20158     -4.3577412     -1.4777065e-13 -1.0657995e-13  353.20158     -5.0870121e-13
    367500   5352.1715      422.95786      4929.2136      311.85406      3380.7481      0.40101743     18421.214      353.49774     -4.3577412     -1.4820289e-13 -1.0703875e-13  353.49774     -5.1048329e-13
    367750   5349.3104      408.00913      4941.3013      300.83211      2913.4223      0.40101743     18421.214      352.52731     -4.3577412     -1.4989692e-13 -1.0731414e-13  352.52731     -5.1442213e-13
    368000   5349.6466      396.68523      4952.9614      292.4828       2496.1511      0.40101743     18421.214      358.24678     -4.3577412     -1.4917159e-13 -1.0741141e-13  358.24678     -5.13166e-13  
    368250   5362.305       414.15649      4948.1486      305.36466      3451.0687      0.40101743     18421.214      359.77846     -4.3577412     -1.4708535e-13 -1.0767982e-13  359.77846     -5.0953034e-13
    368500   5322.6762      400.41479      4922.2614      295.23267      3835.4054      0.40101743     18421.214      353.87571     -4.3577412     -1.493463e-13  -1.0758016e-13  353.87571     -5.1385291e-13
    368750   5340.8194      414.38023      4926.4392      305.52962      4589.08        0.40101743     18421.214      364.46694     -4.3577412     -1.4862282e-13 -1.074122e-13   364.46694     -5.1207003e-13
    369000   5331.8306      388.34722      4943.4833      286.33504      2907.4354      0.40101743     18421.214      339.1339      -4.3577412     -1.4887517e-13 -1.0729525e-13  339.1339      -5.1234084e-13
    369250   5331.0477      424.6427       4906.405       313.09632      2310.8441      0.40101743     18421.214      339.71782     -4.3577412     -1.5219444e-13 -1.0740746e-13  339.71782     -5.1920381e-13
    369500   5353.0717      406.62379      4946.4479      299.81067      3338.7469      0.40101743     18421.214      351.75684     -4.3577412     -1.4982661e-13 -1.0748916e-13  351.75684     -5.1463153e-13
    369750   5318.2219      397.46803      4920.7539      293.05997      3484.6802      0.40101743     18421.214      345.69645     -4.3577412     -1.4807903e-13 -1.0725685e-13  345.69645     -5.1067177e-13
    370000   5315.3065      411.31698      4903.9895      303.27104      3338.4765      0.40101743     18421.214      348.19629     -4.3577412     -1.4934129e-13 -1.0720952e-13  348.19629     -5.1310162e-13
    370250   5333.7438      406.3395       4927.4043      299.60106      3483.3322      0.40101743     18421.214      352.18079     -4.3577412     -1.5033173e-13 -1.0741637e-13  352.18079     -5.154962e-13 
    370500   5338.1377      408.40631      4929.7314      301.12496      2866.0982      0.40101743     18421.214      344.756       -4.3577412     -1.5012998e-13 -1.0758913e-13  344.756       -5.1543822e-13
    370750   5316.6689      420.19031      4896.4786      309.8135       4510.7535      0.40101743     18421.214      358.9745      -4.3577412     -1.4959571e-13 -1.0749719e-13  358.9745      -5.1418579e-13
    371000   5314.5934      393.66071      4920.9327      290.25277      3128.5953      0.40101743     18421.214      350.05824     -4.3577412     -1.4927372e-13 -1.0767712e-13  350.05824     -5.1390168e-13
    371250   5354.419       398.62638      4955.7927      293.91404      3926.023       0.40101743     18421.214      356.11568     -4.3577412     -1.4924658e-13 -1.0768359e-13  356.11568     -5.1386035e-13
    371500   5382.791       447.22767      4935.5633      329.74861      3735.6967      0.40101743     18421.214      345.12413     -4.3577412     -1.4773411e-13 -1.0769845e-13  345.12413     -5.1086512e-13
    371750   5343.0426      417.30276      4925.7398      307.68445      2443.2454      0.40101743     18421.214      343.84669     -4.3577412     -1.4847317e-13 -1.0768238e-13  343.84669     -5.1231111e-13
    372000   5370.9772      423.51396      4947.4633      312.26408      2986.7507      0.40101743     18421.214      342.87005     -4.3577412     -1.4913104e-13 -1.0769135e-13  342.87005     -5.1364479e-13
    372250   5324.1202      406.58485      4917.5354      299.78196      3794.2205      0.40101743     18421.214      349.80646     -4.3577412     -1.4856576e-13 -1.076952e-13   349.80646     -5.1252191e-13
    372500   5325.8904      389.87123      4936.0192      287.45872      3236.6718      0.40101743     18421.214      356.07111     -4.3577412     -1.4924653e-13 -1.0779072e-13  356.07111     -5.140745e-13 
    372750   5317.9361      410.0583       4907.8778      302.34299      3643.6671      0.40101743     18421.214      343.01655     -4.3577412     -1.4875096e-13 -1.0783347e-13  343.01655     -5.1316886e-13
    373000   5383.9084      415.55753      4968.3508      306.39767      3965.8401      0.40101743     18421.214      366.83184     -4.3577412     -1.4873836e-13 -1.0772095e-13  366.83184     -5.1291863e-13
    373250   5338.8317      410.09325      4928.7384      302.36876      2041.5581      0.40101743     18421.214      343.67958     -4.3577412     -1.5059348e-13 -1.0756229e-13  343.67958     -5.1631156e-13
    373500   5337.2657      404.10272      4933.163       297.95184      3159.2053      0.40101743     18421.214      355.16126     -4.3577412     -1.4789739e-13 -1.0761643e-13  355.16126     -5.1102764e-13
    373750   5344.6077      396.49374      4948.1139      292.34161      4031.4054      0.40101743     18421.214      356.3825      -4.3577412     -1.4894515e-13 -1.0774017e-13  356.3825      -5.1337065e-13
    374000   5369.3412      397.83702      4971.5042      293.33203      3714.771       0.40101743     18421.214      369.40651     -4.3577412     -1.4996234e-13 -1.0759987e-13  369.40651     -5.1512442e-13
    374250   5336.057       407.89922      4928.1578      300.75106      3668.0975      0.40101743     18421.214      357.93223     -4.3577412     -1.4862469e-13 -1.0762275e-13  357.93223     -5.1249488e-13
    374500   5373.5334      432.66139      4940.872       319.00864      5073.4956      0.40101743     18421.214      361.33051     -4.3577412     -1.4979408e-13 -1.0761881e-13  361.33051     -5.1482577e-13
    374750   5357.3922      420.91724      4936.4749      310.34947      4198.9056      0.40101743     18421.214      348.81932     -4.3577412     -1.4946031e-13 -1.0762302e-13  348.81932     -5.1416667e-13
    375000   5351.0942      390.91865      4960.1755      288.231        3171.1065      0.40101743     18421.214      348.08611     -4.3577412     -1.4724767e-13 -1.0751887e-13  348.08611     -5.0953309e-13
    375250   5315.7599      382.91045      4932.8495      282.32642      4005.0287      0.40101743     18421.214      354.27114     -4.3577412     -1.4921392e-13 -1.0757023e-13  354.27114     -5.135683e-13 
    375500   5321.7433      402.92129      4918.8221      297.08075      3726.6755      0.40101743     18421.214      336.91225     -4.3577412     -1.502002e-13  -1.0759277e-13  336.91225     -5.1558594e-13
    375750   5376.0414      451.18673      4924.8547      332.66769      3329.4599      0.40101743     18421.214      347.74817     -4.3577412     -1.4912168e-13 -1.0768778e-13  347.74817     -5.1361893e-13
    376000   5338.002       412.82805      4925.1739      304.38518      2585.9945      0.40101743     18421.214      350.26836     -4.3577412     -1.4781958e-13 -1.0769571e-13  350.26836     -5.1103059e-13
    376250   5331.3669      389.02144      4942.3454      286.83215      3157.695       0.40101743     18421.214      347.94403     -4.3577412     -1.5004906e-13 -1.0765362e-13  347.94403     -5.1540536e-13
    376500   5332.6697      394.55408      4938.1156      290.91146      3108.5268      0.40101743     18421.214      353.58188     -4.3577412     -1.5085364e-13 -1.0752472e-13  353.58188     -5.1675671e-13
    376750   5391.5374      444.52795      4947.0094      327.75805      3571.1049      0.40101743     18421.214      357.30102     -4.3577412     -1.4750024e-13 -1.0716536e-13  357.30102     -5.093312e-13 
    377000   5373.5245      438.90885      4934.6157      323.615        2990.5617      0.40101743     18421.214      356.33547     -4.3577412     -1.4875831e-13 -1.0735028e-13  356.33547     -5.1221718e-13
    377250   5357.8376      399.54881      4958.2888      294.59417      2661.8905      0.40101743     18421.214      347.19013     -4.3577412     -1.4898819e-13 -1.0755155e-13  347.19013     -5.1307948e-13
    377500   5310.9208      393.77254      4917.1482      290.33522      3680.9728      0.40101743     18421.214      351.2294      -4.3577412     -1.4898885e-13 -1.0764259e-13  351.2294      -5.1326288e-13
    377750   5331.8688      407.70205      4924.1667      300.60569      3334.6159      0.40101743     18421.214      352.72129     -4.3577412     -1.467913e-13  -1.0770221e-13  352.72129     -5.0898702e-13
    378000   5349.6366      392.44449      4957.1921      289.35603      4788.6144      0.40101743     18421.214      370.13087     -4.3577412     -1.4830506e-13 -1.0777524e-13  370.13087     -5.121606e-13 
    378250   5322.3562      408.60623      4913.7499      301.27236      4207.5417      0.40101743     18421.214      347.44638     -4.3577412     -1.487071e-13  -1.0760774e-13  347.44638     -5.1262967e-13
    378500   5365.551       412.64174      4952.9093      304.24781      4037.0114      0.40101743     18421.214      360.98843     -4.3577412     -1.4728372e-13 -1.0752359e-13  360.98843     -5.0961462e-13
    378750   5380.4         406.05988      4974.3401      299.39489      3040.4293      0.40101743     18421.214      347.23929     -4.3577412     -1.5095264e-13 -1.0751599e-13  347.23929     -5.1693728e-13
    379000   5314.0299      373.18503      4940.8448      275.1557       3673.5778      0.40101743     18421.214      360.1248      -4.3577412     -1.4847369e-13 -1.0765524e-13  360.1248      -5.1225786e-13
    379250   5350.7839      425.623        4925.1609      313.81911      2862.8091      0.40101743     18421.214      353.40766     -4.3577412     -1.4824811e-13 -1.0756707e-13  353.40766     -5.1163037e-13
    379500   5364.1132      449.33074      4914.7825      331.29924      3279.9045      0.40101743     18421.214      340.51821     -4.3577412     -1.4859695e-13 -1.0743447e-13  340.51821     -5.1206283e-13
    379750   5345.3585      408.51411      4936.8444      301.20444      3679.9302      0.40101743     18421.214      353.94479     -4.3577412     -1.5055453e-13 -1.0752664e-13  353.94479     -5.1616234e-13
    380000   5352.2665      412.45505      4939.8115      304.11016      5134.6733      0.40101743     18421.214      367.21583     -4.3577412     -1.4800544e-13 -1.0743662e-13  367.21583     -5.1088412e-13
    380250   5376.548       423.79308      4952.7549      312.46988      3636.4893      0.40101743     18421.214      352.72376     -4.3577412     -1.4890967e-13 -1.074881e-13   352.72376     -5.1279555e-13
    380500   5353.7537      407.18738      4946.5663      300.22621      3710.6721      0.40101743     18421.214      355.30701     -4.3577412     -1.4950414e-13 -1.0756501e-13  355.30701     -5.1413828e-13
    380750   5328.6693      407.99283      4920.6764      300.82009      4143.5068      0.40101743     18421.214      356.83562     -4.3577412     -1.477964e-13  -1.0759421e-13  356.83562     -5.1078122e-13
    381000   5334.1199      411.77225      4922.3476      303.60672      4093.2361      0.40101743     18421.214      367.49367     -4.3577412     -1.4898299e-13 -1.0750171e-13  367.49367     -5.129694e-13 
    381250   5333.0741      400.89721      4932.1768      295.58836      3370.1895      0.40101743     18421.214      351.90109     -4.3577412     -1.4887618e-13 -1.0742294e-13  351.90109     -5.1259824e-13
    381500   5338.663       393.20616      4945.4569      289.91762      4540.4333      0.40101743     18421.214      362.38769     -4.3577412     -1.4680441e-13 -1.0735132e-13  362.38769     -5.0831146e-13
    381750   5338.2948      407.43876      4930.8561      300.41156      3313.6264      0.40101743     18421.214      357.96487     -4.3577412     -1.4880767e-13 -1.0747692e-13  357.96487     -5.1256917e-13
    382000   5347.2478      410.17944      4937.0683      302.43232      3098.2119      0.40101743     18421.214      347.72397     -4.3577412     -1.4711655e-13 -1.0757856e-13  347.72397     -5.0939021e-13
    382250   5342.2922      413.61286      4928.6793      304.96383      3767.924       0.40101743     18421.214      356.4099      -4.3577412     -1.4785511e-13 -1.0733252e-13  356.4099      -5.1037526e-13
    382500   5356.826       425.26508      4931.5609      313.55521      4356.5422      0.40101743     18421.214      357.07904     -4.3577412     -1.5015569e-13 -1.071493e-13   357.07904     -5.1460997e-13
    382750   5385.2626      436.83614      4948.4265      322.08675      2148.6325      0.40101743     18421.214      331.62277     -4.3577412     -1.5003467e-13 -1.0736724e-13  331.62277     -5.1480383e-13
    383000   5375.3481      426.68463      4948.6634      314.60187      4157.6224      0.40101743     18421.214      359.67227     -4.3577412     -1.4760283e-13 -1.0738139e-13  359.67227     -5.0996844e-13
    383250   5333.0896      409.77969      4923.3099      302.13757      5096.1968      0.40101743     18421.214      359.18668     -4.3577412     -1.5031893e-13 -1.0737497e-13  359.18668     -5.1538781e-13
    383500   5348.2339      412.51989      4935.714       304.15796      4087.1852      0.40101743     18421.214      354.919       -4.3577412     -1.4846015e-13 -1.0747286e-13  354.919       -5.1186603e-13
    383750   5347.6901      421.81128      4925.8788      311.00867      4357.2346      0.40101743     18421.214      360.79578     -4.3577412     -1.4848084e-13 -1.0744837e-13  360.79578     -5.1185843e-13
    384000   5329.5955      397.15538      4932.4401      292.82945      1929.7206      0.40101743     18421.214      342.17985     -4.3577412     -1.4912759e-13 -1.0752429e-13  342.17985     -5.1330377e-13
    384250   5358.2096      410.76548      4947.4442      302.86441      2329.638       0.40101743     18421.214      345.1136      -4.3577412     -1.4885006e-13 -1.0732246e-13  345.1136      -5.1234505e-13
    384500   5341.7512      414.45306      4927.2981      305.58333      2462.3896      0.40101743     18421.214      339.22288     -4.3577412     -1.497428e-13  -1.0732743e-13  339.22288     -5.1414046e-13
    384750   5335.4971      413.35326      4922.1438      304.77242      2949.5286      0.40101743     18421.214      341.70998     -4.3577412     -1.4867608e-13 -1.0750897e-13  341.70998     -5.1237011e-13
    385000   5371.7042      428.39562      4943.3085      315.86341      4595.8795      0.40101743     18421.214      355.03537     -4.3577412     -1.4898413e-13 -1.0731378e-13  355.03537     -5.1259583e-13
    385250   5327.556       417.8722       4909.6838      308.10431      4102.7856      0.40101743     18421.214      358.67976     -4.3577412     -1.4978279e-13 -1.0752626e-13  358.67976     -5.1461809e-13
    385500   5356.6145      417.99835      4938.6162      308.19733      2841.3541      0.40101743     18421.214      336.07588     -4.3577412     -1.4970462e-13 -1.0745851e-13  336.07588     -5.1432627e-13
    385750   5292.2986      384.28354      4908.0151      283.33883      3805.3498      0.40101743     18421.214      362.79348     -4.3577412     -1.4844985e-13 -1.0761938e-13  362.79348     -5.1213846e-13
    386000   5382.6524      452.78864      4929.8638      333.8488       3391.4375      0.40101743     18421.214      340.95501     -4.3577412     -1.5041999e-13 -1.0774122e-13  340.95501     -5.1632242e-13
    386250   5361.3161      424.53446      4936.7816      313.01651      3085.4159      0.40101743     18421.214      352.10964     -4.3577412     -1.5078794e-13 -1.077988e-13   352.10964     -5.1717348e-13
    386500   5361.2483      416.42422      4944.8241      307.0367       3945.8545      0.40101743     18421.214      355.21775     -4.3577412     -1.4927524e-13 -1.0773409e-13  355.21775     -5.1401867e-13
    386750   5358.055       425.67356      4932.3814      313.85639      3057.5194      0.40101743     18421.214      353.53547     -4.3577412     -1.490626e-13  -1.0766793e-13  353.53547     -5.1346106e-13
    387000   5348.9796      424.11394      4924.8657      312.70646      3938.0986      0.40101743     18421.214      347.3151      -4.3577412     -1.5136585e-13 -1.0765995e-13  347.3151      -5.1805161e-13
    387250   5306.7238      390.31405      4916.4097      287.78522      4163.3796      0.40101743     18421.214      343.32503     -4.3577412     -1.520838e-13  -1.07569e-13    343.32503     -5.193056e-13 
    387500   5310.4288      376.29775      4934.1311      277.45076      4199.4279      0.40101743     18421.214      349.12756     -4.3577412     -1.5038549e-13 -1.0761527e-13  349.12756     -5.1600152e-13
    387750   5357.2423      417.96782      4939.2745      308.17482      2829.1151      0.40101743     18421.214      352.64455     -4.3577412     -1.4908889e-13 -1.0739778e-13  352.64455     -5.1297333e-13
    388000   5333.6485      405.47502      4928.1735      298.96367      3590.3566      0.40101743     18421.214      352.24015     -4.3577412     -1.4976959e-13 -1.0730251e-13  352.24015     -5.1414421e-13
    388250   5345.6692      409.93999      4935.7292      302.25576      3986.3347      0.40101743     18421.214      354.84908     -4.3577412     -1.4991125e-13 -1.0729576e-13  354.84908     -5.1441402e-13
    388500   5333.4345      388.84567      4944.5889      286.70256      4113.1288      0.40101743     18421.214      355.36371     -4.3577412     -1.4860561e-13 -1.0730213e-13  355.36371     -5.1181549e-13
    388750   5390.8104      436.20102      4954.6093      321.61847      3043.7989      0.40101743     18421.214      353.99944     -4.3577412     -1.4885407e-13 -1.0723443e-13  353.99944     -5.1217701e-13
    389000   5319.7209      420.28326      4899.4377      309.88203      2937.3434      0.40101743     18421.214      351.04507     -4.3577412     -1.4895465e-13 -1.0741689e-13  351.04507     -5.1274309e-13
    389250   5356.2815      401.66505      4954.6164      296.15451      4483.0354      0.40101743     18421.214      354.77451     -4.3577412     -1.4849555e-13 -1.0733417e-13  354.77451     -5.1165943e-13
    389500   5343.8509      398.95675      4944.8942      294.15763      1945.4402      0.40101743     18421.214      343.69431     -4.3577412     -1.4867644e-13 -1.0727868e-13  343.69431     -5.1191024e-13
    389750   5330.9529      423.06866      4907.8843      311.93575      2261.911       0.40101743     18421.214      342.02079     -4.3577412     -1.4822005e-13 -1.0729018e-13  342.02079     -5.1102047e-13
    390000   5377.6107      423.82624      4953.7844      312.49433      2564.9955      0.40101743     18421.214      340.14151     -4.3577412     -1.4976636e-13 -1.0725543e-13  340.14151     -5.1404358e-13
    390250   5344.2396      418.02818      4926.2114      308.21932      3121.5095      0.40101743     18421.214      346.04229     -4.3577412     -1.4803582e-13 -1.0741507e-13  346.04229     -5.1090179e-13
    390500   5329.9929      403.53929      4926.4536      297.53642      3201.8492      0.40101743     18421.214      356.49901     -4.3577412     -1.4706116e-13 -1.0732132e-13  356.49901     -5.0876497e-13
    390750   5350.523       407.21378      4943.3092      300.24568      3094.0303      0.40101743     18421.214      344.27748     -4.3577412     -1.5015256e-13 -1.0711204e-13  344.27748     -5.1452921e-13
    391000   5366.2171      405.77016      4960.4469      299.18127      3584.1122      0.40101743     18421.214      366.04368     -4.3577412     -1.4846697e-13 -1.0695735e-13  366.04368     -5.1084865e-13
    391250   5352.3211      433.21204      4919.109       319.41464      4468.8449      0.40101743     18421.214      357.50077     -4.3577412     -1.47193e-13   -1.0707476e-13  357.50077     -5.0853553e-13
    391500   5330.5057      419.85388      4910.6518      309.56544      3435.1388      0.40101743     18421.214      341.62187     -4.3577412     -1.4828668e-13 -1.0698911e-13  341.62187     -5.1055157e-13
    391750   5384.6194      445.0463       4939.5731      328.14024      3998.0863      0.40101743     18421.214      358.90573     -4.3577412     -1.4623053e-13 -1.0705956e-13  358.90573     -5.0658018e-13
    392000   5349.5182      432.23191      4917.2863      318.69198      4572.2755      0.40101743     18421.214      358.03038     -4.3577412     -1.4856013e-13 -1.0727095e-13  358.03038     -5.1166215e-13
    392250   5367.6543      409.5528       4958.1015      301.97028      4049.1699      0.40101743     18421.214      360.27709     -4.3577412     -1.4746696e-13 -1.0745767e-13  360.27709     -5.0984926e-13
    392500   5352.5539      415.92609      4936.6278      306.66941      2660.7508      0.40101743     18421.214      341.75849     -4.3577412     -1.4754204e-13 -1.0740257e-13  341.75849     -5.0988922e-13
    392750   5366.9453      439.93564      4927.0097      324.37206      3638.8394      0.40101743     18421.214      347.65466     -4.3577412     -1.483862e-13  -1.0751105e-13  347.65466     -5.117945e-13 
    393000   5355.5771      410.23617      4945.341       302.47414      2325.4453      0.40101743     18421.214      345.27966     -4.3577412     -1.480113e-13  -1.0746166e-13  345.27966     -5.1094591e-13
    393250   5367.7445      415.11241      4952.6321      306.06947      3500.7435      0.40101743     18421.214      357.00851     -4.3577412     -1.4806293e-13 -1.0724781e-13  357.00851     -5.1062148e-13
    393500   5403.8993      441.35699      4962.5423      325.42006      3565.9538      0.40101743     18421.214      350.79301     -4.3577412     -1.4842233e-13 -1.0710615e-13  350.79301     -5.1105696e-13
    393750   5388.5299      453.31196      4935.2179      334.23466      3781.6446      0.40101743     18421.214      348.27855     -4.3577412     -1.4891677e-13 -1.0713427e-13  348.27855     -5.1210208e-13
    394000   5357.0429      388.84538      4968.1975      286.70235      3967.5951      0.40101743     18421.214      356.90245     -4.3577412     -1.4683379e-13 -1.0725764e-13  356.90245     -5.0818285e-13
    394250   5344.769       413.95107      4930.818       305.2132       3955.3157      0.40101743     18421.214      363.7266      -4.3577412     -1.4849572e-13 -1.0744229e-13  363.7266      -5.1187601e-13
    394500   5394.1979      459.05807      4935.1398      338.47136      4148.5898      0.40101743     18421.214      350.1275      -4.3577412     -1.4874221e-13 -1.0733601e-13  350.1275      -5.1215643e-13
    394750   5299.7082      388.52839      4911.1798      286.46862      3931.9423      0.40101743     18421.214      348.85411     -4.3577412     -1.5048703e-13 -1.0736809e-13  348.85411     -5.1571022e-13
    395000   5300.6166      392.13685      4908.4798      289.1292       3406.2272      0.40101743     18421.214      344.0051      -4.3577412     -1.4986463e-13 -1.0733634e-13  344.0051      -5.1440196e-13
    395250   5357.1699      402.07078      4955.0992      296.45366      3286.5917      0.40101743     18421.214      360.33692     -4.3577412     -1.4857343e-13 -1.0714209e-13  360.33692     -5.1143104e-13
    395500   5360.4315      404.02642      4956.4051      297.89559      2874.741       0.40101743     18421.214      354.36823     -4.3577412     -1.5106159e-13 -1.0705359e-13  354.36823     -5.1623036e-13
    395750   5368.6178      427.2903       4941.3275      315.04844      3700.0218      0.40101743     18421.214      348.25263     -4.3577412     -1.5076107e-13 -1.0724559e-13  348.25263     -5.1601333e-13
    396000   5357.2916      406.98974      4950.3019      300.08049      4043.1572      0.40101743     18421.214      359.9752      -4.3577412     -1.4870271e-13 -1.0734167e-13  359.9752      -5.1208876e-13
    396250   5298.8618      396.66562      4902.1962      292.46834      4413.4865      0.40101743     18421.214      351.6595      -4.3577412     -1.4886577e-13 -1.073956e-13   351.6595      -5.1252273e-13
    396500   5358.0173      419.06099      4938.9563      308.98083      3605.1165      0.40101743     18421.214      348.10629     -4.3577412     -1.4966586e-13 -1.0719185e-13  348.10629     -5.1371542e-13
    396750   5318.238       403.92875      4914.3092      297.82357      3642.8058      0.40101743     18421.214      349.94074     -4.3577412     -1.4872148e-13 -1.0717173e-13  349.94074     -5.1178642e-13
    397000   5330.0563      399.98674      4930.0696      294.91706      2707.1134      0.40101743     18421.214      335.68464     -4.3577412     -1.4830826e-13 -1.0732658e-13  335.68464     -5.112697e-13 
    397250   5354.9754      417.29723      4937.6781      307.68038      4408.1742      0.40101743     18421.214      353.97911     -4.3577412     -1.4853637e-13 -1.0708788e-13  353.97911     -5.112485e-13 
    397500   5362.6497      431.88407      4930.7656      318.43551      3197.506       0.40101743     18421.214      345.67461     -4.3577412     -1.4951877e-13 -1.0699513e-13  345.67461     -5.1302779e-13
    397750   5371.7231      430.76027      4940.9628      317.60691      2790.6421      0.40101743     18421.214      356.55496     -4.3577412     -1.4951482e-13 -1.071022e-13   356.55496     -5.1323405e-13
    398000   5344.2505      394.04887      4950.2017      290.53897      3061.809       0.40101743     18421.214      348.7606      -4.3577412     -1.4739359e-13 -1.0695576e-13  348.7606      -5.086987e-13 
    398250   5316.4137      414.54466      4901.869       305.65086      2773.1678      0.40101743     18421.214      341.43241     -4.3577412     -1.4712131e-13 -1.0701192e-13  341.43241     -5.0826647e-13
    398500   5338.0539      392.18248      4945.8714      289.16284      2491.6191      0.40101743     18421.214      350.00723     -4.3577412     -1.4859321e-13 -1.0710443e-13  350.00723     -5.1139529e-13
    398750   5339.5146      400.92159      4938.593       295.60634      2948.4745      0.40101743     18421.214      353.54807     -4.3577412     -1.4886095e-13 -1.0731184e-13  353.54807     -5.1234557e-13
    399000   5357.809       450.29472      4907.5143      332.00999      2796.9844      0.40101743     18421.214      344.9471      -4.3577412     -1.4796476e-13 -1.0742286e-13  344.9471      -5.1077524e-13
    399250   5371.1001      426.60651      4944.4936      314.54427      3669.5885      0.40101743     18421.214      359.54883     -4.3577412     -1.4829249e-13 -1.0753411e-13  359.54883     -5.1165321e-13
    399500   5354.7904      441.34746      4913.443       325.41302      3949.3439      0.40101743     18421.214      352.44315     -4.3577412     -1.4904452e-13 -1.0750085e-13  352.44315     -5.1309075e-13
    399750   5376.806       418.38654      4958.4194      308.48355      3179.6851      0.40101743     18421.214      357.46538     -4.3577412     -1.5004958e-13 -1.074122e-13   357.46538     -5.1492356e-13
    400000   5365.787       419.76153      4946.0254      309.49735      2610.9946      0.40101743     18421.214      349.62928     -4.3577412     -1.5096058e-13 -1.0731389e-13  349.62928     -5.1654895e-13
    400250   5308.2616      383.33973      4924.9219      282.64293      3493.9182      0.40101743     18421.214      360.15985     -4.3577412     -1.4925821e-13 -1.0737906e-13  360.15985     -5.1327454e-13
    400500   5316.2342      396.7015       4919.5327      292.4948       3006.8013      0.40101743     18421.214      341.89719     -4.3577412     -1.4913956e-13 -1.0745306e-13  341.89719     -5.1318524e-13
    400750   5307.5971      403.77969      4903.8175      297.71367      4301.447       0.40101743     18421.214      368.46198     -4.3577412     -1.4904907e-13 -1.0750403e-13  368.46198     -5.1310619e-13
    401000   5324.3322      404.38821      4919.944       298.16234      4147.3715      0.40101743     18421.214      358.6353      -4.3577412     -1.4817588e-13 -1.0752998e-13  358.6353      -5.1141173e-13
    401250   5354.1734      403.49447      4950.6789      297.50337      2035.0721      0.40101743     18421.214      347.6379      -4.3577412     -1.488075e-13  -1.0750665e-13  347.6379      -5.126283e-13 
    401500   5337.6221      402.42314      4935.199       296.71346      3857.6142      0.40101743     18421.214      358.92354     -4.3577412     -1.4919136e-13 -1.0755657e-13  358.92354     -5.1349585e-13
    401750   5338.0499      400.04396      4938.0059      294.95925      2750.9727      0.40101743     18421.214      356.3788      -4.3577412     -1.4923638e-13 -1.0759601e-13  356.3788      -5.1366478e-13
    402000   5347.5469      406.77303      4940.7739      299.92071      4229.6753      0.40101743     18421.214      344.02951     -4.3577412     -1.5004769e-13 -1.0745178e-13  344.02951     -5.1499892e-13
    402250   5353.3952      416.08504      4937.3102      306.78661      4099.7158      0.40101743     18421.214      352.65508     -4.3577412     -1.4922704e-13 -1.07397e-13    352.65508     -5.1324808e-13
    402500   5340.7682      420.55452      4920.2136      310.08204      2984.1024      0.40101743     18421.214      349.44153     -4.3577412     -1.5002566e-13 -1.0747238e-13  349.44153     -5.1499608e-13
    402750   5336.4677      393.30405      4943.1636      289.9898       2120.6075      0.40101743     18421.214      346.8923      -4.3577412     -1.5076449e-13 -1.0756227e-13  346.8923      -5.1665352e-13
    403000   5348.7074      404.59447      4944.1129      298.31442      3605.2046      0.40101743     18421.214      345.10447     -4.3577412     -1.4967333e-13 -1.075198e-13   345.10447     -5.1438626e-13
    403250   5326.4439      394.36794      4932.0759      290.77422      4060.535       0.40101743     18421.214      359.17864     -4.3577412     -1.4821107e-13 -1.075459e-13   359.17864     -5.1151393e-13
    403500   5328.6312      403.93658      4924.6946      297.82934      2891.971       0.40101743     18421.214      354.79668     -4.3577412     -1.5036132e-13 -1.0757525e-13  354.79668     -5.1587314e-13
    403750   5304.3148      400.60468      4903.7101      295.37268      2592.2383      0.40101743     18421.214      349.51733     -4.3577412     -1.4844134e-13 -1.0770838e-13  349.51733     -5.1229944e-13
    404000   5318.8038      397.60747      4921.1963      293.16278      3677.9166      0.40101743     18421.214      354.33442     -4.3577412     -1.482369e-13  -1.0770107e-13  354.33442     -5.1187593e-13
    404250   5335.4984      425.72879      4909.7696      313.89711      2796.413       0.40101743     18421.214      343.62629     -4.3577412     -1.5014849e-13 -1.0752678e-13  343.62629     -5.1535053e-13
    404500   5285.3115      391.72054      4893.591       288.82225      3067.2273      0.40101743     18421.214      353.21256     -4.3577412     -1.4962884e-13 -1.0745807e-13  353.21256     -5.1417381e-13
    404750   5340.7524      425.35029      4915.4021      313.61804      2670.2699      0.40101743     18421.214      338.93169     -4.3577412     -1.4987229e-13 -1.0757429e-13  338.93169     -5.1489316e-13
    405000   5332.1081      419.83981      4912.2683      309.55507      3082.2737      0.40101743     18421.214      343.71936     -4.3577412     -1.4862456e-13 -1.0763295e-13  343.71936     -5.1251502e-13
    405250   5333.2398      411.33432      4921.9054      303.28382      2242.1428      0.40101743     18421.214      344.33099     -4.3577412     -1.4876037e-13 -1.0759646e-13  344.33099     -5.1271364e-13
    405500   5327.1125      403.2335       4923.879       297.31095      2194.4638      0.40101743     18421.214      345.93623     -4.3577412     -1.4923201e-13 -1.0759815e-13  345.93623     -5.1366032e-13
    405750   5314.4363      375.38232      4939.054       276.7758       2525.5717      0.40101743     18421.214      338.37543     -4.3577412     -1.5022746e-13 -1.075001e-13   338.37543     -5.1545512e-13
    406000   5333.4206      416.48222      4916.9383      307.07946      3484.1416      0.40101743     18421.214      349.35367     -4.3577412     -1.4916523e-13 -1.0741309e-13  349.35367     -5.1315665e-13
    406250   5321.6469      408.0917       4913.5552      300.89299      4190.629       0.40101743     18421.214      342.50276     -4.3577412     -1.5065512e-13 -1.0719639e-13  342.50276     -5.1570301e-13
    406500   5354.4029      389.82582      4964.5771      287.42524      3555.1595      0.40101743     18421.214      359.11544     -4.3577412     -1.4781094e-13 -1.073095e-13   359.11544     -5.1024087e-13
    406750   5327.4146      403.05496      4924.3597      297.17931      3411.8784      0.40101743     18421.214      354.89865     -4.3577412     -1.4987552e-13 -1.0747695e-13  354.89865     -5.1470494e-13
    407000   5335.8011      422.02446      4913.7766      311.16585      2531.3592      0.40101743     18421.214      353.81259     -4.3577412     -1.5083468e-13 -1.0744975e-13  353.81259     -5.1656886e-13
    407250   5342.9345      398.50231      4944.4322      293.82256      3289.3449      0.40101743     18421.214      353.37187     -4.3577412     -1.4841689e-13 -1.0732945e-13  353.37187     -5.1149268e-13
    407500   5351.5471      422.94785      4928.5993      311.84668      3558.2994      0.40101743     18421.214      349.10671     -4.3577412     -1.4857148e-13 -1.0748692e-13  349.10671     -5.121168e-13 
    407750   5328.2419      397.80652      4930.4353      293.30955      2525.4447      0.40101743     18421.214      346.67445     -4.3577412     -1.4875548e-13 -1.0743678e-13  346.67445     -5.1238453e-13
    408000   5359.623       402.95522      4956.6678      297.10577      4647.2332      0.40101743     18421.214      367.19749     -4.3577412     -1.4989942e-13 -1.0757262e-13  367.19749     -5.1494408e-13
    408250   5340.658       403.53093      4937.1271      297.53026      3695.8656      0.40101743     18421.214      348.39843     -4.3577412     -1.5015851e-13 -1.0752707e-13  348.39843     -5.1537115e-13
    408500   5330.4321      410.78281      4919.6493      302.87719      2302.6785      0.40101743     18421.214      332.92229     -4.3577412     -1.4978692e-13 -1.0731121e-13  332.92229     -5.1419627e-13
    408750   5334.2587      435.61688      4898.6419      321.18777      3372.9647      0.40101743     18421.214      346.27109     -4.3577412     -1.5058046e-13 -1.0742016e-13  346.27109     -5.1600124e-13
    409000   5358.5406      402.36739      4956.1733      296.67236      2043.0071      0.40101743     18421.214      344.62726     -4.3577412     -1.4847752e-13 -1.0760126e-13  344.62726     -5.1215756e-13
    409250   5329.2631      412.98964      4916.2735      304.50432      3158.1036      0.40101743     18421.214      346.77569     -4.3577412     -1.4995579e-13 -1.0753243e-13  346.77569     -5.1497644e-13
    409500   5326.9423      411.38962      4915.5526      303.3246       2922.4893      0.40101743     18421.214      349.32083     -4.3577412     -1.500779e-13  -1.0751744e-13  349.32083     -5.1519069e-13
    409750   5346.7752      435.91208      4910.8632      321.40542      3349.2735      0.40101743     18421.214      347.90143     -4.3577412     -1.5028865e-13 -1.0726051e-13  347.90143     -5.1509831e-13
    410000   5313.6981      391.68762      4922.0105      288.79798      2945.8176      0.40101743     18421.214      350.9513      -4.3577412     -1.4905038e-13 -1.0698239e-13  350.9513      -5.1206555e-13
    410250   5353.3293      410.50926      4942.8201      302.6755       4293.1322      0.40101743     18421.214      361.01823     -4.3577412     -1.485659e-13  -1.0687624e-13  361.01823     -5.1088427e-13
    410500   5353.584       423.40415      4930.1798      312.18312      4624.478       0.40101743     18421.214      355.00008     -4.3577412     -1.4953697e-13 -1.0694505e-13  355.00008     -5.1296404e-13
    410750   5361.754       405.6509       4956.1031      299.09334      1652.4156      0.40101743     18421.214      353.04207     -4.3577412     -1.4977766e-13 -1.0737202e-13  353.04207     -5.1429937e-13
    411000   5349.1912      402.8618       4946.3294      297.03689      3336.41        0.40101743     18421.214      350.42711     -4.3577412     -1.4921257e-13 -1.0728973e-13  350.42711     -5.1300461e-13
    411250   5373.3167      417.34882      4955.9679      307.71842      3965.0738      0.40101743     18421.214      361.14338     -4.3577412     -1.497804e-13  -1.074305e-13   361.14338     -5.144218e-13 
    411500   5339.3262      396.9468       4942.3794      292.67566      3466.366       0.40101743     18421.214      337.06883     -4.3577412     -1.4885418e-13 -1.0747923e-13  337.06883     -5.1266682e-13
    411750   5337.276       414.79133      4922.4847      305.83274      3674.2377      0.40101743     18421.214      346.70479     -4.3577412     -1.4882194e-13 -1.0756239e-13  346.70479     -5.1276867e-13
    412000   5330.1146      408.84699      4921.2676      301.44988      3355.6968      0.40101743     18421.214      352.78927     -4.3577412     -1.4884464e-13 -1.0757509e-13  352.78927     -5.1283945e-13
    412250   5344.0716      406.37768      4937.6939      299.62921      3499.1962      0.40101743     18421.214      355.65722     -4.3577412     -1.4899545e-13 -1.0753844e-13  355.65722     -5.1306779e-13
    412500   5345.2775      401.57871      4943.6988      296.09085      3668.9029      0.40101743     18421.214      356.63174     -4.3577412     -1.4825754e-13 -1.0733508e-13  356.63174     -5.1118524e-13
    412750   5329.5976      402.34733      4927.2502      296.65757      3548.0706      0.40101743     18421.214      353.82855     -4.3577412     -1.496002e-13  -1.0734083e-13  353.82855     -5.1388207e-13
    413000   5344.4061      404.81487      4939.5913      298.47692      3584.1749      0.40101743     18421.214      338.03854     -4.3577412     -1.5033558e-13 -1.0720604e-13  338.03854     -5.1508323e-13
    413250   5368.7008      412.90368      4955.7972      304.44094      2419.4533      0.40101743     18421.214      343.50948     -4.3577412     -1.4815811e-13 -1.0708175e-13  343.50948     -5.1047973e-13
    413500   5355.6074      407.37652      4948.2308      300.36567      2937.7547      0.40101743     18421.214      352.35214     -4.3577412     -1.495412e-13  -1.0697227e-13  352.35214     -5.1302695e-13
    413750   5357.2503      418.14436      4939.1059      308.30499      2438.2372      0.40101743     18421.214      338.759       -4.3577412     -1.4922204e-13 -1.0702156e-13  338.759       -5.1248721e-13
    414000   5349.3739      415.32637      4934.0475      306.22723      4384.3684      0.40101743     18421.214      353.53261     -4.3577412     -1.4919612e-13 -1.0685363e-13  353.53261     -5.1209949e-13
    414250   5327.7927      395.76717      4932.0255      291.8059       3328.6474      0.40101743     18421.214      345.86708     -4.3577412     -1.491521e-13  -1.0661706e-13  345.86708     -5.1153832e-13
    414500   5338.3528      417.56489      4920.788       307.87773      2954.0848      0.40101743     18421.214      356.10971     -4.3577412     -1.4798802e-13 -1.0651555e-13  356.10971     -5.0900715e-13
    414750   5345.204       417.85976      4927.3443      308.09514      2800.0449      0.40101743     18421.214      349.61709     -4.3577412     -1.4709925e-13 -1.0690029e-13  349.61709     -5.0799909e-13
    415000   5368.8412      411.83866      4957.0026      303.65569      3857.8404      0.40101743     18421.214      365.02365     -4.3577412     -1.493644e-13  -1.0727585e-13  365.02365     -5.1328049e-13
    415250   5335.6214      395.91621      4939.7052      291.91579      2207.6777      0.40101743     18421.214      337.76955     -4.3577412     -1.5059044e-13 -1.071571e-13   337.76955     -5.1549509e-13
    415500   5333.4454      405.20391      4928.2415      298.76377      2149.6108      0.40101743     18421.214      347.08222     -4.3577412     -1.4847278e-13 -1.0695903e-13  347.08222     -5.1086363e-13
    415750   5380.6746      429.39158      4951.283       316.59775      1858.2106      0.40101743     18421.214      330.45586     -4.3577412     -1.4975434e-13 -1.0710092e-13  330.45586     -5.1371053e-13
    416000   5336.1709      408.1446       4928.0263      300.93199      4423.4448      0.40101743     18421.214      371.641       -4.3577412     -1.4852519e-13 -1.0715455e-13  371.641       -5.1135948e-13
    416250   5349.0291      402.0904       4946.9387      296.46813      1901.1174      0.40101743     18421.214      345.6992      -4.3577412     -1.4781683e-13 -1.072283e-13   345.6992      -5.1009025e-13
    416500   5320.2337      388.80208      4931.4316      286.67042      2934.2777      0.40101743     18421.214      350.38038     -4.3577412     -1.4835166e-13 -1.0718526e-13  350.38038     -5.1107384e-13
    416750   5373.4879      421.15551      4952.3324      310.52516      3478.0825      0.40101743     18421.214      350.88396     -4.3577412     -1.4998436e-13 -1.0720183e-13  350.88396     -5.1437238e-13
    417000   5353.2566      412.70129      4940.5553      304.29171      2495.531       0.40101743     18421.214      354.5787      -4.3577412     -1.4881289e-13 -1.074678e-13   354.5787      -5.1256137e-13
    417250   5360.7585      424.63586      4936.1226      313.09128      3338.4586      0.40101743     18421.214      340.74163     -4.3577412     -1.4989373e-13 -1.0746955e-13  340.74163     -5.1472656e-13
    417500   5360.9668      417.46688      4943.5         307.80547      1638.6789      0.40101743     18421.214      335.9009      -4.3577412     -1.4945315e-13 -1.0714646e-13  335.9009      -5.1319921e-13
    417750   5347.1185      407.20848      4939.9101      300.24177      2554.6076      0.40101743     18421.214      347.5522      -4.3577412     -1.4852005e-13 -1.0685145e-13  347.5522      -5.10743e-13  
    418000   5348.7669      397.83049      4950.9364      293.32722      2952.9239      0.40101743     18421.214      358.02154     -4.3577412     -1.4885258e-13 -1.0689206e-13  358.02154     -5.1148928e-13
    418250   5324.368       403.91109      4920.4569      297.81055      2119.1107      0.40101743     18421.214      347.77437     -4.3577412     -1.4800908e-13 -1.0662368e-13  347.77437     -5.092655e-13 
    418500   5354.3227      414.49017      4939.8325      305.61068      2706.7379      0.40101743     18421.214      351.30634     -4.3577412     -1.4922002e-13 -1.0662352e-13  351.30634     -5.1168707e-13
    418750   5359.4504      428.91522      4930.5351      316.24653      3077.4987      0.40101743     18421.214      351.85195     -4.3577412     -1.5023255e-13 -1.0669853e-13  351.85195     -5.1386215e-13
    419000   5345.857       416.08377      4929.7732      306.78568      2737.6967      0.40101743     18421.214      348.80178     -4.3577412     -1.4931301e-13 -1.0718567e-13  348.80178     -5.1299737e-13
    419250   5351.1573      429.48727      4921.67        316.66831      3744.8918      0.40101743     18421.214      356.13293     -4.3577412     -1.4658189e-13 -1.0730123e-13  356.13293     -5.0776624e-13
    419500   5367.9034      414.91306      4952.9903      305.92249      2651.3834      0.40101743     18421.214      351.66334     -4.3577412     -1.4750799e-13 -1.0728649e-13  351.66334     -5.0958896e-13
    419750   5355.6216      404.64626      4950.9753      298.35261      3748.2943      0.40101743     18421.214      355.91894     -4.3577412     -1.4902604e-13 -1.0755095e-13  355.91894     -5.1315397e-13
    420000   5343.5251      427.84917      4915.6759      315.46051      4347.452       0.40101743     18421.214      350.93273     -4.3577412     -1.4766959e-13 -1.0717774e-13  350.93273     -5.0969467e-13
    420250   5333.2329      421.46867      4911.7642      310.75606      4842.1221      0.40101743     18421.214      356.78038     -4.3577412     -1.4986499e-13 -1.0691959e-13  356.78038     -5.1356915e-13
    420500   5339.2286      405.58849      4933.6401      299.04732      3626.6264      0.40101743     18421.214      356.1712      -4.3577412     -1.4827373e-13 -1.070239e-13   356.1712      -5.1059526e-13
    420750   5338.9891      419.10566      4919.8835      309.01377      2443.7126      0.40101743     18421.214      354.31395     -4.3577412     -1.4863062e-13 -1.0741176e-13  354.31395     -5.1208477e-13
    421000   5343.2996      409.57855      4933.7211      301.98927      2905.2874      0.40101743     18421.214      348.93982     -4.3577412     -1.4968926e-13 -1.0753058e-13  348.93982     -5.1443968e-13
    421250   5340.5771      414.48462      4926.0924      305.60659      3998.2713      0.40101743     18421.214      355.35036     -4.3577412     -1.4954464e-13 -1.0768869e-13  355.35036     -5.1446666e-13
    421500   5363.6447      405.1021       4958.5426      298.6887       3077.9345      0.40101743     18421.214      351.93134     -4.3577412     -1.4907393e-13 -1.0750058e-13  351.93134     -5.1314903e-13
    421750   5329.7973      383.15164      4946.6456      282.50425      3739.7849      0.40101743     18421.214      355.62382     -4.3577412     -1.4773063e-13 -1.0748381e-13  355.62382     -5.1042887e-13
    422000   5312.3169      401.95046      4910.3664      296.36494      5026.1032      0.40101743     18421.214      356.99405     -4.3577412     -1.4807554e-13 -1.0759024e-13  356.99405     -5.1133157e-13
    422250   5297.9311      388.15779      4909.7733      286.19538      3739.0812      0.40101743     18421.214      354.31454     -4.3577412     -1.4735471e-13 -1.0753924e-13  354.31454     -5.0978789e-13
    422500   5300.201       385.06364      4915.1373      283.914        3981.0189      0.40101743     18421.214      353.90932     -4.3577412     -1.4722003e-13 -1.0757771e-13  353.90932     -5.0959547e-13
    422750   5343.8121      410.73711      4933.075       302.84349      3829.6424      0.40101743     18421.214      351.34104     -4.3577412     -1.4624398e-13 -1.0756556e-13  351.34104     -5.0761907e-13
    423000   5362.7144      414.56319      4948.1512      305.66452      4011.0858      0.40101743     18421.214      365.44994     -4.3577412     -1.4630101e-13 -1.0745264e-13  365.44994     -5.075073e-13 
    423250   5311.5419      408.32363      4903.2183      301.06399      2657.6742      0.40101743     18421.214      335.31306     -4.3577412     -1.508158e-13  -1.0771684e-13  335.31306     -5.1706528e-13
    423500   5343.05        406.62507      4936.4249      299.81161      3903.2538      0.40101743     18421.214      348.75495     -4.3577412     -1.4703243e-13 -1.0780809e-13  348.75495     -5.0968104e-13
    423750   5357.5883      428.56323      4929.0251      315.987        3122.564       0.40101743     18421.214      343.84136     -4.3577412     -1.4900204e-13 -1.0791126e-13  343.84136     -5.138266e-13 
    424000   5343.9117      439.01999      4904.8917      323.69694      1560.5946      0.40101743     18421.214      329.18834     -4.3577412     -1.4820629e-13 -1.0787045e-13  329.18834     -5.1215347e-13
    424250   5347.6864      412.85264      4934.8338      304.40331      2741.8302      0.40101743     18421.214      342.51745     -4.3577412     -1.4976487e-13 -1.0777975e-13  342.51745     -5.1508924e-13
    424500   5345.0332      391.25156      4953.7817      288.47646      3271.017       0.40101743     18421.214      354.56159     -4.3577412     -1.4952768e-13 -1.0770766e-13  354.56159     -5.1447067e-13
    424750   5330.3751      403.08413      4927.291       297.20082      4033.0337      0.40101743     18421.214      355.29894     -4.3577412     -1.4917173e-13 -1.0754727e-13  355.29894     -5.13438e-13  
    425000   5358.2829      412.17111      4946.1118      303.9008       3517.1542      0.40101743     18421.214      348.99056     -4.3577412     -1.4866268e-13 -1.0765901e-13  348.99056     -5.126434e-13 
    425250   5365.8484      436.09067      4929.7577      321.5371       3487.2774      0.40101743     18421.214      348.44645     -4.3577412     -1.4895247e-13 -1.0760978e-13  348.44645     -5.131245e-13 
    425500   5340.3207      412.3006       4928.0201      303.99628      2672.4603      0.40101743     18421.214      352.55552     -4.3577412     -1.492026e-13  -1.0771567e-13  352.55552     -5.1383653e-13
    425750   5350.322       411.22756      4939.0944      303.20511      4207.8596      0.40101743     18421.214      360.88705     -4.3577412     -1.492545e-13  -1.0768626e-13  360.88705     -5.1388153e-13
    426000   5345.3836      408.75204      4936.6316      301.37987      2479.1334      0.40101743     18421.214      357.93103     -4.3577412     -1.493879e-13  -1.0719533e-13  357.93103     -5.1316646e-13
    426250   5317.1096      406.15041      4910.9592      299.46164      2562.648       0.40101743     18421.214      338.83508     -4.3577412     -1.476901e-13  -1.0720637e-13  338.83508     -5.0979294e-13
    426500   5374.5772      418.79178      4955.7854      308.78234      4547.6301      0.40101743     18421.214      371.95778     -4.3577412     -1.4640623e-13 -1.0717392e-13  371.95778     -5.071603e-13 
    426750   5357.8395      419.04658      4938.7929      308.97021      2990.6924      0.40101743     18421.214      345.65622     -4.3577412     -1.4836173e-13 -1.076203e-13   345.65622     -5.1196408e-13
    427000   5358.5955      408.72972      4949.8658      301.36341      3576.0149      0.40101743     18421.214      358.50877     -4.3577412     -1.4956659e-13 -1.0737638e-13  358.50877     -5.1388595e-13
    427250   5338.2076      412.81137      4925.3962      304.37288      3082.0336      0.40101743     18421.214      339.54114     -4.3577412     -1.4979709e-13 -1.074364e-13   339.54114     -5.1446697e-13
    427500   5334.4811      415.1654       4919.3157      306.10855      3521.607       0.40101743     18421.214      368.49139     -4.3577412     -1.4845163e-13 -1.0773741e-13  368.49139     -5.1237808e-13
    427750   5345.4867      426.02193      4919.4647      314.11325      3936.2856      0.40101743     18421.214      353.86568     -4.3577412     -1.501031e-13  -1.0772239e-13  353.86568     -5.1565099e-13
    428000   5355.1446      417.62937      4937.5152      307.92528      3800.9601      0.40101743     18421.214      366.08854     -4.3577412     -1.4773974e-13 -1.0767517e-13  366.08854     -5.1082982e-13
    428250   5337.5098      410.03074      4927.4791      302.32267      2040.5898      0.40101743     18421.214      339.39512     -4.3577412     -1.5017315e-13 -1.0771971e-13  339.39512     -5.1578572e-13
    428500   5344.2583      418.35976      4925.8986      308.4638       2954.801       0.40101743     18421.214      344.97689     -4.3577412     -1.4840149e-13 -1.0766654e-13  344.97689     -5.1213607e-13
    428750   5365.6788      425.09129      4940.5875      313.42707      3609.8862      0.40101743     18421.214      362.77771     -4.3577412     -1.4964611e-13 -1.0772334e-13  362.77771     -5.147389e-13 
    429000   5340.9613      402.5147       4938.4466      296.78097      3823.9092      0.40101743     18421.214      352.42846     -4.3577412     -1.5006089e-13 -1.0751765e-13  352.42846     -5.1515707e-13
    429250   5343.8535      399.78966      4944.0638      294.77175      4195.8507      0.40101743     18421.214      357.20786     -4.3577412     -1.4763187e-13 -1.0757168e-13  357.20786     -5.1040711e-13
    429500   5340.464       416.87394      4923.59        307.36828      3609.4011      0.40101743     18421.214      347.80972     -4.3577412     -1.4889557e-13 -1.0759566e-13  347.80972     -5.1298246e-13
    429750   5365.705       422.66005      4943.0449      311.63448      3556.133       0.40101743     18421.214      349.93693     -4.3577412     -1.4845375e-13 -1.0756629e-13  349.93693     -5.1204008e-13
    430000   5329.8698      398.47535      4931.3945      293.80269      3101.6177      0.40101743     18421.214      342.31481     -4.3577412     -1.4884424e-13 -1.0768826e-13  342.31481     -5.13065e-13  
    430250   5362.4225      401.86665      4960.5558      296.30315      3243.6508      0.40101743     18421.214      342.86336     -4.3577412     -1.5013963e-13 -1.0768924e-13  342.86336     -5.1565775e-13
    430500   5401.8508      437.95464      4963.8961      322.91144      3537.9004      0.40101743     18421.214      347.44623     -4.3577412     -1.5011439e-13 -1.0757477e-13  347.44623     -5.1537831e-13
    430750   5378.7837      425.35842      4953.4253      313.62404      2438.721       0.40101743     18421.214      344.39439     -4.3577412     -1.4914548e-13 -1.0751128e-13  344.39439     -5.1331353e-13
    431000   5372.7485      434.55669      4938.1918      320.40608      3610.6143      0.40101743     18421.214      345.59001     -4.3577412     -1.4942843e-13 -1.0758992e-13  345.59001     -5.140367e-13 
    431250   5381.3602      443.46981      4937.8904      326.97787      3655.1262      0.40101743     18421.214      348.60392     -4.3577412     -1.4949448e-13 -1.074447e-13   348.60392     -5.1387835e-13
    431500   5384.8682      459.80784      4925.0604      339.02418      3565.4338      0.40101743     18421.214      348.28553     -4.3577412     -1.4896423e-13 -1.0756597e-13  348.28553     -5.130604e-13 
    431750   5335.6111      403.77383      4931.8373      297.70934      3454.6425      0.40101743     18421.214      356.24068     -4.3577412     -1.4728127e-13 -1.0766794e-13  356.24068     -5.0989842e-13
    432000   5328.7458      424.53491      4904.2109      313.01684      3986.1488      0.40101743     18421.214      354.71049     -4.3577412     -1.5023257e-13 -1.0732223e-13  354.71049     -5.151096e-13 
    432250   5387.7116      424.46894      4963.2426      312.96821      3092.5743      0.40101743     18421.214      342.0828      -4.3577412     -1.4785283e-13 -1.0708551e-13  342.0828      -5.0987667e-13
    432500   5328.5562      392.07176      4936.4845      289.08121      3912.8262      0.40101743     18421.214      353.88407     -4.3577412     -1.4846843e-13 -1.073579e-13   353.88407     -5.1165267e-13
    432750   5352.8654      415.35758      4937.5078      306.25024      4414.1808      0.40101743     18421.214      368.85324     -4.3577412     -1.4901872e-13 -1.0746152e-13  368.85324     -5.1296047e-13
    433000   5329.4451      403.94578      4925.4993      297.83613      3117.3009      0.40101743     18421.214      360.44743     -4.3577412     -1.4839182e-13 -1.0759182e-13  360.44743     -5.1196729e-13
    433250   5349.5002      410.15834      4939.3419      302.41675      2228.0749      0.40101743     18421.214      347.13484     -4.3577412     -1.4893827e-13 -1.074405e-13   347.13484     -5.1275755e-13
    433500   5352.8813      405.15732      4947.724       298.72942      2537.8921      0.40101743     18421.214      349.44879     -4.3577412     -1.5005647e-13 -1.0743072e-13  349.44879     -5.1497437e-13
    433750   5325.5978      392.15595      4933.4419      289.14328      3206.5252      0.40101743     18421.214      347.18089     -4.3577412     -1.473673e-13  -1.0745031e-13  347.18089     -5.0963521e-13
    434000   5337.3035      396.38576      4940.9177      292.262        3998.3994      0.40101743     18421.214      356.19029     -4.3577412     -1.4761589e-13 -1.0723955e-13  356.19029     -5.0971089e-13
    434250   5334.2684      408.89982      4925.3686      301.48882      3339.0157      0.40101743     18421.214      343.53267     -4.3577412     -1.4719548e-13 -1.074151e-13   343.53267     -5.0922116e-13
    434500   5329.3435      402.09728      4927.2463      296.4732       3525.1354      0.40101743     18421.214      353.77147     -4.3577412     -1.4829817e-13 -1.073808e-13   353.77147     -5.1135795e-13
    434750   5322.1549      403.15349      4919.0014      297.25196      4561.544       0.40101743     18421.214      363.28303     -4.3577412     -1.472161e-13  -1.0767263e-13  363.28303     -5.0977745e-13
    435000   5374.1805      433.37006      4940.8104      319.53115      2989.0213      0.40101743     18421.214      332.11482     -4.3577412     -1.488118e-13  -1.0732984e-13  332.11482     -5.1228327e-13
    435250   5383.1679      434.67701      4948.4909      320.49479      4956.8855      0.40101743     18421.214      367.58955     -4.3577412     -1.4918449e-13 -1.0728095e-13  367.58955     -5.1293088e-13
    435500   5352.5329      414.6614       4937.8715      305.73693      3586.4362      0.40101743     18421.214      345.67473     -4.3577412     -1.4755306e-13 -1.071833e-13   345.67473     -5.0947271e-13
    435750   5356.7826      421.31088      4935.4717      310.63971      2958.7939      0.40101743     18421.214      348.61646     -4.3577412     -1.4981857e-13 -1.0726317e-13  348.61646     -5.1416348e-13
    436000   5323.1536      420.02463      4903.129       309.69134      4119.5351      0.40101743     18421.214      349.92656     -4.3577412     -1.4873251e-13 -1.0714958e-13  349.92656     -5.117642e-13 
    436250   5328.4714      411.16617      4917.3052      303.15985      3268.3496      0.40101743     18421.214      355.63442     -4.3577412     -1.5003084e-13 -1.0706126e-13  355.63442     -5.1418421e-13
    436500   5327.9839      400.56304      4927.4208      295.34198      2518.5549      0.40101743     18421.214      352.40082     -4.3577412     -1.4864632e-13 -1.0706958e-13  352.40082     -5.114318e-13 
    436750   5367.6317      411.14399      4956.4877      303.14349      5215.7632      0.40101743     18421.214      363.02322     -4.3577412     -1.5021549e-13 -1.0716626e-13  363.02322     -5.147635e-13 
    437000   5353.3599      400.38435      4952.9756      295.21023      2603.2435      0.40101743     18421.214      346.26315     -4.3577412     -1.4843049e-13 -1.0714185e-13  346.26315     -5.1114468e-13
    437250   5324.5951      407.98963      4916.6055      300.81773      4407.272       0.40101743     18421.214      360.43412     -4.3577412     -1.493409e-13  -1.0738246e-13  360.43412     -5.1344673e-13
    437500   5360.4349      395.46154      4964.9733      291.58055      4246.1311      0.40101743     18421.214      357.9924      -4.3577412     -1.4814782e-13 -1.0740042e-13  357.9924      -5.1109646e-13
    437750   5319.9484      399.10393      4920.8444      294.26615      3911.7784      0.40101743     18421.214      350.38614     -4.3577412     -1.4988674e-13 -1.0749669e-13  350.38614     -5.1476686e-13
    438000   5312.9629      407.44605      4905.5169      300.41694      2661.0272      0.40101743     18421.214      341.69166     -4.3577412     -1.4836915e-13 -1.0722327e-13  341.69166     -5.1118484e-13
    438250   5313.0282      394.14168      4918.8865      290.6074       3012.3235      0.40101743     18421.214      355.54169     -4.3577412     -1.4705292e-13 -1.0735889e-13  355.54169     -5.0882363e-13
    438500   5323.8689      395.08749      4928.7814      291.30476      3455.0973      0.40101743     18421.214      340.63438     -4.3577412     -1.4801232e-13 -1.0742954e-13  340.63438     -5.1088371e-13
    438750   5366.5057      430.63964      4935.866       317.51797      2883.5419      0.40101743     18421.214      358.44446     -4.3577412     -1.4575166e-13 -1.0718465e-13  358.44446     -5.0587263e-13
    439000   5357.767       435.95291      4921.8141      321.43553      2850.1664      0.40101743     18421.214      344.7272      -4.3577412     -1.4731483e-13 -1.0726176e-13  344.7272      -5.0915317e-13
    439250   5308.2517      379.89656      4928.3552      280.10422      4479.1771      0.40101743     18421.214      362.82646     -4.3577412     -1.474996e-13  -1.0754495e-13  362.82646     -5.1008909e-13
    439500   5334.7097      409.26226      4925.4474      301.75606      3904.0035      0.40101743     18421.214      353.94751     -4.3577412     -1.4581252e-13 -1.0746131e-13  353.94751     -5.0654767e-13
    439750   5339.2594      393.2223       4946.0371      289.92952      2531.8326      0.40101743     18421.214      354.9635      -4.3577412     -1.4873105e-13 -1.0758438e-13  354.9635      -5.1263087e-13
    440000   5371.4891      425.18429      4946.3048      313.49565      3810.6449      0.40101743     18421.214      355.20424     -4.3577412     -1.4835007e-13 -1.0757227e-13  355.20424     -5.1184468e-13
    440250   5367.8381      420.02211      4947.816       309.68948      2978.2027      0.40101743     18421.214      345.83941     -4.3577412     -1.4937741e-13 -1.0762241e-13  345.83941     -5.1399966e-13
    440500   5351.7206      426.03145      4925.6891      314.12027      3542.8056      0.40101743     18421.214      351.27767     -4.3577412     -1.4857709e-13 -1.0772388e-13  351.27767     -5.1260193e-13
    440750   5337.15        409.42334      4927.7266      301.87483      2625.6172      0.40101743     18421.214      338.06935     -4.3577412     -1.492832e-13  -1.0750246e-13  338.06935     -5.1357131e-13
    441000   5331.4093      405.60139      4925.8079      299.05684      3131.1187      0.40101743     18421.214      339.64663     -4.3577412     -1.4763594e-13 -1.0764641e-13  339.64663     -5.1056469e-13
    441250   5313.2591      399.1535       4914.1056      294.3027       3234.0287      0.40101743     18421.214      348.64495     -4.3577412     -1.4767006e-13 -1.0769957e-13  348.64495     -5.1073925e-13
    441500   5318.5694      379.02543      4939.5439      279.46193      2924.1365      0.40101743     18421.214      354.29136     -4.3577412     -1.4876004e-13 -1.0754268e-13  354.29136     -5.1260544e-13
    441750   5321.1381      398.22441      4922.9136      293.61767      1021.6049      0.40101743     18421.214      334.39516     -4.3577412     -1.5112766e-13 -1.0766195e-13  334.39516     -5.1757922e-13
    442000   5359.429       410.06069      4949.3683      302.34475      2656.9048      0.40101743     18421.214      351.90324     -4.3577412     -1.4828368e-13 -1.0746761e-13  351.90324     -5.1150259e-13
    442250   5347.9643      399.9109       4948.0534      294.86114      3387.4164      0.40101743     18421.214      345.6556      -4.3577412     -1.4991775e-13 -1.0760796e-13  345.6556      -5.1505143e-13
    442500   5303.5891      386.35929      4917.2298      284.86931      3450.1837      0.40101743     18421.214      343.37097     -4.3577412     -1.4925706e-13 -1.0755805e-13  343.37097     -5.1363022e-13
    442750   5334.5042      411.12771      4923.3765      303.13149      2905.2036      0.40101743     18421.214      348.5128      -4.3577412     -1.4862185e-13 -1.0763931e-13  348.5128      -5.1252232e-13
    443000   5328.8981      417.63063      4911.2675      307.92621      3624.182       0.40101743     18421.214      343.92435     -4.3577412     -1.4870359e-13 -1.0777888e-13  343.92435     -5.1296494e-13
    443250   5335.5831      384.78339      4950.7997      283.70737      3165.0303      0.40101743     18421.214      350.74768     -4.3577412     -1.4986565e-13 -1.0773856e-13  350.74768     -5.1520842e-13
    443500   5359.8376      405.76197      4954.0757      299.17524      3259.382       0.40101743     18421.214      362.02301     -4.3577412     -1.4936697e-13 -1.0762781e-13  362.02301     -5.1398956e-13
    443750   5353.4375      419.771        4933.6665      309.50433      3835.8709      0.40101743     18421.214      357.53114     -4.3577412     -1.489617e-13  -1.0757586e-13  357.53114     -5.1307513e-13
    444000   5324.2261      392.53835      4931.6877      289.42524      4477.9504      0.40101743     18421.214      359.18471     -4.3577412     -1.4838547e-13 -1.0752789e-13  359.18471     -5.1182672e-13
    444250   5308.7978      391.90293      4916.8948      288.95673      2717.5665      0.40101743     18421.214      360.56549     -4.3577412     -1.4799063e-13 -1.0755441e-13  360.56549     -5.1109007e-13
    444500   5338.58        406.49826      4932.0817      299.71811      2574.9984      0.40101743     18421.214      341.09107     -4.3577412     -1.4882527e-13 -1.0762165e-13  341.09107     -5.1289385e-13
    444750   5361.9779      407.58044      4954.3975      300.51603      3301.3655      0.40101743     18421.214      357.14427     -4.3577412     -1.4983743e-13 -1.0752477e-13  357.14427     -5.1472439e-13
    445000   5336.4252      391.79424      4944.631       288.87659      3175.3625      0.40101743     18421.214      354.04115     -4.3577412     -1.4929628e-13 -1.0735081e-13  354.04115     -5.1329418e-13
    445250   5371.7245      415.24625      4956.4783      306.16816      4056.2355      0.40101743     18421.214      359.63141     -4.3577412     -1.4916873e-13 -1.0772541e-13  359.63141     -5.1378829e-13
    445500   5340.869       390.2099       4950.6591      287.70843      3189.9         0.40101743     18421.214      339.64085     -4.3577412     -1.5054107e-13 -1.077333e-13   339.64085     -5.1654873e-13
    445750   5331.3973      385.81678      4945.5805      284.46931      2541.6774      0.40101743     18421.214      351.62583     -4.3577412     -1.4836205e-13 -1.0773937e-13  351.62583     -5.1220284e-13
    446000   5318.013       400.07314      4917.9398      294.98076      2984.3899      0.40101743     18421.214      344.71927     -4.3577412     -1.4895109e-13 -1.0753479e-13  344.71927     -5.1297177e-13
    446250   5330.6953      409.20666      4921.4886      301.71507      3606.9182      0.40101743     18421.214      358.15803     -4.3577412     -1.4987044e-13 -1.0767878e-13  358.15803     -5.1509845e-13
    446500   5390.0236      435.19515      4954.8284      320.87682      2256.6996      0.40101743     18421.214      347.30852     -4.3577412     -1.516403e-13  -1.0771425e-13  347.30852     -5.187091e-13 
    446750   5364.914       436.48007      4928.4339      321.82422      2961.1776      0.40101743     18421.214      343.10424     -4.3577412     -1.4907902e-13 -1.07553e-13    343.10424     -5.1326403e-13
    447000   5302.3167      363.37031      4938.9463      267.91914      3767.1197      0.40101743     18421.214      362.49828     -4.3577412     -1.4850215e-13 -1.0736698e-13  362.49828     -5.1173825e-13
    447250   5314.59        406.2264       4908.3636      299.51767      4519.0237      0.40101743     18421.214      360.05902     -4.3577412     -1.4962598e-13 -1.0738716e-13  360.05902     -5.1402628e-13
    447500   5344.841       408.56351      4936.2775      301.24086      2967.7972      0.40101743     18421.214      345.8564      -4.3577412     -1.4861222e-13 -1.0749919e-13  345.8564      -5.1222282e-13
    447750   5337.67        419.78749      4917.8825      309.51649      1917.5186      0.40101743     18421.214      347.15002     -4.3577412     -1.5110726e-13 -1.0768066e-13  347.15002     -5.1757583e-13
    448000   5307.017       406.52528      4900.4917      299.73804      3878.0975      0.40101743     18421.214      350.46365     -4.3577412     -1.4841888e-13 -1.0773886e-13  350.46365     -5.1231548e-13
    448250   5301.2503      370.38327      4930.867       273.08991      3354.383       0.40101743     18421.214      351.79715     -4.3577412     -1.4929018e-13 -1.0777515e-13  351.79715     -5.1413067e-13
    448500   5312.3174      393.38947      4918.9279      290.05278      3129.1654      0.40101743     18421.214      347.34804     -4.3577412     -1.4994897e-13 -1.0775395e-13  347.34804     -5.1540584e-13
    448750   5306.2447      402.94966      4903.295       297.10167      4865.1442      0.40101743     18421.214      358.36407     -4.3577412     -1.4922554e-13 -1.075858e-13   358.36407     -5.1362269e-13
    449000   5342.0155      419.64056      4922.375       309.40815      4053.6278      0.40101743     18421.214      350.83772     -4.3577412     -1.5003845e-13 -1.0755225e-13  350.83772     -5.1518139e-13
    449250   5333.3231      400.70846      4932.6147      295.4492       2564.5609      0.40101743     18421.214      343.6834      -4.3577412     -1.4956721e-13 -1.0763476e-13  343.6834      -5.1440393e-13
    449500   5320.1689      393.95833      4926.2106      290.47221      2906.9738      0.40101743     18421.214      340.28694     -4.3577412     -1.5014424e-13 -1.0757392e-13  340.28694     -5.1543633e-13
    449750   5330.5075      418.68377      4911.8237      308.7027       3922.5554      0.40101743     18421.214      345.43573     -4.3577412     -1.4904952e-13 -1.0754128e-13  345.43573     -5.1318159e-13
    450000   5371.4067      415.58973      4955.8169      306.42141      4487.6632      0.40101743     18421.214      358.50919     -4.3577412     -1.4849978e-13 -1.0780192e-13  358.50919     -5.126034e-13 
    450250   5317.7862      395.36635      4922.4199      291.51037      3328.885       0.40101743     18421.214      347.94865     -4.3577412     -1.4956951e-13 -1.0778084e-13  347.94865     -5.147007e-13 
    450500   5327.8937      430.52454      4897.3692      317.4331       4133.9308      0.40101743     18421.214      346.68168     -4.3577412     -1.5015101e-13 -1.076184e-13   346.68168     -5.1553882e-13
    450750   5331.6764      400.85137      4930.8251      295.55456      3141.0919      0.40101743     18421.214      349.57982     -4.3577412     -1.5000761e-13 -1.0754918e-13  349.57982     -5.1511358e-13
    451000   5344.6444      424.38062      4920.2638      312.90308      4422.4611      0.40101743     18421.214      351.5168      -4.3577412     -1.4828925e-13 -1.0762006e-13  351.5168      -5.1181861e-13
    451250   5343.8044      400.31119      4943.4932      295.15628      2907.0869      0.40101743     18421.214      349.81874     -4.3577412     -1.4688007e-13 -1.0775584e-13  349.81874     -5.0927184e-13
    451500   5377.6865      412.42069      4965.2658      304.08483      4863.6128      0.40101743     18421.214      354.08136     -4.3577412     -1.491527e-13  -1.0766268e-13  354.08136     -5.1363076e-13
    451750   5320.6476      394.16035      4926.4873      290.62116      3802.9659      0.40101743     18421.214      357.65757     -4.3577412     -1.4882878e-13 -1.0734573e-13  357.65757     -5.1234902e-13
    452000   5292.0579      375.44713      4916.6108      276.82359      2853.9537      0.40101743     18421.214      347.47755     -4.3577412     -1.4974421e-13 -1.0739008e-13  347.47755     -5.1426858e-13
    452250   5298.3569      402.55573      4895.8012      296.81122      2976.0059      0.40101743     18421.214      353.7849      -4.3577412     -1.481705e-13  -1.074257e-13   353.7849      -5.111924e-13 
    452500   5339.6132      397.75128      4941.8619      293.26881      3932.4         0.40101743     18421.214      365.82279     -4.3577412     -1.4825982e-13 -1.0749592e-13  365.82279     -5.1151148e-13
    452750   5357.7869      414.80532      4942.9815      305.84305      2851.4572      0.40101743     18421.214      341.27226     -4.3577412     -1.5004573e-13 -1.0742455e-13  341.27226     -5.1494057e-13
    453000   5367.8451      417.01757      4950.8275      307.47418      3029.321       0.40101743     18421.214      349.27318     -4.3577412     -1.4759855e-13 -1.0743331e-13  349.27318     -5.1006374e-13
    453250   5371.56        428.48808      4943.0719      315.93158      3462.4906      0.40101743     18421.214      355.02569     -4.3577412     -1.5040607e-13 -1.0753777e-13  355.02569     -5.1588769e-13
    453500   5363.8565      415.8494       4948.0071      306.61287      4170.6983      0.40101743     18421.214      347.36225     -4.3577412     -1.5068769e-13 -1.0727517e-13  347.36225     -5.1592572e-13
    453750   5341.7979      414.22555      4927.5724      305.41558      2765.763       0.40101743     18421.214      344.1788      -4.3577412     -1.4997327e-13 -1.0751956e-13  344.1788      -5.1498565e-13
    454000   5326.8519      404.34136      4922.5105      298.1278       2346.6164      0.40101743     18421.214      345.34919     -4.3577412     -1.4885897e-13 -1.0743194e-13  345.34919     -5.1258181e-13
    454250   5394.7491      438.74162      4956.0075      323.4917       3637.9874      0.40101743     18421.214      352.55133     -4.3577412     -1.5050016e-13 -1.0736861e-13  352.55133     -5.1573754e-13
    454500   5342.0703      420.02242      4922.0478      309.68971      4848.1328      0.40101743     18421.214      368.01884     -4.3577412     -1.4868031e-13 -1.073941e-13   368.01884     -5.1214882e-13
    454750   5366.3863      455.43382      4910.9525      335.79914      3101.5805      0.40101743     18421.214      338.53819     -4.3577412     -1.5055529e-13 -1.0728006e-13  338.53819     -5.156707e-13 
    455000   5334.2087      392.50525      4941.7034      289.40083      4238.6835      0.40101743     18421.214      352.58218     -4.3577412     -1.475302e-13  -1.0738875e-13  352.58218     -5.098379e-13 
    455250   5370.5371      418.07343      4952.4637      308.25269      2289.5995      0.40101743     18421.214      341.55449     -4.3577412     -1.4902692e-13 -1.0727227e-13  341.55449     -5.1259838e-13
    455500   5351.1311      424.54958      4926.5815      313.02766      2851.0629      0.40101743     18421.214      359.24847     -4.3577412     -1.4694765e-13 -1.0745062e-13  359.24847     -5.0879652e-13
    455750   5331.9043      425.14149      4906.7628      313.46408      3558.9243      0.40101743     18421.214      358.39261     -4.3577412     -1.481144e-13  -1.075768e-13   358.39261     -5.1138239e-13
    456000   5325.1342      417.84725      4907.287       308.08592      4830.9038      0.40101743     18421.214      360.98616     -4.3577412     -1.4773209e-13 -1.0754361e-13  360.98616     -5.1055139e-13
    456250   5305.8314      371.50727      4934.3241      273.91866      3676.3179      0.40101743     18421.214      357.82019     -4.3577412     -1.4964363e-13 -1.0741566e-13  357.82019     -5.1411859e-13
    456500   5324.8624      412.13572      4912.7267      303.87471      3245.4509      0.40101743     18421.214      352.93663     -4.3577412     -1.4765371e-13 -1.075415e-13   352.93663     -5.1039042e-13
    456750   5328.9075      421.91748      4906.99        311.08697      2999.7765      0.40101743     18421.214      345.91982     -4.3577412     -1.4910105e-13 -1.0745565e-13  345.91982     -5.131134e-13 
    457000   5340.7271      425.31362      4915.4134      313.591        3977.4928      0.40101743     18421.214      344.14363     -4.3577412     -1.4823573e-13 -1.0754236e-13  344.14363     -5.1155618e-13
    457250   5358.9886      410.50166      4948.4869      302.66989      3309.5695      0.40101743     18421.214      349.76507     -4.3577412     -1.4688066e-13 -1.0743891e-13  349.76507     -5.0863915e-13
    457500   5321.2854      406.79013      4914.4953      299.93332      2740.13        0.40101743     18421.214      338.88758     -4.3577412     -1.4858143e-13 -1.0755609e-13  338.88758     -5.1227504e-13
    457750   5311.181       393.96851      4917.2125      290.47972      4596.7299      0.40101743     18421.214      346.80793     -4.3577412     -1.4952672e-13 -1.0755528e-13  346.80793     -5.14164e-13  
    458000   5373.4629      455.2457       4918.2172      335.66044      4452.8255      0.40101743     18421.214      344.99503     -4.3577412     -1.4727996e-13 -1.0739404e-13  344.99503     -5.09348e-13  
    458250   5347.2483      419.34551      4927.9028      309.19061      3576.031       0.40101743     18421.214      354.19233     -4.3577412     -1.4787285e-13 -1.0730969e-13  354.19233     -5.1036508e-13
    458500   5301.6818      382.36202      4919.3197      281.92206      3834.5674      0.40101743     18421.214      355.80705     -4.3577412     -1.488431e-13  -1.0702094e-13  355.80705     -5.1172809e-13
    458750   5342.5851      424.98584      4917.5992      313.34932      1932.2543      0.40101743     18421.214      334.49429     -4.3577412     -1.4783909e-13 -1.0718954e-13  334.49429     -5.1005727e-13
    459000   5352.5211      401.4467       4951.0744      295.99352      3141.8555      0.40101743     18421.214      342.98459     -4.3577412     -1.4723761e-13 -1.069851e-13   342.98459     -5.0844542e-13
    459250   5348.0326      418.268        4929.7646      308.39614      3357.0926      0.40101743     18421.214      354.9344      -4.3577412     -1.4767166e-13 -1.0737049e-13  354.9344      -5.100843e-13 
    459500   5350.5207      411.63946      4938.8813      303.50881      4006.7407      0.40101743     18421.214      362.38843     -4.3577412     -1.4805454e-13 -1.0743823e-13  362.38843     -5.1098554e-13
    459750   5341.371       413.88061      4927.4904      305.16125      2733.1842      0.40101743     18421.214      346.43629     -4.3577412     -1.485228e-13  -1.0760933e-13  346.43629     -5.1226427e-13
    460000   5337.126       412.31424      4924.8117      304.00634      3278.4247      0.40101743     18421.214      354.98485     -4.3577412     -1.4831006e-13 -1.0778406e-13  354.98485     -5.1218825e-13
    460250   5346.3853      416.44903      4929.9363      307.05499      3615.574       0.40101743     18421.214      351.37177     -4.3577412     -1.4927323e-13 -1.0770027e-13  351.37177     -5.13947e-13  
    460500   5377.4714      442.08546      4935.386       325.95717      3501.5539      0.40101743     18421.214      348.63242     -4.3577412     -1.4980783e-13 -1.0761025e-13  348.63242     -5.1483616e-13
    460750   5293.6617      381.9355       4911.7262      281.60757      3733.5256      0.40101743     18421.214      345.76247     -4.3577412     -1.4839075e-13 -1.075505e-13   345.76247     -5.118825e-13 
    461000   5317.0786      401.90573      4915.1729      296.33197      2459.1775      0.40101743     18421.214      350.84222     -4.3577412     -1.4896228e-13 -1.0762497e-13  350.84222     -5.131745e-13 
    461250   5326.3465      382.05257      4944.2939      281.69389      4521.3474      0.40101743     18421.214      357.67118     -4.3577412     -1.4884912e-13 -1.0740787e-13  357.67118     -5.1251399e-13
    461500   5322.9811      393.75638      4929.2247      290.32331      2993.5325      0.40101743     18421.214      343.41615     -4.3577412     -1.4925028e-13 -1.0740519e-13  343.41615     -5.1331094e-13
    461750   5367.6438      411.37795      4956.2659      303.316        3899.2105      0.40101743     18421.214      363.05171     -4.3577412     -1.510689e-13  -1.0755557e-13  363.05171     -5.1724893e-13
    462000   5325.1691      407.99784      4917.1713      300.82378      2386.4443      0.40101743     18421.214      342.82775     -4.3577412     -1.4905752e-13 -1.0752605e-13  342.82775     -5.1316714e-13
    462250   5359.2681      433.60125      4925.6668      319.70161      4578.6671      0.40101743     18421.214      351.95815     -4.3577412     -1.4667958e-13 -1.0725638e-13  351.95815     -5.0787192e-13
    462500   5336.0622      397.55154      4938.5106      293.12154      3669.1622      0.40101743     18421.214      347.51615     -4.3577412     -1.4904761e-13 -1.0714482e-13  347.51615     -5.1238485e-13
    462750   5329.9628      424.24841      4905.7144      312.80561      5119.2629      0.40101743     18421.214      354.83471     -4.3577412     -1.4870091e-13 -1.0719532e-13  354.83471     -5.1179246e-13
    463000   5331.0527      400.57964      4930.4731      295.35422      4263.6348      0.40101743     18421.214      345.85037     -4.3577412     -1.4799533e-13 -1.0736333e-13  345.85037     -5.1071732e-13
    463250   5369.7837      455.98039      4913.8033      336.20214      3168.7327      0.40101743     18421.214      353.78701     -4.3577412     -1.4773581e-13 -1.0732683e-13  353.78701     -5.1012529e-13
    463500   5327.4637      415.44956      4912.0141      306.31806      3783.2398      0.40101743     18421.214      341.48951     -4.3577412     -1.4991497e-13 -1.0745957e-13  341.48951     -5.1474906e-13
    463750   5329.018       423.13619      4905.8818      311.98555      3221.8946      0.40101743     18421.214      353.00129     -4.3577412     -1.4923504e-13 -1.0731486e-13  353.00129     -5.130998e-13 
    464000   5401.0496      448.18008      4952.8696      330.45083      4086.5284      0.40101743     18421.214      349.69115     -4.3577412     -1.4829093e-13 -1.0726703e-13  349.69115     -5.1111593e-13
    464250   5347.4223      398.90434      4948.518       294.11899      3669.7158      0.40101743     18421.214      339.79521     -4.3577412     -1.4868098e-13 -1.0725688e-13  339.79521     -5.1187571e-13
    464500   5319.0035      397.45538      4921.5481      293.05065      3202.968       0.40101743     18421.214      345.62144     -4.3577412     -1.4909462e-13 -1.0727146e-13  345.62144     -5.1273216e-13
    464750   5368.1036      414.86801      4953.2355      305.88928      4052.5595      0.40101743     18421.214      352.95573     -4.3577412     -1.4909102e-13 -1.0743996e-13  352.95573     -5.1306196e-13
    465000   5345.0113      411.28529      4933.7261      303.24767      3893.0974      0.40101743     18421.214      351.43405     -4.3577412     -1.4999619e-13 -1.0771166e-13  351.43405     -5.1541569e-13
    465250   5353.9094      411.50589      4942.4035      303.41033      4194.7718      0.40101743     18421.214      352.64948     -4.3577412     -1.4855206e-13 -1.0749497e-13  352.64948     -5.1209405e-13
    465500   5342.9618      379.25024      4963.7116      279.62769      4354.1851      0.40101743     18421.214      359.75714     -4.3577412     -1.4859296e-13 -1.0733457e-13  359.75714     -5.1185505e-13
    465750   5319.4844      399.43658      4920.0478      294.51142      2127.2804      0.40101743     18421.214      340.92012     -4.3577412     -1.4972565e-13 -1.0740496e-13  340.92012     -5.1426122e-13
    466000   5304.6439      401.01759      4903.6263      295.67712      3647.2138      0.40101743     18421.214      347.30012     -4.3577412     -1.4864133e-13 -1.0767969e-13  347.30012     -5.1264206e-13
    466250   5343.9412      412.82431      4931.1168      304.38242      3775.9254      0.40101743     18421.214      354.46932     -4.3577412     -1.501614e-13  -1.076616e-13   354.46932     -5.1564601e-13
    466500   5353.1772      429.44491      4923.7323      316.63707      3622.0158      0.40101743     18421.214      354.16687     -4.3577412     -1.4906756e-13 -1.0756756e-13  354.16687     -5.1327025e-13
    466750   5308.6524      392.36092      4916.2915      289.29441      4207.1333      0.40101743     18421.214      359.14383     -4.3577412     -1.5033794e-13 -1.0737809e-13  359.14383     -5.1543206e-13
    467000   5395.5951      435.11098      4960.4841      320.81476      4463.7103      0.40101743     18421.214      352.94685     -4.3577412     -1.5117995e-13 -1.0738105e-13  352.94685     -5.1712199e-13
    467250   5323.1803      395.08809      4928.0922      291.3052       2417.4202      0.40101743     18421.214      342.64308     -4.3577412     -1.4923731e-13 -1.0708996e-13  342.64308     -5.1265455e-13
    467500   5323.7239      383.88495      4939.8389      283.04494      2413.3         0.40101743     18421.214      351.24774     -4.3577412     -1.489556e-13  -1.0709554e-13  351.24774     -5.1210229e-13
    467750   5325.4985      400.13416      4925.3643      295.02575      3981.8857      0.40101743     18421.214      355.40876     -4.3577412     -1.4929757e-13 -1.0711466e-13  355.40876     -5.1282446e-13
    468000   5344.6374      406.54245      4938.0949      299.75069      3144.9335      0.40101743     18421.214      339.0425      -4.3577412     -1.4798674e-13 -1.0675345e-13  339.0425      -5.0948038e-13
    468250   5330.3039      408.27118      4922.0328      301.02532      2545.6398      0.40101743     18421.214      344.88421     -4.3577412     -1.4872213e-13 -1.0714529e-13  344.88421     -5.1173483e-13
    468500   5350.0358      394.76942      4955.2664      291.07024      4114.8528      0.40101743     18421.214      358.4003      -4.3577412     -1.5027756e-13 -1.0708354e-13  358.4003      -5.1472219e-13
    468750   5380.7638      413.68457      4967.0792      305.0167       2546.6727      0.40101743     18421.214      343.19088     -4.3577412     -1.5028535e-13 -1.0688606e-13  343.19088     -5.1434282e-13
    469000   5336.6663      427.38305      4909.2832      315.11683      3079.8856      0.40101743     18421.214      339.99788     -4.3577412     -1.4871839e-13 -1.0712082e-13  339.99788     -5.1167843e-13
    469250   5332.6119      427.04574      4905.5661      314.86812      2633.5535      0.40101743     18421.214      356.32419     -4.3577412     -1.4763478e-13 -1.0724643e-13  356.32419     -5.0976241e-13
    469500   5317.0322      385.13729      4931.8949      283.96831      2632.7209      0.40101743     18421.214      350.99161     -4.3577412     -1.4846552e-13 -1.0717105e-13  350.99161     -5.1127314e-13
    469750   5365.6528      421.42575      4944.227       310.72441      2226.496       0.40101743     18421.214      350.36477     -4.3577412     -1.4828476e-13 -1.0725274e-13  350.36477     -5.11075e-13  
    470000   5379.6317      436.9177       4942.714       322.14689      3082.4851      0.40101743     18421.214      341.79225     -4.3577412     -1.502343e-13  -1.0744043e-13  341.79225     -5.1534946e-13
    470250   5325.8933      410.42814      4915.4652      302.61568      3724.5917      0.40101743     18421.214      365.38453     -4.3577412     -1.4829678e-13 -1.0743256e-13  365.38453     -5.1145868e-13
    470500   5331.5593      407.80231      4923.757       300.67961      3267.144       0.40101743     18421.214      353.78612     -4.3577412     -1.4987439e-13 -1.0750308e-13  353.78612     -5.1475494e-13
    470750   5349.0326      404.60703      4944.4255      298.32368      2701.7367      0.40101743     18421.214      345.16015     -4.3577412     -1.4953899e-13 -1.0760992e-13  345.16015     -5.1429781e-13
    471000   5358.5619      405.48314      4953.0787      298.96965      3501.8796      0.40101743     18421.214      355.75186     -4.3577412     -1.5032366e-13 -1.0766743e-13  355.75186     -5.1598216e-13
    471250   5367.3588      413.21843      4954.1404      304.67301      3509.6389      0.40101743     18421.214      356.54432     -4.3577412     -1.4878051e-13 -1.0767203e-13  356.54432     -5.1290509e-13
    471500   5359.6374      402.51131      4957.1261      296.77847      3670.6075      0.40101743     18421.214      344.71589     -4.3577412     -1.509283e-13  -1.0768042e-13  344.71589     -5.1721744e-13
    471750   5341.3077      423.74132      4917.5664      312.43172      4085.9098      0.40101743     18421.214      351.81982     -4.3577412     -1.4934848e-13 -1.0784309e-13  351.81982     -5.1438313e-13
    472000   5348.8521      405.21903      4943.6331      298.77492      4293.7183      0.40101743     18421.214      360.54533     -4.3577412     -1.5012511e-13 -1.0776533e-13  360.54533     -5.1578088e-13
    472250   5329.5513      398.81723      4930.7341      294.05476      4219.3119      0.40101743     18421.214      348.90119     -4.3577412     -1.4878302e-13 -1.0775674e-13  348.90119     -5.1307951e-13
    472500   5319.9985      397.1895       4922.809       292.8546       4051.4603      0.40101743     18421.214      353.91953     -4.3577412     -1.5060813e-13 -1.0769154e-13  353.91953     -5.1659934e-13
    472750   5361.9155      420.65514      4941.2604      310.15622      4201.2612      0.40101743     18421.214      362.21364     -4.3577412     -1.4876215e-13 -1.0762514e-13  362.21364     -5.1277457e-13
    473000   5334.3087      400.38808      4933.9206      295.21297      2715.3252      0.40101743     18421.214      351.05073     -4.3577412     -1.4894953e-13 -1.0734362e-13  351.05073     -5.1258631e-13
    473250   5359.8652      431.20336      4928.6618      317.93361      3152.5727      0.40101743     18421.214      342.59632     -4.3577412     -1.4882649e-13 -1.0750047e-13  342.59632     -5.1265393e-13
    473500   5351.35        418.94771      4932.4023      308.89731      2889.8247      0.40101743     18421.214      346.84551     -4.3577412     -1.4978055e-13 -1.0753136e-13  346.84551     -5.1462382e-13
    473750   5325.5217      388.87483      4936.6469      286.72406      3382.448       0.40101743     18421.214      347.03876     -4.3577412     -1.5069641e-13 -1.0749105e-13  347.03876     -5.1637494e-13
    474000   5331.2652      422.66714      4908.5981      311.6397       2864.9898      0.40101743     18421.214      346.98126     -4.3577412     -1.492151e-13  -1.076233e-13   346.98126     -5.136768e-13 
    474250   5326.6024      406.53072      4920.0716      299.74205      3546.4167      0.40101743     18421.214      353.06566     -4.3577412     -1.4858536e-13 -1.0747033e-13  353.06566     -5.1211138e-13
    474500   5384.0867      431.45248      4952.6342      318.11728      2622.5327      0.40101743     18421.214      341.41085     -4.3577412     -1.4924504e-13 -1.0768762e-13  341.41085     -5.1386531e-13
    474750   5347.7017      390.97081      4956.7309      288.26946      3925.3126      0.40101743     18421.214      354.14647     -4.3577412     -1.485623e-13  -1.0775329e-13  354.14647     -5.1263117e-13
    475000   5343.8275      389.61847      4954.209       287.27236      3274.0673      0.40101743     18421.214      349.53449     -4.3577412     -1.4854059e-13 -1.0752753e-13  349.53449     -5.1213623e-13
    475250   5354.4313      422.41788      4932.0134      311.45592      2350.1828      0.40101743     18421.214      331.91548     -4.3577412     -1.5056835e-13 -1.0767884e-13  331.91548     -5.1649437e-13
    475500   5327.3216      409.72689      4917.5947      302.09864      2983.904       0.40101743     18421.214      346.03216     -4.3577412     -1.5062544e-13 -1.0757086e-13  346.03216     -5.163926e-13 
    475750   5352.8927      412.52135      4940.3713      304.15905      3875.0751      0.40101743     18421.214      350.56966     -4.3577412     -1.48995e-13   -1.0758348e-13  350.56966     -5.1315696e-13
    476000   5364.5362      420.70654      4943.8297      310.19413      2906.3738      0.40101743     18421.214      349.74671     -4.3577412     -1.488042e-13  -1.0755637e-13  349.74671     -5.1272114e-13
    476250   5370.8779      415.46075      4955.4171      306.32631      4686.3924      0.40101743     18421.214      355.69915     -4.3577412     -1.5021595e-13 -1.0755547e-13  355.69915     -5.1554286e-13
    476500   5362.4018      432.88084      4929.5209      319.17044      3495.2003      0.40101743     18421.214      345.79184     -4.3577412     -1.4984793e-13 -1.0753222e-13  345.79184     -5.147603e-13 
    476750   5370.0752      429.89828      4940.1769      316.97135      3847.4547      0.40101743     18421.214      350.71261     -4.3577412     -1.4829951e-13 -1.076062e-13   350.71261     -5.1181142e-13
    477000   5354.2706      420.10398      4934.1666      309.74985      3493.9975      0.40101743     18421.214      358.54251     -4.3577412     -1.4936058e-13 -1.0768927e-13  358.54251     -5.140997e-13 
    477250   5364.1957      420.09802      4944.0977      309.74545      4233.2138      0.40101743     18421.214      355.46839     -4.3577412     -1.5059252e-13 -1.0748207e-13  355.46839     -5.1614918e-13
    477500   5330.4833      396.49939      4933.9839      292.34578      3085.9218      0.40101743     18421.214      349.99382     -4.3577412     -1.4940552e-13 -1.0740349e-13  349.99382     -5.1361801e-13
    477750   5311.8697      403.1853       4908.6844      297.27541      4005.5119      0.40101743     18421.214      355.35313     -4.3577412     -1.4871172e-13 -1.0726648e-13  355.35313     -5.119564e-13 
    478000   5356.6411      384.45651      4972.1845      283.46636      2068.1643      0.40101743     18421.214      344.6425      -4.3577412     -1.4904732e-13 -1.0710935e-13  344.6425      -5.1231333e-13
    478250   5328.5026      408.10179      4920.4008      300.90042      4239.6294      0.40101743     18421.214      357.68908     -4.3577412     -1.4959799e-13 -1.0704873e-13  357.68908     -5.1329344e-13
    478500   5338.2249      407.68204      4930.5429      300.59094      3979.3678      0.40101743     18421.214      342.62045     -4.3577412     -1.4882239e-13 -1.0708363e-13  342.62045     -5.1181205e-13
    478750   5359.3608      417.44093      4941.9199      307.78633      4479.5297      0.40101743     18421.214      354.01705     -4.3577412     -1.4853671e-13 -1.0733347e-13  354.01705     -5.1174036e-13
    479000   5359.7862      419.91657      4939.8696      309.61167      3356.0336      0.40101743     18421.214      358.99888     -4.3577412     -1.4847736e-13 -1.0745075e-13  358.99888     -5.1185623e-13
    479250   5299.3816      381.08835      4918.2933      280.98295      2991.0095      0.40101743     18421.214      352.6422      -4.3577412     -1.503774e-13  -1.0750056e-13  352.6422      -5.1575591e-13
    479500   5318.2226      404.34587      4913.8767      298.13112      3565.8232      0.40101743     18421.214      346.98424     -4.3577412     -1.5001423e-13 -1.0762717e-13  346.98424     -5.152828e-13 
    479750   5330.1801      381.85199      4948.3281      281.546        1316.5669      0.40101743     18421.214      338.67027     -4.3577412     -1.5035812e-13 -1.0761148e-13  338.67027     -5.1593919e-13
    480000   5359.6451      429.22429      4930.4208      316.47441      2848.6833      0.40101743     18421.214      344.37686     -4.3577412     -1.5030126e-13 -1.0755583e-13  344.37686     -5.1571417e-13
    480250   5370.3838      399.30597      4971.0778      294.41511      4234.7053      0.40101743     18421.214      370.27419     -4.3577412     -1.4909938e-13 -1.0743179e-13  370.27419     -5.1306235e-13
    480500   5365.9844      426.66618      4939.3182      314.58827      4214.9369      0.40101743     18421.214      358.23839     -4.3577412     -1.486969e-13  -1.0739402e-13  358.23839     -5.1218184e-13
    480750   5347.354       396.24253      4951.1115      292.15639      2329.1795      0.40101743     18421.214      354.397       -4.3577412     -1.486932e-13  -1.0745038e-13  354.397       -5.1228716e-13
    481000   5297.0921      393.35034      4903.7417      290.02393      3986.3798      0.40101743     18421.214      352.78384     -4.3577412     -1.4822671e-13 -1.0747003e-13  352.78384     -5.1139348e-13
    481250   5358.3057      418.7544       4939.5513      308.75478      1980.3893      0.40101743     18421.214      346.65707     -4.3577412     -1.4886879e-13 -1.0749478e-13  346.65707     -5.1272714e-13
    481500   5374.5951      420.60868      4953.9865      310.12197      4599.8166      0.40101743     18421.214      361.17298     -4.3577412     -1.4877966e-13 -1.0739696e-13  361.17298     -5.1235325e-13
    481750   5365.487       422.22738      4943.2596      311.31547      3833.7218      0.40101743     18421.214      354.29348     -4.3577412     -1.4992029e-13 -1.0731982e-13  354.29348     -5.1448023e-13
    482000   5363.383       429.82837      4933.5546      316.9198       4259.9897      0.40101743     18421.214      363.81155     -4.3577412     -1.5011737e-13 -1.0753452e-13  363.81155     -5.1530378e-13
    482250   5317.7227      386.31825      4931.4045      284.83905      2858.1773      0.40101743     18421.214      355.08222     -4.3577412     -1.4920394e-13 -1.0764451e-13  355.08222     -5.1369689e-13
    482500   5331.0389      407.90956      4923.1294      300.75869      3155.967       0.40101743     18421.214      351.41061     -4.3577412     -1.4910771e-13 -1.0758628e-13  351.41061     -5.1338797e-13
    482750   5340.5354      410.2047       4930.3307      302.45094      3472.6983      0.40101743     18421.214      346.53068     -4.3577412     -1.5024937e-13 -1.0750229e-13  346.53068     -5.1550333e-13
    483000   5377.9656      442.55185      4935.4137      326.30104      4351.2799      0.40101743     18421.214      367.34671     -4.3577412     -1.4979635e-13 -1.0749279e-13  367.34671     -5.1457829e-13
    483250   5346.277       411.49762      4934.7794      303.40423      3704.7513      0.40101743     18421.214      354.02659     -4.3577412     -1.4986133e-13 -1.0744624e-13  354.02659     -5.1461514e-13
    483500   5339.2374      393.15357      4946.0838      289.87885      3669.1447      0.40101743     18421.214      356.22194     -4.3577412     -1.4807863e-13 -1.0728039e-13  356.22194     -5.1071804e-13
    483750   5333.9861      401.25495      4932.7311      295.85213      2800.0623      0.40101743     18421.214      346.19908     -4.3577412     -1.4915536e-13 -1.0727717e-13  346.19908     -5.1286506e-13
    484000   5364.0453      414.5894       4949.4559      305.68385      4860.5826      0.40101743     18421.214      356.06967     -4.3577412     -1.4917753e-13 -1.0725585e-13  356.06967     -5.1286676e-13
    484250   5321.6859      411.76491      4909.921       303.6013       3208.7669      0.40101743     18421.214      344.48142     -4.3577412     -1.4921529e-13 -1.073157e-13   344.48142     -5.1306199e-13
    484500   5347.2826      406.65746      4940.6252      299.8355       3592.4858      0.40101743     18421.214      344.62606     -4.3577412     -1.4948805e-13 -1.0745688e-13  344.62606     -5.1388988e-13
    484750   5324.987       400.89878      4924.0882      295.58952      3527.6364      0.40101743     18421.214      355.70572     -4.3577412     -1.4877548e-13 -1.0749239e-13  355.70572     -5.1253573e-13
    485000   5358.1702      428.14296      4930.0273      315.67712      2416.3568      0.40101743     18421.214      333.21204     -4.3577412     -1.4973832e-13 -1.0765937e-13  333.21204     -5.1479537e-13
    485250   5357.7087      400.65553      4957.0532      295.41017      3221.9015      0.40101743     18421.214      354.69471     -4.3577412     -1.4762898e-13 -1.0769436e-13  354.69471     -5.1064668e-13
    485500   5357.9371      398.00963      4959.9275      293.45931      4220.4481      0.40101743     18421.214      356.10686     -4.3577412     -1.4731665e-13 -1.0773644e-13  356.10686     -5.1010617e-13
    485750   5328.2833      413.25148      4915.0318      304.69738      3081.3495      0.40101743     18421.214      352.99885     -4.3577412     -1.4971827e-13 -1.0783106e-13  352.99885     -5.1509866e-13
    486000   5351.2099      422.1395       4929.0704      311.25067      4274.3919      0.40101743     18421.214      361.10112     -4.3577412     -1.4844427e-13 -1.0769639e-13  361.10112     -5.1228132e-13
    486250   5327.7685      406.57248      4921.196       299.77284      2440.5245      0.40101743     18421.214      350.04412     -4.3577412     -1.4900805e-13 -1.0764786e-13  350.04412     -5.1331182e-13
    486500   5318.76        410.9918       4907.7681      303.03128      3832.8964      0.40101743     18421.214      346.56656     -4.3577412     -1.5122449e-13 -1.0767079e-13  346.56656     -5.1779055e-13
    486750   5353.2302      424.11971      4929.1105      312.71071      3451.1311      0.40101743     18421.214      356.64763     -4.3577412     -1.4974533e-13 -1.0757912e-13  356.64763     -5.1464889e-13
    487000   5372.8907      427.95495      4944.9357      315.5385       4067.7937      0.40101743     18421.214      365.29894     -4.3577412     -1.4908307e-13 -1.0740006e-13  365.29894     -5.1296624e-13
    487250   5353.4438      405.15511      4948.2887      298.72779      3954.6003      0.40101743     18421.214      348.98437     -4.3577412     -1.4957445e-13 -1.0731373e-13  348.98437     -5.1377636e-13
    487500   5343.7945      415.82687      4927.9676      306.59626      2674.2252      0.40101743     18421.214      342.53472     -4.3577412     -1.49195e-13   -1.0718139e-13  342.53472     -5.1275277e-13
    487750   5345.0552      401.20124      4943.8539      295.81253      3667.2987      0.40101743     18421.214      359.59782     -4.3577412     -1.492996e-13  -1.0734668e-13  359.59782     -5.1329256e-13
    488000   5302.4658      409.15894      4893.3068      301.67988      3489.886       0.40101743     18421.214      332.61843     -4.3577412     -1.4976153e-13 -1.0728212e-13  332.61843     -5.140873e-13 
    488250   5341.5247      406.40533      4935.1193      299.6496       3839.7797      0.40101743     18421.214      354.70529     -4.3577412     -1.4847935e-13 -1.0754731e-13  354.70529     -5.1205332e-13
    488500   5310.1184      376.27104      4933.8474      277.43107      2866.798       0.40101743     18421.214      346.26901     -4.3577412     -1.5066615e-13 -1.0762615e-13  346.26901     -5.165846e-13 
    488750   5335.9495      411.01847      4924.931       303.05094      4072.9982      0.40101743     18421.214      349.99525     -4.3577412     -1.4874982e-13 -1.0736221e-13  349.99525     -5.1222406e-13
    489000   5330.1288      404.27022      4925.8586      298.07534      3678.8741      0.40101743     18421.214      345.3439      -4.3577412     -1.4966781e-13 -1.0741661e-13  345.3439      -5.1416886e-13
    489250   5327.4444      385.94359      4941.5008      284.5628       2667.983       0.40101743     18421.214      353.88662     -4.3577412     -1.4939307e-13 -1.0742552e-13  353.88662     -5.1363719e-13
    489500   5366.3583      416.18315      4950.1751      306.85895      2656.9138      0.40101743     18421.214      346.98015     -4.3577412     -1.4929823e-13 -1.0752407e-13  346.98015     -5.136446e-13 
    489750   5352.2444      401.59586      4950.6486      296.10349      3376.7398      0.40101743     18421.214      350.11557     -4.3577412     -1.4950492e-13 -1.0765006e-13  350.11557     -5.1430994e-13
    490000   5357.0207      432.18301      4924.8377      318.65592      2323.8944      0.40101743     18421.214      329.14538     -4.3577412     -1.5037478e-13 -1.0765841e-13  329.14538     -5.1606638e-13
    490250   5339.0293      400.58874      4938.4406      295.36093      1819.3905      0.40101743     18421.214      345.16011     -4.3577412     -1.487976e-13  -1.0752198e-13  345.16011     -5.1263916e-13
    490500   5355.9278      433.31633      4922.6115      319.49154      2650.5352      0.40101743     18421.214      337.38116     -4.3577412     -1.4942547e-13 -1.0747919e-13  337.38116     -5.1380933e-13
    490750   5371.2564      421.04345      4950.2129      310.44253      3319.0165      0.40101743     18421.214      357.9949      -4.3577412     -1.4803394e-13 -1.0750892e-13  357.9949      -5.1108572e-13
    491000   5344.1491      423.64931      4920.4997      312.36388      3414.8574      0.40101743     18421.214      345.48538     -4.3577412     -1.4992802e-13 -1.0756732e-13  345.48538     -5.1499068e-13
    491250   5323.7342      410.35911      4913.3751      302.56479      5185.9291      0.40101743     18421.214      362.82991     -4.3577412     -1.4832014e-13 -1.0746813e-13  362.82991     -5.1157655e-13
    491500   5343.7148      386.80713      4956.9077      285.19951      3080.3202      0.40101743     18421.214      341.07739     -4.3577412     -1.4948637e-13 -1.0734431e-13  341.07739     -5.1366137e-13
    491750   5373.5927      425.33727      4948.2554      313.60844      2685.0953      0.40101743     18421.214      350.61365     -4.3577412     -1.4888733e-13 -1.0723866e-13  350.61365     -5.1225198e-13
    492000   5357.4276      420.32648      4937.1011      309.9139       3810.9776      0.40101743     18421.214      350.73491     -4.3577412     -1.4981213e-13 -1.0700821e-13  350.73491     -5.1364068e-13
    492250   5350.6161      416.66613      4933.9499      307.21506      3197.0978      0.40101743     18421.214      337.67223     -4.3577412     -1.4976519e-13 -1.0727113e-13  337.67223     -5.1407263e-13
    492500   5352.7576      416.83034      4935.9272      307.33613      4411.8967      0.40101743     18421.214      345.32815     -4.3577412     -1.497753e-13  -1.0733537e-13  345.32815     -5.1422135e-13
    492750   5345.3066      401.86268      4943.4439      296.30022      3103.2655      0.40101743     18421.214      347.87642     -4.3577412     -1.4823885e-13 -1.0738082e-13  347.87642     -5.1123933e-13
    493000   5379.7626      414.47291      4965.2897      305.59796      3234.6562      0.40101743     18421.214      363.31499     -4.3577412     -1.4979442e-13 -1.0759589e-13  363.31499     -5.1478061e-13
    493250   5321.1564      418.24475      4902.9116      308.379        4053.8448      0.40101743     18421.214      362.06768     -4.3577412     -1.4948966e-13 -1.0758949e-13  362.06768     -5.1415828e-13
    493500   5317.1201      377.76936      4939.3508      278.53581      2985.2943      0.40101743     18421.214      355.51318     -4.3577412     -1.4918383e-13 -1.0769319e-13  355.51318     -5.1375404e-13
    493750   5319.1225      400.90923      4918.2132      295.59722      3543.9155      0.40101743     18421.214      348.50985     -4.3577412     -1.4969231e-13 -1.0763594e-13  348.50985     -5.146565e-13 
    494000   5309.2824      397.51106      4911.7713      293.0917       2731.1512      0.40101743     18421.214      346.97375     -4.3577412     -1.4862423e-13 -1.0756806e-13  346.97375     -5.123846e-13 
    494250   5359.7407      430.03659      4929.7041      317.07333      3843.7088      0.40101743     18421.214      345.53606     -4.3577412     -1.4904829e-13 -1.0752837e-13  345.53606     -5.1315331e-13
    494500   5324.69        374.61907      4950.071       276.21304      3017.0924      0.40101743     18421.214      357.7969      -4.3577412     -1.4923463e-13 -1.0731219e-13  357.7969      -5.1309366e-13
    494750   5339.0194      421.22651      4917.7928      310.57751      3478.7212      0.40101743     18421.214      362.34131     -4.3577412     -1.4747016e-13 -1.0723781e-13  362.34131     -5.0941594e-13
    495000   5317.7496      406.26971      4911.4799      299.5496       3793.7108      0.40101743     18421.214      353.24393     -4.3577412     -1.4897732e-13 -1.0731417e-13  353.24393     -5.1258297e-13
    495250   5363.9758      435.07209      4928.9037      320.78609      3981.2181      0.40101743     18421.214      353.54551     -4.3577412     -1.4828525e-13 -1.0756406e-13  353.54551     -5.1169862e-13
    495500   5315.4732      386.2515       4929.2217      284.78983      3397.858       0.40101743     18421.214      349.88708     -4.3577412     -1.4771683e-13 -1.0770277e-13  349.88708     -5.108392e-13 
    495750   5349.2659      428.66359      4920.6024      316.06099      3429.5974      0.40101743     18421.214      343.22823     -4.3577412     -1.478076e-13  -1.0764474e-13  343.22823     -5.1090469e-13
    496000   5317.0309      385.93779      4931.0931      284.55853      3555.8759      0.40101743     18421.214      355.50453     -4.3577412     -1.4880129e-13 -1.0761111e-13  355.50453     -5.128248e-13 
    496250   5360.9451      407.10706      4953.838       300.167        1921.0673      0.40101743     18421.214      337.46812     -4.3577412     -1.4879721e-13 -1.0772566e-13  337.46812     -5.1304575e-13
    496500   5325.7865      412.92259      4912.8639      304.45488      4114.1429      0.40101743     18421.214      364.25342     -4.3577412     -1.4793062e-13 -1.0767651e-13  364.25342     -5.1121428e-13
    496750   5342.8865      428.46734      4914.4191      315.91629      4785.4037      0.40101743     18421.214      356.42915     -4.3577412     -1.4899154e-13 -1.0756919e-13  356.42915     -5.1312147e-13
    497000   5355.4283      415.4753       4939.953       306.33704      3136.8617      0.40101743     18421.214      347.61259     -4.3577412     -1.4982454e-13 -1.075517e-13   347.61259     -5.1475249e-13
    497250   5347.6046      395.89462      4951.71        291.89987      3605.3194      0.40101743     18421.214      353.91621     -4.3577412     -1.4882079e-13 -1.0746457e-13  353.91621     -5.125707e-13 
    497500   5360.2141      420.97051      4939.2436      310.38875      2173.6467      0.40101743     18421.214      337.80217     -4.3577412     -1.5122062e-13 -1.0748988e-13  337.80217     -5.1742099e-13
    497750   5346.6579      396.41922      4950.2387      292.28666      3443.0869      0.40101743     18421.214      344.53461     -4.3577412     -1.492292e-13  -1.0726586e-13  344.53461     -5.129901e-13 
    498000   5323.8109      393.31542      4930.4955      289.99818      3752.2148      0.40101743     18421.214      356.00887     -4.3577412     -1.5021792e-13 -1.0724394e-13  356.00887     -5.1492372e-13
    498250   5374.5937      419.28213      4955.3116      309.14388      3970.362       0.40101743     18421.214      360.54555     -4.3577412     -1.479462e-13  -1.0698352e-13  360.54555     -5.0985944e-13
    498500   5387.3806      428.27358      4959.107       315.77343      4334.4047      0.40101743     18421.214      350.49086     -4.3577412     -1.4742671e-13 -1.068211e-13   350.49086     -5.0849561e-13
    498750   5349.698       388.58236      4961.1157      286.50842      2884.2848      0.40101743     18421.214      345.90547     -4.3577412     -1.4776435e-13 -1.0671581e-13  345.90547     -5.0896031e-13
    499000   5361.8829      414.77692      4947.106       305.82212      2536.7213      0.40101743     18421.214      343.9023      -4.3577412     -1.4742093e-13 -1.0687294e-13  343.9023      -5.0858774e-13
    499250   5373.9305      416.23487      4957.6956      306.89708      3000.9454      0.40101743     18421.214      346.3121      -4.3577412     -1.4903571e-13 -1.0726363e-13  346.3121      -5.1259868e-13
    499500   5326.5585      403.80027      4922.7582      297.72884      4407.4521      0.40101743     18421.214      342.45174     -4.3577412     -1.4895841e-13 -1.0717736e-13  342.45174     -5.1227153e-13
    499750   5355.2551      412.24016      4943.0149      303.95171      3809.0108      0.40101743     18421.214      358.98916     -4.3577412     -1.477721e-13  -1.0731522e-13  358.98916     -5.1017463e-13
    500000   5351.0821      413.82126      4937.2609      305.11749      2874.4785      0.40101743     18421.214      334.99882     -4.3577412     -1.4893552e-13 -1.0738774e-13  334.99882     -5.1264653e-13
Loop time of 62.4152 on 4 procs for 500000 steps with 456 atoms

Performance: 692.139 ns/day, 0.035 hours/ns, 8010.864 timesteps/s
99.7% CPU use with 4 MPI tasks x no OpenMP threads

MPI task timing breakdown:
Section |  min time  |  avg time  |  max time  |%varavg| %total
---------------------------------------------------------------
Pair    | 33.088     | 37.063     | 41.048     |  59.6 | 59.38
Bond    | 4.6362     | 4.6987     | 4.7946     |   3.0 |  7.53
Kspace  | 2.8783     | 6.7789     | 10.785     | 139.0 | 10.86
Neigh   | 3.1318     | 3.1348     | 3.1378     |   0.2 |  5.02
Comm    | 7.8321     | 7.8815     | 7.9349     |   1.6 | 12.63
Output  | 0.014994   | 0.024859   | 0.0282     |   3.6 |  0.04
Modify  | 2.3507     | 2.3737     | 2.3974     |   1.3 |  3.80
Other   |            | 0.4603     |            |       |  0.74

Nlocal:            114 ave         119 max         108 min
Histogram: 1 1 0 0 0 0 0 0 0 2
Nghost:        2271.75 ave        2340 max        2202 min
Histogram: 1 0 1 0 0 0 0 1 0 1
Neighs:        18154.2 ave       21201 max       15367 min
Histogram: 1 0 0 1 0 1 0 0 0 1

Total # of neighbors = 72617
Ave neighs/atom = 159.24781
Ave special neighs/atom = 6.3157895
Neighbor list builds = 8960
Dangerous builds = 0

unfix			f1
unfix			f2

Total wall time: 0:01:27
