
#------------------------------------------------------------------------------#
# simulation settings
#------------------------------------------------------------------------------#

##### simulation variables

variable        seed 	equal  301360
variable        T       equal  300	    #K
variable        p       equal  0.0 	#bar
variable        damp_T  equal  100 		  	#K
variable        damp_P  equal  1000.0	  	#bar
variable        dT      equal  1.0 		 	#fs
variable        kb      equal  0.0019872041

## system setup ##

units           real
atom_style      full
boundary        p p p

pair_style      lj/cut/coul/long 12.500
bond_style      harmonic
angle_style     hybrid fourier cosine/periodic
dihedral_style  harmonic
improper_style  fourier
kspace_style 	ewald 0.000001

dielectric      1.0
pair_modify     tail yes mix arithmetic
special_bonds   lj/coul 0.0 0.0 1.0
read_data       data.sow-4c_FeS-2c_B_S_new 				extra/bond/per/atom 40 				extra/angle/per/atom 40 				extra/dihedral/per/atom 40 				extra/improper/per/atom 40 				extra/special/per/atom 40
Reading data file ...
  triclinic box = (0 0 0) to (41.341 26.893 26.085) with tilt (0.004694 0 0)
  1 by 1 by 1 MPI processor grid
  reading atoms ...
  256 atoms
  scanning bonds ...
  43 = max bonds/atom
  scanning angles ...
  46 = max angles/atom
  scanning dihedrals ...
  46 = max dihedrals/atom
  scanning impropers ...
  42 = max impropers/atom
  reading bonds ...
  320 bonds
  reading angles ...
  608 angles
  reading dihedrals ...
  448 dihedrals
  reading impropers ...
  288 impropers
Finding 1-2 1-3 1-4 neighbors ...
  special bond factors lj:    0        0        1       
  special bond factors coul:  0        0        1       
     4 = max # of 1-2 neighbors
     9 = max # of 1-3 neighbors
    49 = max # of special neighbors
  special bonds CPU = 0.000 seconds
  read_data CPU = 0.002 seconds

include			emin_sow-4c_FeS-2c_B_S.param
### Parameters for Equilibration ###

### Parameters for MOF ###

mass 1 55.845000000
mass 2 32.065000000
mass 3 12.010700000
mass 4 1.007940000

pair_coeff 1 1 0.013000 2.594297
pair_coeff 2 2 0.274000 3.594776
pair_coeff 3 3 0.105000 3.430851
pair_coeff 4 4 0.044000 2.571134

bond_coeff 1 192.938150 2.244314
bond_coeff 2 462.655054 1.379256
bond_coeff 3 357.440381 1.081418
bond_coeff 4 320.755144 1.749010

angle_coeff 1 fourier 131.427607 0.343737 0.374972 0.281246
angle_coeff 2 fourier 106.220186 0.343737 0.374972 0.281246
angle_coeff 3 cosine/periodic 111.297508 -1 3
angle_coeff 4 cosine/periodic 57.289016 -1 3
angle_coeff 5 cosine/periodic 105.943006 -1 3
angle_coeff 6 fourier 115.321348 0.343737 0.374972 0.281246

dihedral_coeff 1 3.368555 -1 2
dihedral_coeff 2 1.976424 1 2

improper_coeff 1 2.000000 1.000000 -1.000000 0.000000 0

### Parameters for Molecule ###

mass 5 14.006700000
mass 6 12.010700000
mass 7 1.007940000

pair_coeff 5 5 0.069000 3.260689
pair_coeff 6 6 0.105000 3.430851
pair_coeff 7 7 0.044000 2.571134

bond_coeff 5 528.634538 1.451071
bond_coeff 6 331.069389 1.109401

angle_coeff 7 fourier 260.869388 0.317506 0.313225 0.272502
angle_coeff 8 fourier 169.780468 0.343737 0.374972 0.281246
angle_coeff 9 fourier 75.498766 0.343737 0.374972 0.281246

dihedral_coeff 3 0.054250 1 3



reset_timestep  0
fix             f0 all box/relax aniso ${p} vmax 0.001
fix             f0 all box/relax aniso 0 vmax 0.001
thermo          10
thermo_style    custom step lx ly lz press pxx pyy pzz
min_style       cg
minimize        1e-10 1e-10 100000 100000
WARNING: Using 'neigh_modify every 1 delay 0 check yes' setting during minimization (../min.cpp:187)
Ewald initialization ...
WARNING: System is not charge neutral, net charge = -16 (../kspace.cpp:327)
  using 12-bit tables for long-range coulomb (../kspace.cpp:342)
  G vector (1/distance) = 0.23205454
  estimated absolute RMS force accuracy = 0.0003686707
  estimated relative force accuracy = 1.1102409e-06
  KSpace vectors: actual max1d max3d = 739 9 3429
                  kxmax kymax kzmax  = 9 6 6
Generated 21 of 21 mixed pair_coeff terms from arithmetic mixing rule
Neighbor list info ...
  update every 1 steps, delay 0 steps, check yes
  max neighbors/atom: 2000, page size: 100000
  master list distance cutoff = 14.5
  ghost atom cutoff = 14.5
  binsize = 7.25, bins = 6 4 4
  1 neighbor lists, perpetual/occasional/extra = 1 0 0
  (1) pair lj/cut/coul/long, perpetual
      attributes: half, newton on
      pair build: half/bin/newton/tri
      stencil: half/bin/3d/tri
      bin: standard
WARNING: Inconsistent image flags (../domain.cpp:819)
Per MPI rank memory allocation (min/avg/max) = 69.7 | 69.7 | 69.7 Mbytes
   Step           Lx             Ly             Lz           Press           Pxx            Pyy            Pzz      
         0   41.341         26.893         26.085        -57525.822     -72005.8       -31255.684     -69315.983    
        10   40.92759       26.774848      25.832825     -53719.536     -66567.922     -29865.633     -64725.053    
        20   40.51418       26.653207      25.578047     -49743.314     -60936.526     -28369.025     -59924.391    
        30   40.10077       26.527407      25.320223     -45578.67      -55093.5       -26751.671     -54890.838    
        40   39.688679      26.396957      25.059606     -41216.561     -49036.495     -25001.109     -49612.078    
        50   39.283047      26.26236       24.798756     -36688.477     -42821.51      -23119.318     -44124.603    
        60   38.885579      26.122702      24.537906     -31988.423     -36455.752     -21090.582     -38418.934    
        70   38.498143      25.976447      24.277056     -27106.31      -29947.816     -18891.454     -32479.659    
        80   38.123508      25.821129      24.016206     -22031.338     -23317.606     -16487.307     -26289.102    
        90   37.766154      25.652362      23.755356     -16751.894     -16607.957     -13820.343     -19827.382    
       100   37.434399      25.460928      23.494506     -11252.903     -9914.1753     -10775.405     -13069.13     
       110   37.150372      25.221232      23.235238     -5529.373      -3528.4513     -7047.3386     -6012.3292    
       120   37.034397      24.952302      23.063969     -1394.2234      21.011967     -3187.6027     -1016.0794    
       130   37.125152      24.69904       23.08167       103.01576      64.630161      185.23993      59.177181    
       140   37.242315      24.748567      23.188775      16.397005     -40.95038      -5.6238264      95.765221    
       150   37.255092      24.742272      23.23113       327.01577      507.2029       99.242985      374.60144    
       160   37.255092      24.729922      23.243733      413.95395      655.56338      125.39683      460.90164    
       170   37.255092      24.710367      23.252028      371.47329      593.45819      108.95689      412.00478    
       180   37.255092      24.694862      23.254554      269.28871      434.68877      73.381923      299.79544    
       190   37.255092      24.679978      23.255014      138.84951      230.7433       28.274514      157.53071    
       200   37.214439      24.627201      23.231474      121.40008      205.52699      23.588331      135.08494    
       210   37.176314      24.550883      23.187534     -312.94005     -556.19741     -99.673216     -282.94953    
       220   37.093632      24.516523      23.144548      222.93543      365.06763      63.518184      240.22048    
       230   37.093632      24.487075      23.128675     -304.42772     -466.45931     -119.82154     -327.0023     
       240   37.01095       24.438091      23.06989       17.590656      41.097263     -6.2233673      17.898071    
       250   37.01095       24.412439      23.051684     -525.91389     -815.88306     -195.06842     -566.7902     
       260   36.893319      24.360019      22.963086     -135.04519     -149.311       -158.03012     -97.794464    
       270   36.895014      24.338752      22.953945     -422.38604     -654.74406     -155.80154     -456.61254    
       280   36.800471      24.305837      22.880566     -179.87782     -191.53626     -216.79804     -131.29916    
       290   36.802046      24.281053      22.870717     -462.13019     -717.70294     -167.10722     -501.5804     
       300   36.719364      24.256437      22.820569      206.07902      330.91486      67.263361      220.05885    
       310   36.719364      24.243186      22.805894     -231.00245     -351.01002     -94.843843     -247.1535     
       320   36.636682      24.216643      22.75563       409.96393      653.3585       148.94494      427.58834    
       330   36.636682      24.206129      22.742874      52.055083      86.337763      14.763741      55.063745    
       340   36.636682      24.192751      22.727        -393.59369     -623.41937     -147.98688     -409.37481    
       350   36.554394      24.164208      22.699033     -332.79811     -140.39554     -122.90715     -735.09165    
       360   36.566154      24.154445      22.645143     -277.61479     -666.17471     -136.80017     -29.869502    
       370   36.516843      24.130697      22.650946     -322.53654     -324.16524     -25.4313       -618.01308    
       380   36.514659      24.140908      22.617524     -498.09245     -736.59581     -333.92655     -423.75499    
       390   36.445626      24.127387      22.600778     -312.67916     -73.811602     -318.90803     -545.31785    
       400   36.434214      24.080294      22.566622     -117.90566     -245.37782      129.40704     -237.74621    
       410   36.417637      24.093333      22.541215     -436.35856     -619.09862     -295.22403     -394.75303    
       420   36.369851      24.061685      22.511958     -159.75774     -243.1679      -30.150795     -205.95452    
       430   36.324238      24.05149       22.500826     -288.99911     -115.93593     -140.77639     -610.28501    
       440   36.333367      24.032775      22.452983     -210.49951     -612.0038      -29.962983      10.468248    
       450   36.294137      24.038691      22.450737     -413.94065     -480.16179     -302.57615     -459.08402    
       460   36.260349      23.999057      22.418209     -301.41805     -513.27055     -11.356686     -379.62692    
       470   36.209511      23.961747      22.385399     -27.431601     -187.19403      303.94032     -199.0411     
       480   36.159962      23.970098      22.35083       35.896905      86.805812      28.73395      -7.8490467    
       490   36.129438      23.949843      22.317824      291.54767      279.78527      208.0954       386.76234    
       500   36.086231      23.945398      22.28108       238.85168      256.78307      18.470917      441.30105    
       510   36.056691      23.916539      22.275877      178.68884      252.33376      210.73238      73.000367    
       520   35.996138      23.895546      22.233026      430.4641       611.45469      304.43771      375.49989    
       530   35.987159      23.918117      22.202283      78.975192      85.450443     -226.97015      378.44528    
       540   35.951186      23.905535      22.188422     -115.03011     -32.340954     -311.55393     -1.1954651    
       550   35.898023      23.891503      22.168566     -330.19809     -91.757732     -444.08579     -454.75075    
       560   35.873152      23.852495      22.128679      89.187515      48.315891      36.407494      182.83916    
       570   35.825643      23.815672      22.116906      79.546534      132.78826      301.52986     -195.67852    
       579   35.801962      23.801742      22.078987      195.84323      26.776918      366.14414      194.60864    
Loop time of 0.342094 on 1 procs for 579 steps with 256 atoms

99.0% CPU use with 1 MPI tasks x no OpenMP threads

Minimization stats:
  Stopping criterion = energy tolerance
  Energy initial, next-to-last, final = 
      13414.7938568319   1399.68336529625    1399.6833652672
  Force two-norm initial, final = 44551.007 197.09357
  Force max component initial, final = 30454.708 113.51499
  Final line search alpha, max atom move = 6.1962112e-13 7.0336283e-11
  Iterations, force evaluations = 579 606

MPI task timing breakdown:
Section |  min time  |  avg time  |  max time  |%varavg| %total
---------------------------------------------------------------
Pair    | 0.0754     | 0.0754     | 0.0754     |   0.0 | 22.04
Bond    | 0.012811   | 0.012811   | 0.012811   |   0.0 |  3.74
Kspace  | 0.23293    | 0.23293    | 0.23293    |   0.0 | 68.09
Neigh   | 0.0028508  | 0.0028508  | 0.0028508  |   0.0 |  0.83
Comm    | 0.0017665  | 0.0017665  | 0.0017665  |   0.0 |  0.52
Output  | 0.00013929 | 0.00013929 | 0.00013929 |   0.0 |  0.04
Modify  | 0          | 0          | 0          |   0.0 |  0.00
Other   |            | 0.01619    |            |       |  4.73

Nlocal:            256 ave         256 max         256 min
Histogram: 1 0 0 0 0 0 0 0 0 0
Nghost:           1916 ave        1916 max        1916 min
Histogram: 1 0 0 0 0 0 0 0 0 0
Neighs:          21911 ave       21911 max       21911 min
Histogram: 1 0 0 0 0 0 0 0 0 0

Total # of neighbors = 21911
Ave neighs/atom = 85.589844
Ave special neighs/atom = 6.5
Neighbor list builds = 8
Dangerous builds = 0
unfix           f0


#------------------------------------------------------------------------------#
# deposit cations and minimization
#------------------------------------------------------------------------------#
reset_timestep  0

variable		a equal lx-3
variable 		b equal ly-3
variable 		c equal lz-3
variable		aa equal xy
variable 		bb equal xz
variable 		cc equal yz

region 			box prism 3 ${a} 3 ${b} 3 ${c} ${aa} ${bb} ${cc}
region 			box prism 3 32.8019619067756 3 ${b} 3 ${c} ${aa} ${bb} ${cc}
region 			box prism 3 32.8019619067756 3 20.8017422026223 3 ${c} ${aa} ${bb} ${cc}
region 			box prism 3 32.8019619067756 3 20.8017422026223 3 19.0789873674712 ${aa} ${bb} ${cc}
region 			box prism 3 32.8019619067756 3 20.8017422026223 3 19.0789873674712 0.00415444085446433 ${bb} ${cc}
region 			box prism 3 32.8019619067756 3 20.8017422026223 3 19.0789873674712 0.00415444085446433 0 ${cc}
region 			box prism 3 32.8019619067756 3 20.8017422026223 3 19.0789873674712 0.00415444085446433 0 0

variable		n_cation equal 16

##### create and deposit the cation

molecule 		TMA TMA.txt offset 4 4 6 2 1
Read molecule template TMA:
  1 molecules
  0 fragments
  17 atoms with max type 7
  16 bonds with max type 6
  30 angles with max type 9
  36 dihedrals with max type 3
  0 impropers with max type 0
fix 			DEPOSIT all deposit 16 0 1 ${seed} mol TMA region box near 1
fix 			DEPOSIT all deposit 16 0 1 301360 mol TMA region box near 1

run 			160
WARNING: No fixes with time integration, atoms won't move (../verlet.cpp:60)
Ewald initialization ...
  using 12-bit tables for long-range coulomb (../kspace.cpp:342)
  G vector (1/distance) = 0.23501899
  estimated absolute RMS force accuracy = 0.00037441145
  estimated relative force accuracy = 1.127529e-06
  KSpace vectors: actual max1d max3d = 602 7 1687
                  kxmax kymax kzmax  = 7 6 5
Generated 21 of 21 mixed pair_coeff terms from arithmetic mixing rule
WARNING: Inconsistent image flags (../domain.cpp:819)
Per MPI rank memory allocation (min/avg/max) = 65.37 | 65.37 | 65.37 Mbytes
   Step           Lx             Ly             Lz           Press           Pxx            Pyy            Pzz      
         0   35.801962      23.801742      22.078987      183.92469      14.937326      354.16748      182.66926    
        10   35.801962      23.801742      22.078987      1120030.1      1316946.9      663242.07      1379901.3    
        20   35.801962      23.801742      22.078987      1128774.9      1333664.3      667558.82      1385101.5    
        30   35.801962      23.801742      22.078987      1128774.9      1333664.3      667558.82      1385101.5    
        40   35.801962      23.801742      22.078987      1128774.9      1333664.3      667558.82      1385101.5    
        50   35.801962      23.801742      22.078987      1128774.9      1333664.3      667558.82      1385101.5    
        60   35.801962      23.801742      22.078987      1128774.9      1333664.3      667558.82      1385101.5    
        70   35.801962      23.801742      22.078987      1128774.9      1333664.3      667558.82      1385101.5    
        80   35.801962      23.801742      22.078987      1128774.9      1333664.3      667558.82      1385101.5    
        90   35.801962      23.801742      22.078987      1128774.9      1333664.3      667558.82      1385101.5    
       100   35.801962      23.801742      22.078987      1128774.9      1333664.3      667558.82      1385101.5    
       110   35.801962      23.801742      22.078987      1128774.9      1333664.3      667558.82      1385101.5    
       120   35.801962      23.801742      22.078987      1128774.9      1333664.3      667558.82      1385101.5    
       130   35.801962      23.801742      22.078987      1128774.9      1333664.3      667558.82      1385101.5    
       140   35.801962      23.801742      22.078987      1128774.9      1333664.3      667558.82      1385101.5    
       150   35.801962      23.801742      22.078987      1128774.9      1333664.3      667558.82      1385101.5    
       160   35.801962      23.801742      22.078987      1128774.9      1333664.3      667558.82      1385101.5    
Loop time of 0.184049 on 1 procs for 160 steps with 528 atoms

Performance: 75.110 ns/day, 0.320 hours/ns, 869.334 timesteps/s
99.8% CPU use with 1 MPI tasks x no OpenMP threads

MPI task timing breakdown:
Section |  min time  |  avg time  |  max time  |%varavg| %total
---------------------------------------------------------------
Pair    | 0.059562   | 0.059562   | 0.059562   |   0.0 | 32.36
Bond    | 0.0044467  | 0.0044467  | 0.0044467  |   0.0 |  2.42
Kspace  | 0.10299    | 0.10299    | 0.10299    |   0.0 | 55.96
Neigh   | 0.01417    | 0.01417    | 0.01417    |   0.0 |  7.70
Comm    | 0.0013089  | 0.0013089  | 0.0013089  |   0.0 |  0.71
Output  | 5.0251e-05 | 5.0251e-05 | 5.0251e-05 |   0.0 |  0.03
Modify  | 0.0013056  | 0.0013056  | 0.0013056  |   0.0 |  0.71
Other   |            | 0.000219   |            |       |  0.12

Nlocal:            528 ave         528 max         528 min
Histogram: 1 0 0 0 0 0 0 0 0 0
Nghost:           4556 ave        4556 max        4556 min
Histogram: 1 0 0 0 0 0 0 0 0 0
Neighs:          97174 ave       97174 max       97174 min
Histogram: 1 0 0 0 0 0 0 0 0 0

Total # of neighbors = 97174
Ave neighs/atom = 184.04167
Ave special neighs/atom = 8.1212121
Neighbor list builds = 16
Dangerous builds = 0

unfix 			DEPOSIT

reset_timestep  0
fix             f0 all box/relax aniso ${p} vmax 0.001
fix             f0 all box/relax aniso 0 vmax 0.001
thermo          10
thermo_style    custom step lx ly lz press pxx pyy pzz
min_style       cg
minimize        1e-10 1e-10 100000 100000
WARNING: Using 'neigh_modify every 1 delay 0 check yes' setting during minimization (../min.cpp:187)
Ewald initialization ...
  using 12-bit tables for long-range coulomb (../kspace.cpp:342)
  G vector (1/distance) = 0.23403332
  estimated absolute RMS force accuracy = 0.0003637064
  estimated relative force accuracy = 1.095291e-06
  KSpace vectors: actual max1d max3d = 602 7 1687
                  kxmax kymax kzmax  = 7 6 5
Generated 21 of 21 mixed pair_coeff terms from arithmetic mixing rule
WARNING: Inconsistent image flags (../domain.cpp:819)
Per MPI rank memory allocation (min/avg/max) = 67.14 | 67.14 | 67.14 Mbytes
   Step           Lx             Ly             Lz           Press           Pxx            Pyy            Pzz      
         0   35.801962      23.801742      22.078987      1128752.3      1333641.8      667536.29      1385078.9    
        10   36.145265      23.916788      22.299777      880124.61      1033735.3      523151.89      1083486.7    
        20   36.485892      24.032783      22.520567      686962.92      802532.2       411025.19      847331.37    
        30   36.82439       24.15003       22.741357      535134.23      621892.42      322802.15      660708.13    
        40   37.161046      24.268827      22.962147      414471.97      478999.79      252534.32      511881.8     
        50   37.495895      24.389503      23.182937      317539.99      364620.04      195904.27      392095.67    
        60   37.82868       24.512476      23.403727      238810.28      271978.52      149718.12      294734.21    
        70   38.158728      24.638359      23.624516      174093.51      196003.5       111559.19      214717.84    
        80   38.484623      24.768211      23.845306      120107.1       132774.34      79525.388      148021.56    
        90   38.803181      24.904302      24.066096      74042.275      79002.721      51958.187      91165.916    
       100   39.104372      25.053956      24.286886      32478.995      30843.683      26723.56       39869.743    
       110   39.13161       25.21633       24.389785     -9158.2034     -15345.938     -98.257118     -12030.415    
       120   38.77359       25.188232      24.198309     -11928.38      -16671.71      -3192.3735     -15921.057    
       130   38.418723      25.133804      23.981473     -10569.095     -13619.145     -3625.0462     -14463.093    
       140   38.092876      25.068081      23.760683     -8437.2946     -10028.59      -3466.4382     -11816.855    
       150   37.800275      24.991141      23.539893     -6338.5888     -6853.8878     -3154.5759     -9007.3028    
       160   37.537983      24.898542      23.319103     -4498.9898     -4385.0279     -2741.6606     -6370.2808    
       170   37.297247      24.784415      23.098313     -2960.381      -2651.3563     -2175.3981     -4054.3887    
       180   37.058917      24.642743      22.877524     -1710.5699     -1506.2721     -1452.0392     -2173.3983    
       190   36.790479      24.466819      22.656734     -757.81734     -713.77082     -710.192       -849.4892     
       200   36.459393      24.247083      22.437643     -249.50539     -297.31307     -215.00852     -236.19459    
       210   36.316185      24.160227      22.35569       451.65668      590.56559      244.77343      519.63102    
       220   36.316185      24.142958      22.352542     -891.70402     -1190.1211     -556.99458     -927.99634    
       230   36.244581      24.112065      22.313893      178.52269      244.78867      105.58151      185.19788    
       240   36.244581      24.108621      22.309978     -325.51734     -436.4814      -198.21728     -341.85334    
       250   36.244581      24.108074      22.307797     -541.50584     -729.66682     -327.00815     -567.84255    
       260   36.244581      24.108339      22.305246     -759.43798     -1026.3405     -456.63196     -795.34143    
       270   36.151975      24.09097       22.245302      670.52889      834.94323      466.59764      710.0458     
       280   36.151975      24.101461      22.243907      301.57002      437.84666      131.39996      335.46344    
       290   36.136315      24.106273      22.235247      328.05005      561.86532      69.857729      352.42709    
       300   36.13264       24.103296      22.227253      231.9842       281.1964       176.10707      238.64915    
       310   36.110055      24.105323      22.208274      590.2054       719.20641      283.67084      767.73896    
       320   36.103603      24.106962      22.203686      334.43197      369.39907      226.6503       407.24654    
       330   36.111214      24.107992      22.18846      -15.244324     -483.13265      174.63562      262.76407    
       340   36.084194      24.116219      22.184511      2.9151868     -106.68015      5.1131717      110.31254    
       350   36.078843      24.116486      22.18875      -401.30339     -528.3075      -91.345552     -584.25713    
       360   36.076537      24.108401      22.174922     -392.77828     -853.01205      150.72979     -476.05257    
       370   36.029595      24.105447      22.168882      29.80155       138.98998      372.22691     -421.81224    
       380   36.049825      24.129746      22.15032      -491.45571     -856.14708     -346.40663     -271.81342    
       390   36.028885      24.122667      22.146588     -489.44739     -772.27741     -145.25464     -550.81012    
       400   35.971054      24.13359       22.102447      176.48434      158.16117     -149.32371      520.61555    
       410   35.976273      24.139651      22.088562     -213.35935     -636.02086     -382.60689      378.54971    
       420   35.946202      24.123282      22.085717     -36.930626     -311.03979      88.087408      112.16051    
       430   35.922009      24.127989      22.065055     -28.628165     -349.74154      3.0089862      260.84806    
       440   35.895914      24.110183      22.052458      248.57497     -137.5767       540.12633      343.17528    
       450   35.871703      24.121629      22.060096     -188.58854     -176.47956      117.67692     -506.96297    
       460   35.852426      24.110105      22.041161      337.42131      273.82042      573.15818      165.28533    
       470   35.81626       24.125689      22.029017      185.44278      453.97406      139.8359      -37.481632    
       480   35.822572      24.115496      22.011422      205.32452     -73.966728      408.43597      281.50433    
       490   35.800684      24.136374      22.010922     -84.125725      43.264175     -207.10676     -88.534587    
       500   35.771362      24.134175      21.990679     -127.28049     -104.6036      -179.68716     -97.550708    
       510   35.768249      24.121772      21.975841     -161.57744     -581.72219      108.43061     -11.440725    
       520   35.717591      24.139816      21.960124      62.400316      270.14131     -293.45749      210.51713    
       530   35.723462      24.144075      21.963478     -346.80214     -260.83798     -536.24774     -243.32071    
       540   35.677292      24.132944      21.938464      86.908397      251.00042     -163.76921      173.49399    
       550   35.659474      24.114561      21.945368     -29.436855      171.67957      216.92563     -476.91577    
       560   35.634564      24.133235      21.930593     -196.80642      190.90501     -332.59799     -448.72629    
       570   35.632345      24.137219      21.922664     -518.70911     -347.2056      -562.1362      -646.78553    
       580   35.615466      24.078619      21.919853      124.99808     -106.31151      1065.1587     -583.85288    
       590   35.62195       24.145025      21.901964     -677.46277     -755.29201     -844.67742     -432.41887    
       600   35.583931      24.144631      21.880813      16.420776      261.80483     -634.90301      422.3605     
       610   35.58278       24.126956      21.885106     -256.96152     -282.40864     -320.56176     -167.91417    
       620   35.576498      24.100843      21.886931     -199.22714     -458.55005      316.05213     -455.1835     
       630   35.566419      24.093165      21.86171      -48.389133     -742.48771      521.46651      75.8538      
       640   35.555735      24.147109      21.867969     -1087.4539     -1222.9047     -1187.7785     -851.67847    
       650   35.503905      24.123174      21.838439     -139.49115     -177.75777     -356.49792      115.78225    
       660   35.50393       24.092012      21.848087     -344.93508     -721.32735      301.03162     -614.50951    
       670   35.461186      24.092824      21.821357      171.53965      0.88120473     383.93813      129.7996     
       680   35.418802      24.125193      21.805103      180.17603      649.35469     -478.79064      369.96405    
       690   35.42308       24.113939      21.796424     -125.43351     -176.40388     -354.96928      155.07264    
       700   35.418367      24.08189       21.808671     -284.13326     -555.80815      334.97025     -631.56187    
       710   35.378339      24.084059      21.780229      170.82298      30.98483       352.69689      128.78723    
       720   35.336754      24.114191      21.763513      173.44263      624.52574     -470.11036      365.91252    
       730   35.338308      24.101887      21.755668     -123.47738     -154.72242     -330.67363      114.9639     
       740   35.331838      24.071278      21.76561      -263.05874     -510.82588      321.89358     -600.24392    
       750   35.291751      24.072421      21.737452      161.53189      26.116536      339.26955      119.2096     
       760   35.251279      24.103218      21.72138       126.02117      580.06985     -524.4294       322.42306    
       770   35.250136      24.088252      21.712285     -121.59606     -158.62821     -318.98441      112.82444    
       780   35.242274      24.057319      21.721492     -246.00689     -493.46274      337.84187     -582.39981    
       790   35.200668      24.05929       21.693612      159.382        55.845196      310.89562      111.40518    
       800   35.160715      24.086983      21.676894      125.03458      554.88812     -494.53905      314.75467    
       810   35.156707      24.071754      21.667918     -115.53086     -136.86011     -299.54952      89.817053    
       820   35.147326      24.041326      21.675676     -224.50519     -449.52606      337.66625     -561.65576    
       830   35.105093      24.04235       21.647546      153.60119      56.453048      299.05787      105.29266    
       840   35.066453      24.069443      21.630816      94.639608      504.47485     -518.83865      298.28263    
       850   35.058691      24.051705      21.621379     -111.1018      -130.93721     -278.80624      76.438038    
       860   35.04783       24.021301      21.627682     -213.58631     -439.9885       341.01188     -541.7823     
       870   35.003731      24.021563      21.599761      149.51247      70.140743      283.28827      95.108404    
       880   34.965875      24.045855      21.582645      80.767444      457.22819     -497.05088      282.12502    
       890   34.953867      24.026863      21.572674     -103.49828     -115.66167     -256.46373      61.630572    
       900   34.941575      23.996116      21.577748     -199.3928      -420.92838      350.27424     -527.52426    
       910   34.895491      23.995175      21.549614      145.41907      77.827423      271.90273      86.52706     
       920   34.858362      24.01678       21.532115      67.040329      407.65541     -479.22561      272.69118    
       930   34.841813      23.995897      21.521715     -96.715878     -104.67642     -232.87944      47.408228    
       940   34.827523      23.964205      21.525476     -184.41254     -405.65913      367.30576     -514.88425    
       950   34.778204      23.961524      21.496754      142.0154       85.812206      263.58685      76.647144    
       960   34.740899      23.979744      21.478328      56.613559      354.66143     -454.78873      269.96798    
       970   34.71426       23.954904      21.466218     -92.883641     -81.958525     -205.06478      8.3723869    
       980   34.672865      23.960815      21.449466     -72.805794      256.25512     -620.26052      145.58802    
       990   34.667288      23.913143      21.459032     -376.96952     -555.96295      230.17931     -805.12491    
      1000   34.631518      23.924979      21.428063     -95.390622     -137.2746      -211.22476      62.327495    
      1010   34.61802       23.895105      21.433231     -163.59976     -355.5714       338.75844     -473.98634    
      1020   34.554095      23.883619      21.399595      147.42309      122.71208      222.84422      96.712965    
      1030   34.528274      23.895482      21.395751     -48.409427      310.4023      -336.98371     -118.64687    
      1040   34.520522      23.878185      21.383692     -68.48099      -88.705566     -118.35216      1.6147594    
      1050   34.49939       23.849446      21.392033     -235.66607     -244.31681      297.77451     -760.45593    
      1060   34.470014      23.837345      21.363369      159.53491     -36.302148      447.34987      67.557006    
      1070   34.441133      23.852198      21.351275      108.23079      274.62095     -168.04276      218.11419    
      1080   34.43004       23.837994      21.344871     -75.602626     -134.81093     -129.34466      37.347708    
      1090   34.413252      23.808923      21.357268     -194.59847     -203.87363      371.2742      -751.19597    
      1100   34.387699      23.800528      21.330352      160.98904     -11.937489      430.85791      64.046708    
      1110   34.360606      23.812951      21.318566      110.92997      255.31356     -136.76318      214.23954    
      1120   34.348639      23.798745      21.312372     -69.573758     -126.28337     -117.05483      34.616924    
      1130   34.332061      23.768255      21.326031     -200.60901     -202.01432      404.78832     -804.60104    
      1140   34.30615       23.760027      21.298438      162.98752      0.17618973     439.18287      49.603513    
      1150   34.280163      23.771246      21.286676      107.53821      235.86781     -117.43793      204.18474    
      1160   34.267075      23.756413      21.280527     -64.110283     -118.27075     -103.44406      29.383968    
      1170   34.249964      23.724904      21.29573      -216.83837     -190.72225      421.32781     -881.12068    
      1180   34.224599      23.714978      21.267165      166.0918      -8.0370972      479.64321      26.669288    
      1190   34.19916       23.726904      21.255457      92.09711       214.12868     -119.10212      181.26477    
      1200   34.18421       23.709949      21.248397     -64.64586      -132.02796     -91.851445      29.941825    
      1210   34.172057      23.670558      21.264185     -169.93332     -307.31068      661.51114     -864.00042    
      1220   34.136354      23.664278      21.232907      151.00975     -41.39696       462.86821      31.557992    
      1230   34.153081      23.698264      21.205237     -542.81229     -1277.4922     -938.06085      587.11622    
      1240   34.097638      23.668648      21.211777     -193.49473     -239.66235     -437.60639      96.784548    
      1250   34.059647      23.63956       21.208769     -24.593006      118.56978     -75.591387     -116.75741    
      1260   34.010727      23.612071      21.180146      152.6649       187.15866     -91.702466      362.53852    
      1270   34.006909      23.596009      21.188457     -335.74516     -428.0707      -162.91126     -416.2535     
      1280   33.970359      23.570076      21.182461     -46.096346      63.307136      226.66201     -428.25818    
      1290   33.958181      23.57296       21.171919      84.079498      252.30899      37.522367     -37.592867    
      1300   33.947411      23.560669      21.16617      -29.506337      5.2329013      5.2161388     -98.968051    
      1310   33.920856      23.594327      21.186596     -2259.7441     -1528.4167     -2665.2566     -2585.5588    
      1320   33.871414      23.491324      21.142147      27.524663     -84.625103      410.13054     -242.93144    
      1330   33.859517      23.506659      21.128459     -111.19516     -123.02029     -288.84082      78.275635    
      1340   33.830321      23.502535      21.147854     -766.28691     -139.11179     -869.21038     -1290.5386    
      1350   33.813133      23.459342      21.113749      345.19305      293.3395       403.38017      338.85949    
      1360   33.805227      23.455782      21.115778     -50.026597     -73.643521      37.317894     -113.75416    
      1370   33.775744      23.450747      21.091273      143.69951      127.3726      -300.09161      603.81753    
      1380   33.74774       23.43337       21.104527     -131.27856      281.03299     -349.76615     -325.10252    
      1390   33.756473      23.43541       21.076933      5.8983696     -197.65672     -535.03557      750.3874     
      1400   33.747903      23.43198       21.06642      -60.378624     -390.00411     -754.29633      963.16457    
      1410   33.716684      23.386687      21.085619      161.652        175.05422      234.68323      75.218553    
      1420   33.700681      23.373854      21.082422      86.693651      122.40465      186.93693     -49.260627    
      1430   33.670614      23.37973       21.077376     -91.984156      411.2613      -489.61172     -197.60205    
      1440   33.666126      23.345084      21.077057      9.3449568      153.98155      185.95505     -311.90174    
      1450   33.629399      23.352455      21.073225     -210.04437      521.88471     -599.73924     -552.2786     
      1460   33.612606      23.325396      21.057741     -229.97256      115.97073     -516.3243      -289.5641     
      1470   33.599057      23.287633      21.037992      55.893804     -120.53225     -18.424363      306.63803    
      1480   33.561524      23.251169      21.047809      476.78573      726.41776      817.69522     -113.7558     
      1490   33.576549      23.234487      21.039867     -593.46569     -1202.8684      51.380856     -628.90948    
      1500   33.529809      23.247615      21.041614     -854.53714     -504.99885     -932.84972     -1125.7629    
      1510   33.490708      23.178548      21.023551      384.03671      424.25114      875.99839     -148.13941    
      1520   33.481164      23.177898      21.004802      178.64852     -17.498635      274.19891      279.24529    
      1530   33.467562      23.171085      21.017137     -258.09932     -151.11406     -47.87502      -575.30887    
      1540   33.446882      23.1549        20.998406     -56.25089      -104.91285     -91.085823      27.245997    
      1550   33.426885      23.130196      21.019846     -269.42253      79.381719      220.86479     -1108.5141    
      1560   33.417962      23.130298      20.97826       264.23099      79.140165      43.677588      669.87522    
      1570   33.36046       23.091327      20.980977      786.53576      1281.3461      641.67337      436.58777    
      1580   33.351497      23.058217      20.999805      431.48598      953.52779      1011.695      -670.76485    
      1590   33.322323      23.063826      20.958163     -23.569356      209.4306      -586.89225      306.75359    
      1600   33.275301      22.986388      20.954964      395.26974      492.4956       540.11241      153.2012     
      1610   33.234048      22.966882      20.919311     -609.00541     -770.20112     -1175.4519      118.63675    
      1620   33.252708      22.921974      20.947876     -1317.2143     -2170.9343     -744.72507     -1035.9836    
      1630   33.198658      22.930864      20.915995     -400.19972     -476.76946     -949.98465      226.15495    
      1640   33.174767      22.890486      20.920924      71.635262      25.676168     -59.539335      248.76895    
      1650   33.168016      22.856959      20.922252      242.31247     -16.128415      719.65797      23.407855    
      1660   33.10083       22.845294      20.903996      385.61582      825.26512     -272.88393      604.46626    
      1670   33.110745      22.830205      20.881835      483.73319      164.93459     -98.28495       1384.5499    
      1680   33.081479      22.783751      20.904876     -84.924406     -151.63333     -19.138809     -84.001078    
      1690   33.070997      22.774817      20.899926     -117.66653     -177.02726     -56.283972     -119.68835    
      1700   33.051638      22.767735      20.886584     -44.806701      13.898449     -165.40593      17.087378    
      1710   33.015542      22.726565      20.881235      134.3072       196.84707     -6.0789794      212.15351    
      1720   32.997853      22.704001      20.877393      119.69896      154.22891      98.64827       106.2197     
      1730   32.964367      22.668097      20.868608     -9.1921511      8.9810081     -15.96681      -20.590652    
      1740   32.9549        22.638528      20.870284     -11.176056     -196.62266      288.77204     -125.67755    
      1750   32.920732      22.6273        20.855645      17.923435      139.18107      29.032511     -114.44328    
      1760   32.890038      22.603782      20.831448      435.91797      407.85869     -70.716696      970.61192    
      1770   32.868189      22.566583      20.881581     -135.84624      568.48103      277.52468     -1253.5444    
      1780   32.865918      22.564643      20.838178     -10.439584      15.283376     -30.23067      -16.371457    
      1790   32.835444      22.518831      20.861074      245.30923      542.3071       520.77998     -327.15938    
      1800   32.838051      22.526703      20.838584     -160.34982     -242.45325     -239.57118      0.9749588    
      1810   32.834383      22.535142      20.844972     -795.42578     -556.03759     -847.05822     -983.18153    
      1820   32.803675      22.500574      20.846369     -353.59113     -163.9709      -717.94264     -178.85985    
      1830   32.789816      22.484345      20.83152      -16.07561       210.37505     -64.488324     -194.11356    
      1840   32.757404      22.459404      20.802342      465.90258      710.31515     -2.8317556      690.22435    
      1850   32.764294      22.453461      20.816101     -49.131138      23.080095     -306.29963      135.82612    
      1860   32.780924      22.415257      20.800182      317.7115      -816.91633      684.78167      1085.2692    
      1870   32.717854      22.41646       20.813616     -114.15243      233.96701     -377.74141     -198.6829     
      1880   32.692762      22.399503      20.82474      -256.47038      396.99708     -366.20975     -800.19846    
      1890   32.69027       22.36686       20.796868     -145.72942     -446.28628     -426.71828      435.8163     
      1900   32.688127      22.335763      20.817651     -363.73854     -509.41015      260.97697     -842.78244    
      1910   32.622742      22.294043      20.798991      546.23739      998.76756      806.15336     -166.20876    
      1920   32.617983      22.275554      20.777717      49.106747     -272.71535      80.925848      339.10975    
      1930   32.589907      22.224609      20.792471     -279.58        -563.06792      60.908607     -336.58069    
      1940   32.528929      22.161381      20.764043     -121.32017     -311.77238     -127.94929      75.761142    
      1950   32.518996      22.124689      20.745682      1116.0613      144.94529      1756.7617      1446.4771    
      1960   32.47815       22.139179      20.763627     -212.64141     -127.6347      -147.24991     -363.03962    
      1970   32.439538      22.089418      20.764169      5.099043       89.518263     -23.79848      -50.422654    
      1980   32.411983      22.0876        20.759455     -1.4585567      586.59941     -143.13059     -447.84449    
      1990   32.36987       22.048433      20.738272     -180.82943      262.94931     -828.10102      22.663426    
      2000   32.365879      22.038108      20.731906      186.84975      386.98646     -243.25404      416.81683    
      2010   32.373114      22.010282      20.7447        45.941048     -113.84406      358.7788      -107.1116     
      2020   32.363469      22.016581      20.738004     -247.06885     -301.86982     -389.69367     -49.643068    
      2030   32.331751      21.96305       20.75369       240.64899      462.51552      1084.0725     -824.64106    
      2040   32.303986      21.992185      20.730272      61.656344      526.9692      -733.09642      391.09625    
      2050   32.316652      21.954641      20.728351      151.45355     -11.794021      495.05589     -28.901209    
      2060   32.298331      21.964026      20.730261     -430.34795     -71.492718     -654.1977      -565.35343    
      2070   32.302854      21.946489      20.728045     -469.78595     -731.24373     -362.2775      -315.83661    
      2080   32.268343      21.885275      20.724647      101.2998      -455.67056      1033.6983     -274.12837    
      2090   32.261475      21.910142      20.714722     -320.5727      -583.81811     -369.36819     -8.5317948    
      2100   32.234721      21.88108       20.722946      8.5518965     -33.725565      86.63233      -27.251075    
      2110   32.200964      21.870549      20.712633     -94.056148      209.01437     -89.681999     -401.50081    
      2120   32.158767      21.811172      20.697903      93.309331     -130.80958      94.482952      316.25462    
      2130   32.135557      21.795214      20.700121     -67.724154     -151.82102      65.005971     -116.35742    
      2140   32.114142      21.770801      20.695951     -101.13056     -346.5967      -25.633049      68.838061    
      2150   32.030148      21.68779       20.66762       729.60171      272.30811      853.09506      1063.4019    
      2160   32.023905      21.685019      20.689136     -6.7490276     -80.563162      266.13772     -205.82164    
      2170   31.991518      21.67179       20.684459     -45.248709      169.94711      129.24567     -434.9389     
      2180   31.968611      21.650899      20.673285      104.05448      73.660238      216.97672      21.526466    
      2190   31.955126      21.668337      20.65604      -110.19444     -60.143911     -928.34083      657.90144    
      2200   31.955032      21.632184      20.657649     -90.637741     -637.92384     -195.71723      561.72784    
      2210   31.924482      21.630071      20.671328     -249.31894      8.1537569     -442.08172     -314.02885    
      2220   31.900089      21.618663      20.650427      566.87273      796.18474      11.495905      892.93754    
      2230   31.905778      21.600117      20.665519     -137.01548     -182.78263     -44.30498      -183.95884    
      2240   31.820654      21.529237      20.655988      160.44441      233.42853      390.09532     -142.19061    
      2250   31.807409      21.53011       20.642682     -33.156538     -123.92368     -281.93854      306.3926     
      2260   31.794166      21.511605      20.647267     -397.07986     -583.95738     -241.39458     -365.88761    
      2270   31.748026      21.528629      20.647591     -1755.5529     -1259.0566     -2632.3278     -1375.2744    
      2280   31.724032      21.462739      20.635505      6.3584395     -23.998221      59.125888     -16.052348    
      2290   31.680862      21.414767      20.654741     -723.42136     -668.16505      41.450327     -1543.5494    
      2300   31.656811      21.445316      20.634674     -849.60584     -327.71566     -1285.7001     -935.40177    
      2310   31.63792       21.411885      20.619574     -1033.4542     -1263.6271     -1121.6549     -715.08052    
      2320   31.596245      21.376933      20.61408       107.9011       183.02772      91.390531      49.285055    
      2330   31.574229      21.357673      20.610367      99.488671      63.466224      97.596137      137.40365    
      2340   31.602344      21.345527      20.611849     -694.25243     -1722.8706      10.621831     -370.50848    
      2350   31.546094      21.33994       20.609807     -46.393774      32.050384      65.98503      -237.21674    
      2360   31.535228      21.345931      20.577846     -432.59524     -1117.5238     -1290.1836      1109.9216    
      2370   31.484809      21.305009      20.59826       434.82402      774.75782      395.73584      133.9784     
      2380   31.473204      21.308581      20.571239      408.59594      310.7573      -171.9943       1087.0248    
      2390   31.464046      21.292836      20.587799     -121.87077     -119.55363     -312.61179      66.553119    
      2400   31.4527        21.275334      20.597207     -95.087112      13.649574      34.443785     -333.3547     
      2410   31.414276      21.269102      20.589568      579.49587      1277.6334      300.65045      160.20373    
      2420   31.434971      21.26256       20.575517      115.3042      -234.12995     -88.226971      668.26953    
      2430   31.423907      21.265748      20.584942     -275.36035     -259.34141     -438.5046      -128.23503    
      2440   31.402136      21.239703      20.576732      98.706428     -99.389958      195.58634      199.9229     
      2450   31.392615      21.209064      20.599628     -378.53561     -498.0453       399.21849     -1036.78      
      2460   31.323759      21.17366       20.574628     -21.707913     -341.75435      688.90102     -412.2704     
      2470   31.283025      21.160845      20.558616      34.715169      28.501943      57.92863       17.714934    
      2480   31.287317      21.149478      20.573161     -680.1816      -984.63091     -147.34738     -908.56652    
      2490   31.245952      21.151801      20.531945     -143.36242     -647.44351     -850.62189      1067.9781    
      2500   31.218065      21.13553       20.555804     -87.466696      454.83813     -372.86108     -344.37713    
      2510   31.234721      21.113529      20.547133      87.914227     -193.99352      377.31926      80.416936    
      2520   31.206174      21.13542       20.539861     -154.60383      266.67002     -864.54078      134.05927    
      2530   31.194436      21.108422      20.541171     -122.58041      3.8839427     -351.77146     -19.853699    
      2540   31.145984      21.113087      20.533517     -180.79039      549.55636     -1282.8214      190.89387    
      2550   31.148927      21.071211      20.53085      -95.015414     -115.70069     -230.1115       60.765943    
      2560   31.085296      21.055265      20.535125     -105.32642      745.45775     -618.74442     -442.69257    
      2570   31.092886      21.037621      20.523899     -94.752568      127.07518     -353.34427     -57.988615    
      2580   31.017248      20.995962      20.519512      490.78895      1434.1154      149.63671     -111.38521    
      2590   30.983767      20.937507      20.502481     -303.34138     -664.42193     -99.676873     -145.92535    
      2600   30.972556      20.927458      20.492036      44.46849      -200.79337      149.64305      184.55579    
      2610   30.916485      20.909108      20.509453     -174.95314      656.034       -133.72473     -1047.1687    
      2620   30.906129      20.874762      20.482231     -96.530194     -232.0478       60.967702     -118.51048    
      2630   30.841181      20.847185      20.441467     -92.526841     -164.70939     -943.30173      830.43059    
      2640   30.832764      20.822168      20.465648     -173.66017     -83.442707     -136.88105     -300.65675    
      2650   30.797903      20.80867       20.477469     -294.01538      575.6931      -274.82409     -1182.9152    
      2660   30.773253      20.758487      20.445553      17.382257      8.0339111      280.40585     -236.29299    
      2670   30.764968      20.763748      20.441908     -4.7978061      3.2559243     -9.1283898     -8.5209528    
      2680   30.714502      20.73109       20.417079     -22.158767      14.225697     -649.36344      568.66144    
      2690   30.692015      20.691852      20.418148     -224.92639     -336.31884     -242.88849     -95.571848    
      2700   30.653378      20.681898      20.401983     -21.23376      -37.712413     -264.91951      238.93064    
      2710   30.595856      20.61487       20.396203      648.5483       1202.2943      567.44577      175.90487    
      2720   30.617385      20.628737      20.387641     -1.6599072     -336.51689      130.57731      200.95985    
      2730   30.59449       20.613265      20.38057       776.66044      922.28         582.81457      824.88675    
      2740   30.594133      20.624721      20.391462     -5.2767573      261.45932     -65.549903     -211.73969    
      2750   30.587459      20.601275      20.382012     -124.01976     -235.42282     -124.30255     -12.333903    
      2760   30.585775      20.576433      20.375612      461.20509     -96.135015      1032.8235      446.92678    
      2770   30.568393      20.588689      20.374687      0.4141521     -38.775287     -24.88565       64.903393    
      2780   30.516765      20.582262      20.353322      306.03991      933.15552     -632.80481      617.76902    
      2790   30.518438      20.548197      20.356208     -78.276839     -122.27155     -100.14844     -12.410534    
      2800   30.506142      20.535126      20.330523      161.75043     -424.02006     -133.9758       1043.2471    
      2810   30.438707      20.515615      20.322958      57.174003      511.44322     -751.81512      411.8939     
      2820   30.451778      20.494685      20.337508     -129.3097       57.486982     -97.619394     -347.7967     
      2830   30.444228      20.483012      20.340232     -267.98265     -103.36454      42.856007     -743.4394     
      2840   30.413271      20.459237      20.317113     -134.78285     -224.21179     -104.17146     -75.965311    
      2850   30.404304      20.452802      20.310884     -63.351412     -159.81415     -16.598482     -13.641608    
      2860   30.387923      20.438551      20.302999      9.7953977     -73.474009      1.5326263      101.32758    
      2870   30.367802      20.418453      20.294865      30.380506     -88.217504      91.917476      87.441545    
      2880   30.351628      20.371821      20.303437     -227.29676     -600.44443      1001.6775     -1083.1233    
      2890   30.335975      20.388456      20.274467      668.69149      370.42847      796.67496      838.97104    
      2900   30.329962      20.400937      20.286073      7.0503889      122.71343     -22.659339     -78.902922    
      2910   30.334155      20.384474      20.273938     -63.150596     -677.75674      136.96854      351.33641    
      2920   30.315218      20.357442      20.254914      297.20263     -789.20698      593.31176      1087.5031    
      2930   30.277164      20.366339      20.247604      83.277492     -177.96675     -421.41031      849.20954    
      2940   30.251441      20.338599      20.251379     -93.008499     -28.494434     -93.694546     -156.83652    
      2950   30.239992      20.302928      20.250203     -1230.1979     -1622.8705     -318.02558     -1749.6975    
      2960   30.19652       20.304965      20.223727      330.43995      561.89177      139.28765      290.14043    
      2970   30.218353      20.308855      20.230896     -290.24076     -631.27023     -158.05762     -81.39444     
      2980   30.203147      20.310015      20.238071     -164.16914     -5.0810618     -163.71484     -323.71152    
      2990   30.194543      20.307606      20.236291      72.261928      359.33128     -41.29046      -101.25503    
      3000   30.192381      20.298453      20.226569      368.33102      317.69924      251.29448      535.99934    
      3010   30.194411      20.289803      20.219561      47.612371     -497.12197      57.461483      582.4976     
      3020   30.174511      20.277013      20.221606     -1193.0924     -1765.1875     -962.10266     -851.98699    
      3030   30.057111      20.254117      20.161479      1657.7489      2445.784      -99.757212      2627.2199    
      3040   30.118281      20.22258       20.18513      -169.41761     -1081.7409      224.11657      349.37153    
      3050   30.034666      20.229538      20.141709      578.51053      954.37375     -714.32433      1495.4822    
      3060   30.053909      20.197065      20.168715      65.6085       -109.4971       300.55272      5.7698843    
      3070   30.050358      20.191843      20.173537      137.89233     -82.125047      435.34591      60.456113    
      3080   30.039841      20.193341      20.173745      192.368        60.600232      245.23471      271.26907    
      3090   30.01686       20.190223      20.168487      312.61077      370.34827      82.775488      484.70856    
      3100   29.944997      20.159847      20.159526      262.0458       1003.9734     -132.11769     -85.718361    
      3110   29.946972      20.150118      20.135333     -277.78905     -478.89349     -707.9144       353.44075    
      3120   29.940114      20.142455      20.136698     -239.32858     -278.62659     -476.85726      37.498112    
      3130   29.918228      20.122621      20.122293     -94.091861     -68.661993      7.7200268     -221.33362    
      3140   29.89456       20.134058      20.125324     -609.69169      127.29103     -865.20806     -1091.158     
      3150   29.888704      20.104862      20.122499     -19.688918      108.93476      277.43445     -445.43597    
      3160   29.833514      20.076108      20.086497      121.83966     -509.1861       41.556598      833.14848    
      3170   29.808071      20.083582      20.093459     -30.414155      337.36202     -451.95491      23.350422    
      3180   29.807696      20.070597      20.07817       31.658394     -169.76226     -112.02922      376.76666    
      3190   29.780688      20.060077      20.09387      -162.59425      395.83922      41.1311       -924.75307    
      3200   29.765208      20.051668      20.071812      31.22945       41.289994      29.752431      22.645924    
      3210   29.739231      20.041598      20.066533     -171.40532     -209.99638     -49.934289     -254.28529    
      3220   29.728285      20.03522       20.057621     -50.482982     -224.74117     -67.442794      140.73502    
      3230   29.676259      20.027372      20.045215     -398.28368     -446.78184     -644.06981     -103.99938    
      3240   29.667759      20.007914      20.0533       -118.51846     -107.41551      181.53316     -429.67301    
      3250   29.65056       20.036392      20.043535     -428.50664      63.929803     -1141.0157     -208.43401    
      3260   29.652263      20.001207      20.041161     -178.74104     -612.03056      155.66653     -79.859087    
      3270   29.603343      20.002231      20.029881      135.79136      357.72311     -223.03449      272.68545    
      3280   29.60115       19.990888      20.030738      30.812553      45.079589      36.619651      10.738419    
      3290   29.564682      19.962817      20.039671     -52.427613     -317.20988      799.00536     -639.07831    
      3300   29.468407      19.960245      20.016094     -17.870081      53.6757        40.74881      -148.03475    
      3310   29.474326      19.953004      19.995979      166.81539     -382.45823      137.02481      745.87959    
      3320   29.448871      19.952772      20.00215       92.03954       81.864685      47.327172      146.92676    
      3330   29.437209      19.948539      20.002072      118.17383      143.20586      211.24487      0.070754727  
      3340   29.400898      19.954378      19.990284      201.04771      409.23029     -278.30952      472.22237    
      3350   29.328512      19.914475      19.98665       181.23596      116.08965      348.42228      79.195964    
      3360   29.184535      19.848976      19.961075     -307.72531     -1267.5444      639.06728     -294.69883    
      3370   29.156612      19.871898      19.953626      393.41353      168.78255      282.32949      729.12855    
      3380   29.156965      19.863766      19.967029      344.14928      220.69179      832.96691     -21.210856    
      3390   29.151162      19.890814      19.968392     -50.665678      42.420372     -157.5509      -36.866507    
      3400   29.138513      19.891777      19.973138     -158.36905      57.877997     -284.10891     -248.87624    
      3410   29.121348      19.884139      19.97482       88.096973      75.804188      299.52394     -111.0372     
      3420   29.098599      19.881758      19.977226     -55.541232      204.50779     -108.95096     -262.18052    
      3430   29.082589      19.871746      19.978047     -405.76063     -634.86616     -371.74363     -210.6721     
      3440   29.027921      19.863776      19.987116     -378.00802      75.65522      -539.26911     -670.41016    
      3450   28.980334      19.837176      19.978509      130.80366      855.78208     -64.618155     -398.75294    
      3460   28.925053      19.805829      19.953676      546.84194      478.34993      242.4538       919.72208    
      3470   28.930987      19.818627      19.969534     -1026.4879     -1819.5427     -951.24831     -308.67268    
      3480   28.909648      19.802875      19.966908     -18.168745      131.58791     -46.475766     -139.61838    
      3490   28.912115      19.809848      19.965347      51.304439     -25.343058      74.013467      105.24291    
      3500   28.878434      19.826151      19.984102      92.789146      699.13707      40.507783     -461.27741    
      3510   28.898937      19.832854      19.971681      258.70568      331.75891      223.64467      220.71346    
      3520   28.907021      19.826486      19.967251      265.86362      67.588539      352.84637      377.15594    
      3530   28.880693      19.82987       19.971702      10.930869      117.97026     -77.756159     -7.4214979    
      3540   28.875695      19.822167      19.955847      112.52143      39.81293      -387.86517      685.61652    
      3550   28.83978       19.816738      19.973694      133.23071      520.55121     -241.39795      120.53888    
      3560   28.824595      19.800571      19.974008      239.12128      394.82026      72.141046      250.40253    
      3570   28.778678      19.773348      19.970895      342.74459      311.2994       275.76271      441.17164    
      3580   28.738027      19.758832      19.971733      816.23365      902.27713      896.16668      650.25713    
      3590   28.748281      19.792953      19.959909     -72.855298     -153.32498     -967.12328      901.88237    
      3600   28.748327      19.763363      19.979517     -253.21642     -278.46641      107.60662     -588.78946    
      3610   28.732226      19.771124      19.972504      23.431156      381.27455     -152.4248      -158.55628    
      3620   28.729833      19.771526      19.965253      255.98879      445.67539     -31.943432      354.2344     
      3630   28.743183      19.764765      19.967107      46.058101     -231.80633      261.86301      108.11762    
      3640   28.745233      19.771933      19.967601     -210.66918     -431.67562     -78.376206     -121.95571    
      3650   28.730196      19.78319       19.966309     -147.31037      118.77467     -452.02254     -108.68324    
      3660   28.725235      19.773188      19.9671        138.80723      306.14545      132.70833     -22.432096    
      3670   28.728044      19.766958      19.965452      205.4006       92.835613      414.92493      108.44127    
      3680   28.728803      19.778276      19.960377     -158.80451     -375.16682     -316.60001      215.35331    
      3690   28.718075      19.776528      19.966204     -355.85003     -378.83206     -475.58766     -213.13038    
      3700   28.69603       19.7531        19.973702      77.930465      236.2055       459.19126     -461.60537    
      3710   28.675889      19.751009      19.960459      472.71981      698.12657      368.9977       351.03517    
      3720   28.665092      19.758482      19.941795      115.7771       38.280994     -657.94371      966.99402    
      3730   28.650563      19.724637      19.954153     -652.52142     -1302.8369     -213.98678     -440.74058    
      3740   28.578878      19.70168       19.961979     -350.22389     -180.41775      206.17537     -1076.4293    
      3750   28.503727      19.686234      19.942461      125.53905      419.88409      132.82982     -176.09676    
      3760   28.458626      19.697341      19.954058     -316.91718      1147.5119     -879.22659     -1219.0369    
      3770   28.494462      19.674466      19.942017      74.797578      19.477514      367.85427     -162.93905    
      3780   28.477045      19.702542      19.955748     -79.023042      232.62908     -363.08387     -106.61434    
      3790   28.488009      19.724523      19.959854      153.76908      265.98027      109.32104      86.005931    
      3800   28.491647      19.742195      19.959241      22.76239      -87.930384      229.32462     -73.107066    
      3810   28.477119      19.766696      19.94965      -38.361838      50.895695     -467.3473       301.36609    
      3820   28.46594       19.758065      19.945905      0.23354447    -343.11693      163.42602      180.39154    
      3830   28.446422      19.759093      19.936836      66.95959      -52.985603      90.040024      163.82435    
      3840   28.431513      19.76122       19.923241      97.597272     -139.73586     -508.00925      940.53692    
      3850   28.408861      19.729593      19.939134      1.0352524      66.732598     -80.557007      16.930166    
      3860   28.388378      19.687789      19.935778     -0.48432207    -380.23106      411.66193     -32.883834    
      3870   28.353246      19.679014      19.932941     -152.42411     -438.8626       209.84243     -228.25216    
      3880   28.341677      19.718409      19.92493       19.924259     -48.615292      27.204268      81.183801    
      3890   28.339042      19.734567      19.921606      112.03228      85.306829      73.706644      177.08336    
      3900   28.335091      19.744989      19.92454       86.690953      19.096298      63.752467      177.22409    
      3910   28.326452      19.751252      19.926511      46.159864     -49.823908      116.56985      71.733645    
      3920   28.319254      19.746541      19.922131      72.229751     -21.876844      133.87145      104.69465    
      3930   28.312325      19.745659      19.921295     -126.82519     -190.87613     -290.74827      101.14882    
      3940   28.311454      19.738988      19.924892     -190.09104     -259.91147     -80.998903     -229.36274    
      3950   28.296402      19.710138      19.937076     -193.38372     -157.99618      567.83979     -989.99478    
      3960   28.274959      19.716041      19.909668      266.23411      202.95188     -152.03332      747.78377    
      3970   28.252493      19.709676      19.912157      370.29223      811.35869     -235.51536      535.03336    
      3980   28.265029      19.685653      19.923237     -102.75614     -231.5997       420.5675      -497.23623    
      3990   28.265877      19.691782      19.914289     -307.16963     -649.35518     -68.348601     -203.80512    
      4000   28.238363      19.69551       19.907852     -25.081346      181.83522     -415.29114      158.21188    
      4010   28.216156      19.675955      19.911166      370.34737      763.67204      282.93399      64.436062    
      4020   28.228931      19.659736      19.903941      194.50439     -463.74058      821.59766      225.65608    
      4030   28.215511      19.687254      19.892071     -521.28894     -1034.3756     -778.42156      248.93037    
      4040   28.181054      19.679433      19.894142     -279.2066      -318.86711     -443.53963     -75.213054    
      4050   28.145426      19.679283      19.887793      455.35319      977.19361     -164.03059      552.89654    
      4060   28.160371      19.681518      19.879904      310.74341      176.90928     -18.030524      773.35147    
      4070   28.16555       19.677595      19.897497     -242.04585     -427.45437      48.508531     -347.19172    
      4080   28.144186      19.685589      19.901752      22.514758      604.157       -87.001338     -449.61139    
      4090   28.152378      19.69911       19.880404      388.85801      227.7135      -206.93422      1145.7947    
      4100   28.175234      19.706823      19.894581     -691.13909     -1426.9469     -602.85111     -43.619263    
      4110   28.137946      19.698422      19.914427      13.833252      483.1157       571.93167     -1013.5476    
      4120   28.145959      19.706708      19.892426      475.28421      113.21861      818.56579      494.06823    
      4130   28.147892      19.724821      19.898625     -268.55512     -530.02052     -24.439704     -251.20514    
      4140   28.127903      19.730916      19.898335      54.144494      289.17022      66.056906     -192.79364    
      4150   28.13226       19.733966      19.885749      164.57942     -185.02355      231.63881      447.12299    
      4160   28.117773      19.743134      19.901365     -582.48588     -399.75473     -499.61824     -848.08467    
      4170   28.082313      19.745661      19.884076      579.58272      1196.521      -80.730744      622.95789    
      4180   28.100405      19.754312      19.875973     -156.30727     -518.03314     -681.6993       730.81064    
      4190   28.075864      19.755291      19.891581     -375.69063      127.82724     -802.22715     -452.672      
      4200   28.060139      19.736589      19.877711      631.95265      651.84485      334.06297      909.95013    
      4210   28.074806      19.734525      19.891649     -610.76605     -1073.628      -108.42601     -650.24412    
      4220   28.036008      19.725122      19.891149      270.60217      625.34629      637.09149     -450.63126    
      4230   28.048105      19.717275      19.879302      186.2643      -536.28716      803.11334      291.96674    
      4240   28.030682      19.725404      19.892236     -303.60431     -235.40594      109.05877     -784.46575    
      4250   28.014469      19.723755      19.880505      353.98666      527.10251      257.26899      277.58849    
      4260   28.021149      19.727598      19.87636      -116.61171     -326.18959     -244.27408      220.62853    
      4270   28.002523      19.719047      19.883484     -101.57009      128.89555     -291.05774     -142.5481     
      4280   27.995253      19.712855      19.871946      247.40926      293.44596     -61.872053      510.65386    
      4290   28.006503      19.70687       19.87644      -342.5263      -745.54713     -229.23434     -52.797436    
      4300   27.975778      19.694892      19.88849       90.723432      713.78717      320.04041     -761.65728    
      4310   27.993132      19.68885       19.871231      303.71237     -158.71131      581.00391      488.8445     
      4320   27.987067      19.694518      19.882172     -295.24366     -352.59508     -42.468251     -490.66764    
      4330   27.971579      19.686666      19.878094      180.40932      323.54915      237.40526     -19.726435    
      4340   27.977892      19.683058      19.874081     -9.0256205     -349.61197      197.99846      124.53665    
      4350   27.953642      19.676206      19.892298     -377.12694      168.47854      100.26196     -1400.1213    
      4360   27.93922       19.659569      19.859587      917.839        713.46698      1001.9439      1038.1061    
      4370   27.95121       19.677211      19.869631     -529.97698     -707.8514      -490.03593     -392.04361    
      4380   27.922897      19.681374      19.86502       99.041076      684.18738     -428.83576      41.771611    
      4390   27.934559      19.674826      19.858975      50.339313     -94.798362     -156.0313       401.8476     
      4400   27.927732      19.679199      19.866497     -263.46663     -56.293327     -453.05012     -281.05643    
      4410   27.913191      19.675742      19.857093      454.90993      665.55322      127.85235      571.32422    
      4420   27.937953      19.67578       19.859856     -341.33105     -965.06938     -137.0457       78.121941    
      4430   27.902438      19.675428      19.875217     -51.485701      651.2078       70.591746     -876.25665    
      4440   27.914606      19.675249      19.855857      228.27331     -134.02974      287.05732      531.79237    
      4450   27.903981      19.6863        19.870782     -458.50352     -259.47719     -322.98034     -793.05302    
      4460   27.878207      19.674337      19.856714      918.4681       1088.8161      923.73986      742.84834    
      4470   27.90869       19.679943      19.863514     -472.68599     -1345.8709      211.08614     -283.27326    
      4480   27.857727      19.683912      19.869012      192.97412      716.00465      429.78402     -566.86629    
      4490   27.877784      19.6822        19.851341      59.360387     -845.86082      540.96337      482.97861    
      4500   27.843903      19.692025      19.866852     -155.85492      269.1457       35.963554     -772.67402    
      4510   27.847629      19.683866      19.845893      398.34792     -160.20551      560.3961       794.85319    
      4520   27.831828      19.694523      19.866828     -709.86739     -354.34073     -459.66009     -1315.6013    
      4530   27.809413      19.680554      19.838932      699.5132       653.85122      626.93812      817.75027    
      4540   27.818158      19.686923      19.847159     -524.71015     -781.78866     -288.05482     -504.28699    
      4550   27.779487      19.675535      19.843511      557.6112       1113.7617      519.93654      39.135361    
      4560   27.807138      19.670364      19.833204     -293.42249     -1211.3719      98.0186        233.08584    
      4570   27.758207      19.671772      19.843308      41.954335      725.0701      -47.052438     -552.15466    
      4580   27.77044       19.665084      19.824705      93.597688     -365.74247      92.495761      554.03978    
      4590   27.747938      19.670061      19.841293     -357.88347      216.1113      -501.22477     -788.53694    
      4600   27.749447      19.657921      19.818059      658.59307      376.9559       370.60448      1228.2188    
      4610   27.751214      19.663103      19.836194     -389.26363     -328.31195     -385.61699     -453.86197    
      4620   27.735659      19.65412       19.829109      375.73247      535.04971      224.22337      367.92431    
      4630   27.757246      19.654579      19.831577     -426.84732     -938.84535     -244.02169     -97.674916    
      4640   27.729291      19.650213      19.835741      109.53557      483.23164      45.757303     -200.38225    
      4650   27.744226      19.644862      19.822454      5.3778257     -530.35522      44.206276      502.28243    
      4660   27.716994      19.64824       19.839393     -292.72871      447.80035     -452.2228      -873.76367    
      4670   27.725072      19.632417      19.819554      278.80025      9.8681857      165.25022      661.28236    
      4680   27.717607      19.634928      19.829408     -478.11669     -244.13783     -537.89233     -652.31992    
      4690   27.697693      19.618356      19.810867      844.1629       1024.0122      535.10518      973.37134    
      4700   27.718496      19.619616      19.819664     -404.8381      -672.41137     -263.19906     -278.90388    
      4710   27.692958      19.610669      19.816923      266.03212      633.95794      193.1215      -28.983074    
      4720   27.724072      19.604065      19.801488     -199.77337     -1262.3261      124.21169      538.79433    
      4730   27.684527      19.605319      19.813175     -77.286558      443.87267     -96.702206     -579.03014    
      4740   27.695831      19.589783      19.791973      267.93854     -300.96285      285.51671      819.26177    
      4750   27.677467      19.599251      19.810672     -710.24799     -75.653516     -703.11814     -1351.9723    
      4760   27.67119       19.582709      19.780035      618.01689      493.13823      506.85803      854.05441    
      4770   27.670988      19.597121      19.790081     -15.790111      49.448829     -28.635337     -68.183824    
      4780   27.670461      19.602973      19.798346     -76.459962      83.007641      268.70408     -581.09161    
      4790   27.66643       19.63209       19.779928      0.25452151    -20.870151      18.013089      3.6206261    
      4800   27.652783      19.63798       19.76045      -94.232155     -143.90909     -72.398455     -66.388915    
      4810   27.653556      19.630083      19.741204      223.62404     -579.08284      424.57414      825.38081    
      4820   27.635248      19.614863      19.759362     -29.730974      168.34871     -50.981719     -206.55991    
      4830   27.629613      19.592751      19.746063     -2.3422357     -38.688128     -3.0874597      34.748881    
      4840   27.625385      19.577571      19.739199      17.615244      26.056293      21.635226      5.1542124    
      4850   27.624146      19.570064      19.729251     -191.4254      -318.72781     -154.69725     -100.85115    
      4860   27.596212      19.554217      19.703313      36.133887      594.33109     -101.27257     -384.65686    
      4870   27.606986      19.557707      19.695053      23.041827     -13.744418      25.580122      57.289776    
      4880   27.572319      19.581832      19.692156      652.4955       1537.9824      313.216        106.28808    
      4890   27.589139      19.598722      19.68013       20.787084     -41.275354      20.536892      83.099716    
      4900   27.568277      19.599557      19.658663      406.93879      550.93237      262.89257      406.99143    
      4910   27.536458      19.604101      19.626067      703.88045      1363.7112     -292.9498       1040.88      
      4920   27.562343      19.585062      19.640102      5.8017646      35.943004     -60.121797      41.584086    
      4930   27.573127      19.569677      19.637771     -331.84056     -435.04696     -267.69376     -292.78097    
      4940   27.557897      19.534818      19.620645      795.3438       960.85312      893.37283      531.80544    
      4950   27.581825      19.538861      19.603398     -332.6113      -376.24595     -655.15758      33.569651    
      4960   27.584516      19.510021      19.569559     -75.375402      110.14715     -76.135414     -260.13794    
      4970   27.58887       19.498979      19.543037     -61.096317     -138.51134     -42.382892     -2.3947146    
      4980   27.570803      19.521117      19.542677     -164.39325      258.69889     -441.64693     -310.2317     
      4990   27.572358      19.533685      19.529182      28.472563     -234.50368      91.313337      228.60804    
      5000   27.550264      19.55123       19.518754     -25.803435      22.052887     -71.229431     -28.233761    
      5010   27.535541      19.558705      19.496684      3.6657128     -82.41934      -14.752775      108.16925    
      5020   27.500333      19.551652      19.457426      229.95931      482.44268      133.84306      73.592189    
      5030   27.491361      19.535249      19.3996        236.29629     -200.04891      248.70484      660.23295    
      5040   27.483546      19.536068      19.388105     -1375.148      -1543.1461     -1320.041      -1262.2569    
      5050   27.479095      19.524774      19.376808     -625.06232     -938.11417     -518.71185     -418.36094    
      5060   27.4447        19.522642      19.378596      226.12978      1404.2632     -68.872375     -657.0015     
      5070   27.474817      19.521827      19.352306      410.92733      158.86652     -167.93834      1241.8538    
      5080   27.489354      19.512732      19.368438     -372.36473     -730.55849     -238.20855     -148.32714    
      5090   27.478504      19.502834      19.374498     -45.200487      152.05555      266.31232     -553.96933    
      5100   27.480786      19.497333      19.360562      573.32467      604.86479      676.13506      438.97417    
      5110   27.502846      19.510061      19.354533     -232.50487     -509.43678     -530.81868      342.74087    
      5120   27.497847      19.505698      19.361571     -284.24512     -10.853291     -589.7605      -252.12157    
      5130   27.500853      19.488227      19.357678      281.32596      390.30763      351.92588      101.74438    
      5140   27.520845      19.48103       19.351068      138.75546     -277.08784      508.49784      184.85638    
      5150   27.526761      19.489828      19.354018     -568.89139     -450.23412     -533.73835     -722.7017     
      5160   27.515891      19.483361      19.344265      134.80016      699.66731     -347.66002      52.393172    
      5170   27.543657      19.463314      19.332903      245.55844     -104.21742      257.93875      582.95399    
      5180   27.554411      19.459812      19.336036     -218.64567     -423.92481      10.095028     -242.10724    
      5190   27.544487      19.46105       19.333165     -48.860991      421.89384     -229.6728      -338.80401    
      5200   27.55328       19.453951      19.320431      277.34845      273.9453      -23.730011      581.83008    
      5210   27.56767       19.445721      19.325059     -178.71643     -496.06926     -10.550692     -29.529323    
      5220   27.56189       19.441402      19.325455     -68.963952      7.7375117      122.24688     -336.87625    
      5230   27.559427      19.440479      19.313963      296.34847      428.6455       215.308        245.09192    
      5240   27.572731      19.445676      19.301763     -67.080257     -273.86158     -444.42244      517.04325    
      5250   27.571553      19.440517      19.305088     -535.69477     -276.65849     -763.66211     -566.76372    
      5260   27.567908      19.415868      19.289421      313.29699      497.58494      533.00958     -90.703563    
      5270   27.596298      19.407873      19.260492      226.88155     -733.88211      600.36883      814.15795    
      5280   27.592286      19.417617      19.241221     -1256.2656     -1044.8483     -1572.8359     -1151.1124    
      5290   27.574476      19.402109      19.234115     -43.342077      334.35309      1.1412328     -465.52056    
      5300   27.570344      19.421134      19.228356      61.797373      69.673297      11.360671      104.35815    
      5310   27.548064      19.432508      19.228433      83.326249      101.30376      10.287449      138.38754    
      5320   27.508021      19.444094      19.226572      41.124865      54.079364      87.147459     -17.852229    
      5330   27.455452      19.444462      19.209244      14.699625     -0.36782888    -9.0343969      53.501101    
      5340   27.40927       19.425332      19.18169       16.769469      91.78746       20.411469     -61.890523    
      5350   27.378551      19.399274      19.131947      213.52594      82.972163      158.11327      399.4924     
      5360   27.346361      19.354838      19.051259     -65.888501     -322.7222      -15.072688      140.12939    
      5370   27.339284      19.32424       19.023761     -364.71974      65.998265      271.84319     -1432.0007    
      5380   27.366749      19.346845      19.014426     -158.20873      632.99453     -590.86282     -516.75791    
      5390   27.461821      19.342923      19.015998     -1257.2348     -1587.7277     -1153.2723     -1030.7045    
      5400   27.49965       19.323551      19.00622       0.00035453536  7.1661271      19.76194      -26.927003    
      5410   27.523913      19.311673      18.991324     -14.936289      37.860986     -141.50023      58.830378    
      5420   27.549795      19.284489      18.970994      54.79109      -200.22924      181.19168      183.41083    
      5430   27.550093      19.269108      18.959134      63.415929      64.083946      194.54105     -68.377209    
      5440   27.536676      19.243693      18.949271     -109.14332      753.34268      112.18129     -1192.9539    
      5450   27.548322      19.249789      18.93746       3.39437        17.468189     -3.6928678     -3.5922114    
      5460   27.538463      19.253495      18.941967      25.815337      14.197919      20.370873      42.877219    
      5470   27.498938      19.250077      18.947582      87.238116      263.24474      158.79891     -160.3293     
      5480   27.457184      19.247075      18.926876      669.56672      976.68435      172.15216      859.86364    
      5490   27.446992      19.229145      18.907058     -34.455175     -242.2404       1.7498266      137.12505    
      5500   27.402871      19.208478      18.887158      332.72763      968.31588      148.14681     -118.27981    
      5510   27.419442      19.19639       18.868566     -257.00333     -374.80798     -194.38088     -201.82113    
      5520   27.413487      19.182568      18.854867      293.9241       119.0283       269.43097      493.31304    
      5530   27.408889      19.178045      18.859289     -319.78718      104.74079     -380.95386     -683.14846    
      5540   27.427709      19.156612      18.835242      157.96807     -275.40171      209.89785      539.40806    
      5550   27.420833      19.148961      18.838292     -93.998026      398.34712     -199.32927     -481.01192    
      5560   27.455476      19.134574      18.817265     -16.761107     -853.74268      141.60977      661.84959    
      5570   27.428601      19.131049      18.826333      261.04159      1267.0184     -27.094175     -456.79945    
      5580   27.478968      19.124568      18.811773     -399.96936     -1032.7298     -229.49435      62.316056    
      5590   27.464603      19.114338      18.809355      412.18144      775.47621      255.12666      205.94145    
      5600   27.496057      19.112294      18.808599     -394.14039     -570.25493     -310.48382     -301.68242    
      5610   27.491294      19.099227      18.796758      629.37566      693.54191      505.13698      689.44808    
      5620   27.515752      19.104148      18.806766     -748.17994     -497.97789     -702.41353     -1044.1484    
      5630   27.522403      19.087316      18.784012      496.38115      76.802732      507.06008      905.28065    
      5640   27.521528      19.09085       18.794288     -221.75922      109.74877     -255.88619     -519.14025    
      5650   27.533065      19.082861      18.780431      109.21234     -164.51399      153.03339      339.11762    
      5660   27.524568      19.08242       18.783239     -98.904327      424.09722     -183.62625     -537.18395    
      5670   27.549921      19.073309      18.763782     -33.528757     -736.44519      133.62798      502.23094    
      5680   27.519843      19.072768      18.770171      209.09791      846.9263       67.404471     -287.03703    
      5690   27.543794      19.067494      18.756079     -245.2902      -624.92189     -116.18884      5.2401153    
      5700   27.525978      19.057739      18.747344      310.15591      582.93406      221.83213      125.70155    
      5710   27.545985      19.050958      18.737852     -597.38595     -884.27075     -430.3261      -477.56098    
      5720   27.513811      19.028772      18.715399      942.40263      1028.5398      807.37182      991.29621    
      5730   27.521551      19.028005      18.719421     -812.67423     -467.63419     -755.88828     -1214.5002    
      5740   27.514649      18.992009      18.674858      701.52541      240.79426      689.22903      1174.5529    
      5750   27.500716      18.983084      18.675885     -580.59146      110.74679     -653.48816     -1199.033     
      5760   27.505598      18.946607      18.627381      408.60663     -396.04718      478.88592      1142.9812    
      5770   27.464104      18.937471      18.630953     -257.7064       689.40077     -458.266       -1004.254     
      5780   27.484513      18.909352      18.591086      14.877533     -771.62494      127.5696       688.68795    
      5790   27.454701      18.892873      18.585443      73.218309      523.6596      -42.290474     -261.7142     
      5800   27.473838      18.884743      18.576479     -292.72731     -697.94945     -198.20184      17.96936     
      5810   27.450964      18.875404      18.574139      390.12076      600.54704      265.43454      304.3807     
      5820   27.464688      18.879792      18.582001     -572.9549      -405.71257     -554.81454     -758.33759    
      5830   27.46646       18.868134      18.570802      323.48845     -66.751672      351.51517      685.70183    
      5840   27.458478      18.871435      18.585335     -114.28977      378.57044     -190.87814     -530.56162    
      5850   27.484287      18.863698      18.578525     -109.12267     -686.22396      47.349273      311.50668    
      5860   27.463203      18.862135      18.585658      409.81946      887.89942      294.71179      46.847171    
      5870   27.492567      18.864823      18.590689     -599.71242     -749.41111     -449.46034     -600.2658     
      5880   27.485995      18.851436      18.576043      766.05361      354.0902       780.28973      1163.7809    
      5890   27.484155      18.860312      18.594038     -354.48025      250.77109     -425.4032      -888.80865    
      5900   27.508726      18.846192      18.572738      85.037563     -793.86171      233.47366      815.50074    
      5910   27.471821      18.845207      18.581902      281.2152       1133.3754      26.193132     -315.92299    
      5920   27.506459      18.837596      18.571137     -655.34137     -1194.4906     -511.26488     -260.26862    
      5930   27.473156      18.817447      18.555802      922.63358      958.6053       737.02294      1072.2725    
      5940   27.476586      18.81965       18.570797     -706.73263     -159.4979      -745.85911     -1214.8409    
      5950   27.48602       18.795484      18.541912      355.04942     -483.12455      491.24972      1057.0231    
      5960   27.44998       18.791808      18.5582        12.018394      985.80648     -146.64948     -803.10182    
      5970   27.487865      18.776615      18.540018     -429.94495     -1335.152      -120.58853      165.90572    
      5980   27.437659      18.749978      18.536765      1045.1188      1637.2993      866.95055      631.10656    
      5990   27.467553      18.736738      18.54571      -1184.5851     -1092.5494     -1000.9065     -1460.2994    
      6000   27.456541      18.69303       18.513791      834.2202       112.68738      865.76605      1524.2072    
      6010   27.434875      18.685851      18.537297     -471.9638       564.57448     -699.4939      -1280.972     
      6020   27.466703      18.652665      18.507502      199.22932     -866.49923      337.84956      1126.3376    
      6030   27.431769      18.647234      18.526184      21.492974      875.1508      -207.65258     -603.01929    
      6040   27.464689      18.636322      18.513425     -217.43293     -791.58332     -90.277522      229.56204    
      6050   27.444774      18.621179      18.519646      223.53293      713.18974      79.659251     -122.2502     
      6060   27.472391      18.612823      18.515306     -336.22925     -778.68521     -199.14149     -30.861048    
      6070   27.442049      18.601306      18.514544      864.66811      1411.543       656.38215      526.07916    
      6080   27.472073      18.60148       18.519772     -454.75699     -545.7618      -367.75267     -450.75649    
      6090   27.462917      18.587078      18.513769      368.35733      346.5905       333.51637      424.96511    
      6100   27.473037      18.58744       18.521689     -504.44949     -311.03302     -485.77449     -716.54097    
      6110   27.47629       18.572034      18.503896      626.30104      66.838538      649.55959      1162.505     
      6120   27.46677       18.578171      18.521576     -285.24294      202.61557     -379.45918     -678.88521    
      6130   27.477323      18.564896      18.508678      112.35921     -167.41334      147.87916      356.61182    
      6140   27.464214      18.561939      18.514962     -105.33276      412.20256     -220.9744      -507.22644    
      6150   27.487948      18.547856      18.497262     -31.390129     -1025.9217      183.30553      748.44578    
      6160   27.45169       18.542073      18.506882      130.01833      603.76229      17.573176     -231.28049    
      6170   27.466072      18.526947      18.493181     -175.15691     -537.42219     -62.829768      74.781212    
      6180   27.428878      18.506863      18.487712      373.97283      861.23948      242.98806      17.690948    
      6190   27.453043      18.500987      18.481503     -801.27516     -1319.0807     -573.50778     -511.23695    
      6200   27.417989      18.481194      18.468001      525.07803      617.75942      438.35061      519.12405    
      6210   27.419801      18.472929      18.466675     -331.37396     -288.48209     -310.15108     -395.48873    
      6220   27.405927      18.454808      18.452593      393.77465      238.31455      370.21611      572.79329    
      6230   27.400502      18.455996      18.462286     -536.9523      -44.567189     -592.46589     -973.82381    
      6240   27.407001      18.44139       18.444886      228.8077      -171.05454      297.97536      559.50229    
      6250   27.394173      18.438926      18.452385     -91.81927       180.08055     -131.23562     -324.30273    
      6260   27.404677      18.424312      18.440987      85.57206      -360.39487      193.96637      423.14469    
      6270   27.380865      18.420845      18.45238       34.882579      863.99522     -124.34094     -635.00655    
      6280   27.409415      18.409255      18.439643     -165.41618     -720.52589     -15.317467      239.59481    
      6290   27.388066      18.39892       18.443394      179.015        503.61012      80.855171     -47.42029     
      6300   27.4073        18.385929      18.440135     -305.29781     -666.28065     -203.46002     -46.152748    
      6310   27.376227      18.366364      18.438273      885.59111      1421.5302      641.08843      594.15467    
      6320   27.405992      18.363879      18.446249     -805.30795     -902.43584     -692.65145     -820.83656    
      6330   27.391529      18.33531       18.434723      389.15007      308.62917      374.97224      483.8488     
      6340   27.39543       18.323122      18.443753     -397.07071     -210.54316     -384.6718      -595.99716    
      6350   27.394325      18.306543      18.440991      83.696173      10.372226      599.32199     -358.6057     
      6360   27.393626      18.309796      18.431716      3.8159383      7.0915665     -29.806427      34.162675    
      6370   27.394631      18.303587      18.428836      5.1083494     -4.2377807      15.921059      3.6417703    
      6380   27.407767      18.306336      18.429811     -382.12842     -348.65953     -412.47236     -385.25337    
      6390   27.429115      18.291958      18.436372      276.09353     -62.147015      946.23758     -55.809983    
      6400   27.431501      18.30549       18.431243     -68.75313      -25.769559     -153.72998     -26.759854    
      6410   27.431462      18.29716       18.420123     -17.067218      35.255473     -132.91854      46.461412    
      6420   27.44658       18.278052      18.399255     -46.895884     -716.31144      373.32423      202.29955    
      6430   27.429553      18.270537      18.370418      97.679548      362.189       -71.88619       2.7358339    
      6440   27.468474      18.263351      18.3551        100.38327     -964.63046      644.71653      621.06373    
      6450   27.461686      18.270227      18.351797     -20.117702      101.36441     -184.3735       22.655987    
      6460   27.467325      18.268365      18.340822      176.06679      689.88332     -627.54007      465.85712    
      6470   27.49479       18.221986      18.332825      68.5115        46.346621      71.088411      88.099469    
      6480   27.519985      18.175896      18.309374     -542.93068     -936.40393     -530.34942     -162.03869    
      6490   27.513096      18.124973      18.295998      103.30091      150.27473      518.34903     -358.72103    
      6500   27.51333       18.097461      18.269369      154.09042      516.19412     -133.81865      79.895791    
      6510   27.526384      18.077353      18.255639     -89.189688     -2.5637352     -302.0281       37.022769    
      6520   27.543271      18.048839      18.239553     -86.838123     -441.47902      95.315116      85.649535    
      6530   27.546883      18.026123      18.224975      132.98183     -103.32048      424.30182      77.96414     
      6540   27.54294       18.016993      18.216167      155.68594      456.22099      238.00736     -227.17053    
      6550   27.551754      18.012221      18.204764     -93.123368      215.04064     -199.475       -294.93575    
      6560   27.563677      18.006888      18.191985     -125.80748     -159.70822     -267.18533      49.471101    
      6570   27.56917       17.999962      18.181575      52.867511     -148.09496      20.071379      286.62612    
      6580   27.570329      17.990673      18.176365      232.65938      116.65865      456.35154      124.96796    
      6590   27.574029      17.987443      18.175269     -14.05824       104.05533      258.39395     -404.624      
      6600   27.581763      17.988917      18.169189     -350.72279     -40.457297     -290.06955     -721.64153    
      6610   27.59194       17.988851      18.148769     -134.23206      32.219079     -475.51272      40.597474    
      6620   27.600813      17.983807      18.135267      56.46788       86.559503     -262.64576      345.4899     
      6630   27.612374      17.974712      18.12248       255.86664      106.56938      214.49802      446.53253    
      6640   27.624054      17.971289      18.115819      59.684945     -120.70156      278.65931      21.09709     
      6650   27.636467      17.970578      18.10664      -86.262432     -204.5942       175.81446     -230.00755    
      6660   27.644896      17.971804      18.099279     -221.18585      1.5290023     -231.25699     -433.82956    
      6670   27.654401      17.968255      18.088321     -14.488643      336.99456     -249.72464     -130.73584    
      6680   27.667297      17.963042      18.075079      244.0325       440.15512     -70.476423      362.41881    
      6690   27.69058       17.956366      18.063731      117.02457     -161.51666     -42.247518      554.83789    
      6700   27.710131      17.946984      18.058476     -129.87653     -527.4797      -100.3166       238.1667     
      6710   27.724772      17.931237      18.057035     -260.1234      -477.93588      160.53269     -462.96701    
      6720   27.733091      17.918794      18.046541      18.580548      10.908321      355.27592     -310.44259    
      6730   27.738605      17.910992      18.036411      282.65331      514.93732      348.67408     -15.651482    
      6740   27.760563      17.903306      18.023491      44.424892      341.3271      -223.74081      15.688383    
      6750   27.779488      17.895681      18.015426     -112.83749      31.931701     -335.94994     -34.494229    
      6760   27.804614      17.884827      18.004246     -122.39281     -373.64831     -138.84573      145.31562    
      6770   27.821692      17.872343      17.995614      60.610572     -201.46494      144.86899      238.42767    
      6780   27.831046      17.861404      17.992316      228.08671      146.95612      449.57345      87.730543    
      6790   27.843441      17.856779      17.989472     -4.7257393      126.53433      220.87609     -361.58764    
      6800   27.853406      17.85653       17.984929     -232.03004     -23.079506     -170.49356     -502.51704    
      6810   27.859521      17.855607      17.975786     -125.43669      146.07819     -499.55851     -22.829749    
      6820   27.865909      17.846605      17.969199      113.90061      310.395       -300.13432      331.44114    
      6830   27.878613      17.83197       17.962602      294.45404      28.35044       206.77711      648.23458    
      6840   27.889048      17.823025      17.962593      3.6951518     -403.46295      127.9887       286.5597     
      6850   27.894183      17.814952      17.965443     -267.6966      -556.04322     -5.4617214     -241.58485    
      6860   27.888386      17.805012      17.966147     -99.099707     -57.466498      231.56059     -471.39321    
      6870   27.880428      17.797228      17.960502      134.61603      295.93837      376.09678     -268.18705    
      6880   27.87139       17.797669      17.952885      193.56399      464.86417     -1.1777742      117.00558    
      6890   27.863428      17.796587      17.949356     -19.258339      263.80909     -348.67053      27.086423    
      6900   27.856046      17.793006      17.944531     -212.23429     -166.19054     -430.05846     -40.453866    
      6910   27.847818      17.786044      17.938408     -58.24454      -316.31443     -81.779862      223.36067    
      6920   27.832374      17.777543      17.93388       112.42399     -168.10784      153.19172      352.18809    
      6930   27.817869      17.76937       17.934321      165.00888      80.78829       353.11622      61.122119    
      6940   27.806875      17.765505      17.93214      -7.6468513     -6.6712472      231.23266     -247.50197    
      6950   27.796399      17.764516      17.927051     -174.34308     -94.854448     -37.52603      -390.64876    
      6960   27.782737      17.763926      17.918765     -120.68079      154.59906     -325.10494     -191.5365     
      6970   27.771381      17.756955      17.909811      43.751845      302.99361     -212.67467      40.936589    
      6980   27.762462      17.748021      17.898271      234.80778      275.66865      10.896195      417.85848    
      6990   27.758475      17.739666      17.889623      68.402294     -148.06187     -26.350532      379.61929    
      7000   27.751315      17.730046      17.882699     -90.006466     -362.65371     -116.08759      208.7219     
      7010   27.741616      17.717804      17.879917     -211.97733     -403.41439      3.4125302     -235.93013    
      7020   27.731055      17.709093      17.876175     -38.658674     -135.37213      230.97246     -211.57635    
      7030   27.720656      17.698808      17.87263       96.079146      58.114011      372.08673     -141.96331    
      7040   27.709772      17.692412      17.870146      195.60293      392.821        201.54172     -7.5539275    
      7050   27.704039      17.68713       17.871627      32.341337      397.92881     -146.01436     -154.89044    
      7060   27.70192       17.678631      17.87322      -113.82819      159.37419     -299.07672     -201.78204    
      7070   27.704338      17.67236       17.872471     -185.1332      -179.93613     -396.63487      21.171393    
      7080   27.703278      17.660933      17.87361      -5.0793087     -129.88469     -212.41397      327.06074    
      7090   27.702518      17.650416      17.877607      119.99907     -6.6053282      0.12913602     366.47339    
      7100   27.704213      17.639943      17.883701      195.26638      2.3864811      335.78641      247.62623    
      7110   27.707043      17.632227      17.892452      22.293991     -177.67375      283.44141     -38.885682    
      7120   27.706943      17.626066      17.901069     -108.20946     -251.91822      140.90616     -213.61631    
      7130   27.701176      17.623358      17.910425     -194.27791     -46.904885     -100.29639     -435.63244    
      7140   27.695687      17.619578      17.918044     -34.671382      255.56654     -53.661125     -305.91956    
      7150   27.695055      17.615482      17.924344      99.229163      347.34083      32.049273     -81.702609    
      7160   27.696127      17.612542      17.928586      215.03803      352.04729     -31.343215      324.41001    
      7170   27.69911       17.607979      17.939126      37.916571      64.642306     -233.9266       283.034      
      7180   27.699981      17.602852      17.948261     -89.668616     -118.85273     -284.68441      134.53129    
      7190   27.703964      17.592855      17.958258     -173.69048     -432.62296     -88.63909       0.19061621   
      7200   27.701746      17.582208      17.966455     -8.9126879     -274.77208      162.917        85.117017    
      7210   27.697887      17.571184      17.974316      137.30463     -99.182431      342.6086       168.48774    
      7220   27.689178      17.562275      17.984211      135.64553      187.40604      302.90639     -83.37583     
      7230   27.685227      17.556228      17.990608     -13.583988      116.42208      125.6893      -282.86334    
      7240   27.680893      17.549445      17.995419     -150.9129       2.5666628     -73.430375     -381.875      
      7250   27.675381      17.545968      17.994675     -155.39826      25.831761     -350.02523     -142.00131    
      7260   27.667834      17.537967      17.993086     -0.32880829     177.5973      -271.57675      92.993032    
      7270   27.660692      17.527543      17.990743      138.70831      244.1584      -91.230857      263.1974     
      7280   27.657936      17.516817      17.98713       147.95918     -28.208071      106.65989      365.42572    
      7290   27.653017      17.511119      17.984288      8.4645252     -217.93115      32.261487      211.06323    
      7300   27.647246      17.505165      17.979327     -163.087       -417.09052     -55.416902     -16.75359     
      7310   27.635441      17.495325      17.973735     -143.81873     -203.09723      94.287738     -322.64671    
      7320   27.626202      17.486876      17.963884     -14.100913     -2.5238644      220.43784     -260.21672    
      7330   27.616222      17.479261      17.950471      127.42064      214.82248      281.92569     -114.48626    
      7340   27.607449      17.477022      17.93787       158.67567      413.50104      27.260296      35.265667    
      7350   27.603187      17.473023      17.92515       11.098912      292.82604     -224.43774     -35.091569    
      7360   27.601817      17.468789      17.914834     -92.617685      73.307849     -284.50124     -66.659665    
      7370   27.602129      17.46646       17.905417     -142.53234     -220.0258      -278.20015      70.628939    
      7380   27.597448      17.462532      17.89479      -6.0874913     -204.11568     -85.508041      271.36125    
      7390   27.594064      17.458248      17.886629      102.75537     -108.87238      72.123261      345.01522    
      7400   27.592185      17.451986      17.879972      223.61425      54.959309      363.10246      252.78098    
      7410   27.592491      17.449091      17.875135      65.741358     -8.8757939      313.33383     -107.23396    
      7420   27.592768      17.446844      17.869222     -30.383246     -63.593431      203.41925     -230.97556    
      7430   27.593919      17.443924      17.865147     -153.00974     -127.51414      54.216242     -385.73132    
      7440   27.592479      17.442983      17.859087     -225.39496      5.8069713     -292.76599     -389.22586    
      7450   27.589943      17.439642      17.852749     -63.197506      195.17971     -255.21892     -129.55331    
      7460   27.584874      17.4349        17.84886       27.261391      325.78793     -244.03638      0.032626349  
      7470   27.579385      17.4263        17.845055      151.79067      345.526       -99.286848      209.13285    
      7480   27.577172      17.41947       17.841377      207.95774      149.80109      56.970896      417.10124    
      7490   27.572756      17.414722      17.838485      87.821245     -147.1176       43.331343      367.25       
      7500   27.566072      17.411453      17.836746      6.682839      -240.68206      22.949677      237.7809     
      7510   27.559234      17.407827      17.834616     -104.26841     -431.15596      0.080206962    118.27054    
      7520   27.545159      17.40457       17.834925     -225.66471     -418.56518     -29.893649     -228.53531    
      7530   27.528221      17.402353      17.83576      -161.1672      -163.11646      72.646273     -393.03141    
      7540   27.510894      17.400734      17.836236     -61.541889      41.671236      148.27072     -374.56763    
      7550   27.495558      17.399656      17.837048      10.595808      188.7527       171.79394     -328.75922    
      7560   27.478874      17.400035      17.837045      126.56636      362.2454       189.33352     -171.87985    
      7570   27.460412      17.402497      17.836499      249.83682      505.28613      115.68977      128.53457    
      7580   27.443789      17.405446      17.838323      164.81907      314.35783     -126.38092      306.4803     
      7590   27.429457      17.405907      17.842944      55.009496      104.21826     -229.96064      290.77087    
      7600   27.411575      17.406663      17.848685     -12.344143     -44.535326     -273.73644      281.23934    
      7610   27.392983      17.407223      17.856017     -93.812684     -199.47137     -254.23444      172.26776    
      7620   27.374886      17.407283      17.865937     -232.13772     -463.87284     -193.93681     -38.603519    
      7630   27.351981      17.406844      17.876776     -140.0547      -354.50628      85.45714      -151.11496    
      7640   27.334692      17.409786      17.884845     -57.745577     -218.40736      204.90725     -159.73662    
      7650   27.315488      17.415197      17.896515     -4.7425239     -111.22352      256.33447     -159.33852    
      7660   27.301672      17.418916      17.907411      35.395812     -4.9861088      243.77389     -132.60035    
      7670   27.289856      17.421667      17.918257      118.75615      164.6285       269.21948     -77.579541    
      7680   27.278225      17.426465      17.928637      167.48527      311.54885      193.74109     -2.8341394    
      7690   27.266556      17.432647      17.939651      140.60241      358.5189       6.5885335      56.699791    
      7700   27.25627       17.437525      17.950297      55.496587      252.0058      -142.62587      57.109833    
      7710   27.244447      17.442432      17.957511      28.946986      197.00996     -214.73293      104.56393    
      7720   27.231627      17.448285      17.962794     -5.7337741      107.6537      -275.05724      150.20223    
      7730   27.220626      17.453362      17.967424     -54.006965     -15.025469     -357.15927      210.16384    
      7740   27.212228      17.455611      17.972509     -83.907603     -153.13098     -308.11122      209.51939    
      7750   27.207346      17.458226      17.975507     -165.58159     -353.60566     -284.40996      141.27085    
      7760   27.200158      17.46094       17.979994     -251.24605     -517.03455     -113.11295     -123.59066    
      7770   27.191645      17.463237      17.983558     -196.35995     -405.51275      72.999942     -256.56703    
      7780   27.183211      17.467868      17.987283     -181.80359     -316.68171      126.99967     -355.72875    
      7790   27.175732      17.473559      17.988277     -136.04387     -184.24961      62.818061     -286.70007    
      7800   27.173015      17.477417      17.988759     -166.44052     -218.49168      2.1378628     -282.96773    
      7810   27.173297      17.48038       17.987472     -144.42413     -335.14402      55.042034     -153.1704     
      7820   27.172099      17.483647      17.986471     -97.542886     -313.2894       169.04945     -148.3887     
      7830   27.16968       17.489346      17.984558     -64.999691     -244.02418      249.62796     -200.60285    
      7840   27.167275      17.495492      17.981217     -14.73632      -100.01112      275.26162     -219.45946    
      7850   27.167783      17.501132      17.976109      12.850264     -4.2181621      218.81754     -176.04859    
      7860   27.170541      17.506031      17.970035      54.293719      55.76134       238.86566     -131.74584    
      7870   27.175323      17.510739      17.961454      187.67352      101.2635       356.24986      105.50718    
      7880   27.184104      17.513688      17.954605      186.70221     -31.511082      420.10982      171.5079     
      7890   27.196653      17.51821       17.946551      45.291822     -181.88441      299.70181      18.058067    
      7900   27.20569       17.522323      17.938776      12.410676     -142.58133      215.01408     -35.200727    
      7910   27.218403      17.525273      17.930902     -3.8790622     -155.45366      223.14968     -79.333211    
      7920   27.231175      17.527449      17.924827     -36.676118     -144.51008      174.55697     -140.07524    
      7930   27.243609      17.528437      17.920694     -122.46764     -223.89942      150.50891     -294.0124     
      7940   27.244596      17.530519      17.911906     -0.55668313    -216.29563      66.988231      147.63735    
      7950   27.244054      17.526608      17.921769     -929.83596     -993.9479      -726.88541     -1068.6746    
      7960   27.22237       17.52179       17.913522     -504.56516     -369.24077     -888.92391     -255.53081    
      7970   27.208581      17.49946       17.922707     -6.0478641      446.88595      406.53707     -871.56662    
      7980   27.206269      17.497643      17.906725      300.61516      161.12833      169.63052      571.08662    
      7990   27.212965      17.481561      17.919481     -235.45954     -715.58396      830.86073     -821.65539    
      8000   27.195924      17.490707      17.908932     -221.14409     -125.1778      -437.6859      -100.56858    
      8010   27.170157      17.475625      17.915622      251.84223      798.77446      749.67871     -792.92648    
      8020   27.170804      17.480772      17.89877       232.56162      113.25281      134.51494      449.91711    
      8030   27.176175      17.465517      17.910601     -412.91005     -721.95127      356.54246     -873.32135    
      8040   27.16227       17.471863      17.903253     -237.707       -108.39342     -501.64199     -103.08558    
      8050   27.150452      17.45257       17.907691      279.88131      513.22795      511.1422      -184.72621    
      8060   27.159282      17.449471      17.898358      305.81944      28.270506      207.543        681.6448     
      8070   27.160736      17.44151       17.907876     -225.02177     -312.9986      -1.7825238     -360.28418    
      8080   27.150598      17.448044      17.905252     -319.14479      117.35392     -845.57869     -229.20959    
      8090   27.152416      17.427575      17.902965      164.05276      251.4111       243.14194     -2.3947717    
      8100   27.163116      17.418214      17.888899      377.68942     -378.48059      524.13361      987.41523    
      8110   27.153187      17.41674       17.894455     -180.32712     -240.38147     -45.448193     -255.15168    
      8120   27.141301      17.418699      17.892251     -276.28875      522.88212     -780.34616     -571.40222    
      8130   27.152237      17.400664      17.88225       209.35734      310.34404      275.95474      41.773258    
      8140   27.171019      17.389099      17.871724      176.27761     -561.95921      674.43891      416.35313    
      8150   27.171499      17.390679      17.87383      -281.52753     -372.83919     -135.20751     -336.53588    
      8160   27.169121      17.385162      17.87133      -98.139964      442.90038     -187.81896     -549.5013     
      8170   27.175592      17.376328      17.85826       453.41299      607.95765      455.58976      296.69154    
      8180   27.19827       17.367798      17.850926      5.1081945     -274.39593      335.3416      -45.621088    
      8190   27.209385      17.37002       17.847264     -520.09025     -643.58418     -495.31107     -421.3755     
      8200   27.208196      17.360647      17.840119     -5.4465948      211.58226      54.363554     -282.28559    
      8210   27.21309       17.353907      17.824497      654.39388      702.04828      452.05825      809.07511    
      8220   27.233979      17.347204      17.82539      -29.788296     -147.45448      171.21874     -113.12916    
      8230   27.245384      17.3562        17.82022      -607.51229     -569.66771     -958.511       -294.35815    
      8240   27.247743      17.345107      17.819659      17.19017       123.03455      81.462971     -152.92702    
      8250   27.260363      17.343091      17.809062      496.3767       276.38932      276.92438      935.81641    
      8260   27.273556      17.341416      17.817434     -51.930238     -138.02317      130.40676     -148.1743     
      8270   27.281906      17.351235      17.813969     -332.68987     -60.821929     -801.64615     -135.60154    
      8280   27.290392      17.339575      17.815649      60.365734      186.72919      170.90161     -176.53359    
      8290   27.305106      17.341398      17.806246      225.34077     -96.535703      171.18498      601.37302    
      8300   27.309638      17.341117      17.813294     -165.22965     -284.04992      128.66678     -340.3058     
      8310   27.310817      17.346881      17.808059     -106.25428      154.40364     -377.55277     -95.613711    
      8320   27.314362      17.338608      17.808661      208.95041      366.18006      372.87639     -112.20522    
      8330   27.324462      17.341428      17.803394      60.634042     -140.07375      93.167045      228.80883    
      8340   27.332763      17.338471      17.809936     -402.36045     -525.9686      -85.725011     -595.38772    
      8350   27.329991      17.337651      17.805129     -26.470234      148.41745     -164.43045     -63.397703    
      8360   27.327787      17.329324      17.804497      488.13112      616.43889      620.57175      227.3827     
      8370   27.340226      17.33147       17.803633      16.016787     -136.77757      58.016457      126.81148    
      8380   27.348702      17.331147      17.80885      -574.26951     -613.46645     -494.03504     -615.30705    
      8390   27.343278      17.32605       17.804707      0.11853756     168.54468     -126.48255     -41.706513    
      8400   27.348602      17.316319      17.80004       543.39313      508.34001      504.58583      617.25356    
      8410   27.361782      17.316235      17.802954     -11.224227     -185.83798      41.550773      110.61453    
      8420   27.36369       17.320903      17.803815     -409.14913     -337.16006     -614.69423     -275.59309    
      8430   27.359269      17.314736      17.801258      44.062444      238.23215     -97.18586      -8.8589576    
      8440   27.367341      17.308207      17.792296      351.64714      198.92241      207.6723       648.34671    
      8450   27.376239      17.306564      17.793493     -97.68528      -382.53087      5.1396433      84.335381    
      8460   27.374144      17.309595      17.788805     -197.47405     -81.029426     -507.03818     -4.3545307    
      8470   27.372084      17.301772      17.785377      218.11788      586.25409     -11.15686       79.256403    
      8480   27.389317      17.298101      17.773115      147.46934     -9.9859971      6.9146876      445.47934    
      8490   27.400397      17.296696      17.772714     -320.06317     -669.97431     -142.77629     -147.4389     
      8500   27.396343      17.296958      17.764417     -44.499706      39.214979     -263.21936      90.505258    
      8510   27.392101      17.291038      17.758798      451.66771      755.86593      338.34966      260.78754    
      8520   27.407422      17.293657      17.749922      34.950201     -64.911906     -44.628551      214.39106    
      8530   27.419817      17.292675      17.749416     -563.50879     -718.19608     -372.32378     -600.00652    
      8540   27.415498      17.290051      17.733768      5.0264812      81.66564      -170.49567      103.90947    
      8550   27.413428      17.279505      17.725482      544.90182      583.881        744.29523      306.52924    
      8560   27.42584       17.283938      17.716328     -3.2784284     -121.65079     -59.442432      171.25793    
      8570   27.430679      17.282484      17.716749     -568.92209     -390.89549     -322.22944     -993.64135    
      8580   27.425498      17.283963      17.698258      53.541483      179.71356     -144.8761       125.78699    
      8590   27.431033      17.273842      17.692009      277.57332      168.6647       682.54791     -18.492653    
      8600   27.441795      17.279818      17.682948     -85.520886     -293.00365     -90.958469      127.39946    
      8610   27.442793      17.276687      17.684925     -216.30563     -9.1859082      31.132569     -670.86357    
      8620   27.442315      17.278428      17.675166      199.63203      424.01503      8.8490558      166.032      
      8630   27.460142      17.269579      17.676906      64.995005     -53.927738      482.19982     -233.28707    
      8640   27.471903      17.277178      17.67341      -328.83443     -529.02295     -259.99197     -197.48838    
      8650   27.469861      17.276242      17.676293     -32.28086       190.85172      129.43472     -417.12901    
      8660   27.475745      17.275504      17.66874       426.99199      493.89303      331.47159      455.61135    
      8670   27.495666      17.272485      17.67476      -53.226711     -200.04762      200.414       -160.04652    
      8680   27.502164      17.279549      17.675732     -408.54865     -409.47565     -589.77569     -226.39462    
      8690   27.50454       17.271577      17.680399      84.603487      297.04245      35.103755     -78.335739    
      8700   27.512379      17.270002      17.67548       376.1824       213.73293      224.56259      690.25168    
      8710   27.516748      17.272869      17.68346      -117.09108     -251.06048     -53.360101     -46.852662    
      8720   27.515176      17.280933      17.683882     -252.84647     -68.326158     -700.30155      10.088296    
      8730   27.520789      17.273059      17.686671      151.09312      215.2229       80.446688      157.60977    
      8740   27.535614      17.272668      17.68352       194.70986     -353.01113      240.95311      696.18758    
      8750   27.535351      17.276865      17.692815     -167.81532     -199.14464     -176.87395     -127.42737    
      8760   27.528125      17.279965      17.695154      7.7407602      566.74327     -338.90863     -204.61236    
      8770   27.535819      17.276583      17.692724      164.18882      159.02937      177.70199      155.83509    
      8780   27.543022      17.276094      17.696795     -196.89338     -616.70381      293.87054     -267.84685    
      8790   27.533656      17.281651      17.696015     -161.83876     -105.41406     -177.87603     -202.2262     
      8800   27.524114      17.276716      17.696325      239.52044      534.62126      331.81014     -147.8701     
      8810   27.53154       17.277297      17.691338      143.41875      10.72263       243.8653       175.66832    
      8820   27.535543      17.278221      17.694204     -300.25541     -354.88506     -80.691303     -465.18988    
      8830   27.527119      17.282957      17.689232     -103.48858      94.701304     -356.05215     -49.114882    
      8840   27.52033       17.276979      17.688517      321.80697      389.53865      415.93879      159.94346    
      8850   27.528495      17.280428      17.684242      75.610221     -170.07446     -13.444675      410.3498     
      8860   27.527388      17.28111       17.689195     -255.17816     -212.49844     -244.25169     -308.78436    
      8870   27.520619      17.28483       17.681675      45.623697      130.50634     -355.57002      361.93477    
      8880   27.518884      17.278532      17.682253      174.73618      93.869226      289.64636      140.69295    
      8890   27.522515      17.285742      17.676255     -61.699589     -329.77617     -285.89534      430.57275    
      8900   27.512454      17.286153      17.682375     -112.46438     -7.7147016     -87.24057      -242.43786    
      8910   27.502236      17.292807      17.673238      271.18952      452.18466     -247.87161      609.2555     
      8920   27.503535      17.288972      17.677126      65.997152      44.133919      215.70938     -61.851844    
      8930   27.507361      17.298845      17.671139     -357.777       -749.29004     -323.82713     -0.2138191    
      8940   27.491934      17.300774      17.672016     -55.113738      18.355711      3.6175373     -187.31446    
      8950   27.482122      17.302265      17.664895      471.94527      633.9665       319.27309      462.59622    
      8960   27.485088      17.304086      17.667643      23.857282     -41.987767      183.85179     -70.292175    
      8970   27.478743      17.313948      17.667811     -402.42664     -447.39477     -509.61023     -250.27492    
      8980   27.465304      17.312473      17.668927     -12.298572      175.86166     -50.608959     -162.14841    
      8990   27.455416      17.31669       17.663833      316.88352      231.20841      222.90933      496.53284    
      9000   27.452847      17.32186       17.667575     -61.59248      -342.06436      82.163243      75.123682    
      9010   27.438756      17.332368      17.669022     -164.15271     -112.08599     -354.20137     -26.170779    
      9020   27.426063      17.3351        17.668258      209.14826      472.92195     -106.59848      261.1213     
      9030   27.42289       17.339028      17.669677      110.07069     -19.303038      88.404204      261.1109     
      9040   27.420081      17.347146      17.67219      -303.67258     -566.94488     -361.36727      17.294422    
      9050   27.397568      17.353018      17.676785     -57.072103      67.369328     -199.96438     -38.621261    
      9060   27.376081      17.359334      17.675906      462.06423      563.06467      232.0814       591.04662    
      9070   27.370644      17.366164      17.68274       41.379117     -108.33064      143.73504      88.732948    
      9080   27.360124      17.379211      17.687748     -447.683       -525.17517     -514.9954      -302.87843    
      9090   27.338049      17.382474      17.691274     -39.35138       180.49727     -90.423755     -208.12765    
      9100   27.317237      17.389841      17.692281      348.27028      335.51087      362.44721      346.85274    
      9110   27.313555      17.394724      17.69938      -10.044533     -225.07599      311.13026     -116.18788    
      9120   27.293114      17.409735      17.705371     -196.77606     -166.02822     -217.80646     -206.4935     
      9130   27.269667      17.414135      17.713676      23.656635      421.09611      106.323       -456.44921    
      9140   27.261555      17.420914      17.711734      135.74693      109.19228      154.65052      143.398      
      9150   27.258094      17.422452      17.718721     -137.07609     -358.75242      309.55794     -362.03381    
      9160   27.242877      17.433571      17.718418     -172.07389     -145.31751     -223.17663     -147.72754    
      9170   27.220853      17.434848      17.723665      84.818276      286.07327      174.53962     -206.15806    
      9180   27.21008       17.436658      17.720518      338.90651      231.06213      364.92802      420.72936    
      9190   27.186113      17.44387       17.730085     -89.005963     -164.18262      84.46927      -187.30454    
      9200   27.170019      17.453061      17.732756     -406.15174     -215.72782     -581.09935     -421.62806    
      9210   27.153448      17.448149      17.731703      33.393463      130.68915      101.90792     -132.41668    
      9220   27.140551      17.446846      17.724938      376.71666      123.323        508.57352      498.25346    
      9230   27.130058      17.451281      17.730025     -82.186166     -171.32036      185.4319      -260.67003    
      9240   27.116537      17.458859      17.727179     -152.36885     -38.687981     -235.42591     -182.99264    
      9250   27.101638      17.455216      17.729694      113.09582      411.94293      326.58934     -399.24481    
      9260   27.094468      17.459848      17.722797      128.67601      57.128094      157.53932      171.36062    
      9270   27.087169      17.459315      17.727085     -172.27213     -304.79312      195.81551     -407.83877    
      9280   27.078845      17.465994      17.722586     -230.74955     -154.84393     -349.42176     -187.98296    
      9290   27.069268      17.463138      17.720332      56.081151      159.31001      130.92504     -121.9916     
      9300   27.065039      17.463406      17.712982      375.74691      187.65404      411.47133      528.11537    
      9310   27.061674      17.466608      17.716657     -46.561569     -98.805128      94.71229      -135.59187    
      9320   27.05588       17.473391      17.716393     -320.09988     -118.44664     -492.53592     -349.31708    
      9330   27.04824       17.468848      17.717009      42.467992      212.03842      185.68406     -270.3185     
      9340   27.045829      17.472618      17.71191       169.37233      64.221642      209.79068      234.10465    
      9350   27.046629      17.473399      17.717248     -154.09671     -302.78363      305.09393     -464.60044    
      9360   27.039906      17.48467       17.711893     -170.53425     -135.11903     -257.10855     -119.37518    
      9370   27.030266      17.487697      17.712051      58.781599      194.00079      185.60955     -203.26554    
      9380   27.029394      17.491953      17.703819      353.01289      250.63299      291.94075      516.46494    
      9390   27.032127      17.49626       17.707397     -48.105642     -103.53727      115.83024     -156.60989    
      9400   27.028214      17.507639      17.706488     -340.72307     -204.05363     -573.12099     -244.9946     
      9410   27.021569      17.504385      17.708328      4.697916       122.62588      138.55575     -247.08789    
      9420   27.019251      17.510378      17.701789      199.01255      104.14182      163.29503      329.6008     
      9430   27.019408      17.510719      17.706534     -74.276741     -210.00657      363.17894     -376.00259    
      9440   27.012029      17.521963      17.700494     -143.68173     -147.97537     -211.11927     -71.950551    
      9450   27.000851      17.522337      17.700825      26.269427      196.38135      191.17187     -308.74495    
      9460   26.996721      17.525706      17.692         323.12997      332.00139      206.51171      430.8768     
      9470   26.993512      17.527814      17.694912     -27.430902     -110.16267      140.80835     -112.93839    
      9480   26.985392      17.537733      17.693858     -382.72906     -388.52094     -590.25066     -169.41558    
      9490   26.969075      17.534035      17.696588     -19.426538      146.86172      24.175082     -229.31642    
      9500   26.960177      17.535663      17.692682      205.9931       193.96333      124.72516      299.29083    
      9510   26.961489      17.533275      17.696306     -5.2768914     -429.1822       370.07827      43.273251    
      9520   26.948723      17.54016       17.69994      -173.82954     -187.51056     -189.77882     -144.19925    
      9530   26.956166      17.53376       17.704873     -25.154742     -44.383155     -36.046117      4.9650467    
      9540   26.966348      17.521079      17.718063     -215.10157     -475.79237     -211.5457       42.033348    
      9550   26.955749      17.500989      17.710278      1023.6478      839.32459      941.06411      1290.5547    
      9560   26.952231      17.497396      17.728677     -224.07211      593.99302     -110.52677     -1155.6826    
      9570   26.96876       17.484986      17.707858      0.47558099    -99.357506     -12.885224      113.66947    
      9580   26.969108      17.480155      17.706372     -3.4940511      33.953101     -42.168836     -2.2664187    
      9590   26.990124      17.467111      17.704781     -1.1884489     -375.91144      278.27311      94.072982    
      9600   27.001858      17.460626      17.699614      82.983355      118.51181     -258.15796      388.59622    
      9610   27.010619      17.447164      17.69799       44.713005      82.594276      16.044112      35.500626    
      9620   27.018433      17.419024      17.687891      705.22376      506.98906      1103.042       505.64024    
      9630   27.029933      17.418389      17.686857      31.593232      5.9721201      22.703006      66.104571    
      9640   27.03772       17.411027      17.6895        8.0197017      22.890471     -5.4895176      6.6581522    
      9650   27.046077      17.391733      17.693047      416.63413      601.41424      439.50681      208.98135    
      9660   27.054431      17.379615      17.694428      377.81817      663.69804      353.94352      115.81295    
      9670   27.078894      17.363031      17.68572       189.50744     -480.39511      517.69772      531.21972    
      9680   27.082486      17.36001       17.690789     -356.32802     -421.12607     -293.78476     -354.07325    
      9690   27.085957      17.346791      17.69094      -33.144521      160.06177      154.01719     -413.51252    
      9700   27.09398       17.336849      17.683103      416.93137      318.0101       500.53097      432.25304    
      9710   27.114311      17.32934       17.684664     -82.85753      -448.41317      16.093778      183.74681    
      9720   27.118079      17.31986       17.691697     -265.21101      78.568646     -311.70641     -562.49527    
      9730   27.127604      17.31269       17.688543      35.985039      116.14864     -47.687497      39.493972    
      9740   27.136491      17.304148      17.692349      57.861161      58.300209      57.298168      57.985106    
      9750   27.145425      17.300537      17.692659      18.684037     -6.0522819      40.860744      21.24365     
      9760   27.152563      17.29582       17.692986     -111.06408     -402.10727      94.440748     -25.52572     
      9770   27.146324      17.296955      17.696119     -240.22461     -149.84241     -183.52913     -387.3023     
      9780   27.144987      17.296982      17.69032       33.842582      118.71593     -139.64135      122.45316    
      9790   27.14855       17.290723      17.692375      58.522017      63.641235      69.876984      42.047831    
      9800   27.14991       17.28723       17.692874      22.842649     -8.2123926      39.11449       37.625849    
      9810   27.150019      17.282329      17.695269     -17.059489     -108.48697      81.230133     -23.921628    
      9820   27.152603      17.28023       17.696522     -252.83858     -296.40947     -244.6783      -217.42797    
      9830   27.147363      17.277712      17.693281     -8.9086526      99.010352     -279.01188      153.27557    
      9840   27.144205      17.268654      17.6945        318.84713      396.34119      380.19287      180.00732    
      9850   27.151786      17.264609      17.693594      48.645391     -237.9119       243.92093      139.92714    
      9860   27.14963       17.266663      17.692717     -88.967359     -117.93665     -113.28368     -35.681748    
      9869   27.150282      17.26277       17.691156      110.69328      87.209291      129.21737      115.65318    
Loop time of 33.5712 on 1 procs for 9869 steps with 528 atoms

99.5% CPU use with 1 MPI tasks x no OpenMP threads

Minimization stats:
  Stopping criterion = linesearch alpha is zero
  Energy initial, next-to-last, final = 
      78644.7603065991  -370.344796163685  -370.344796163685
  Force two-norm initial, final = 798460.53 34.245496
  Force max component initial, final = 380053.85 21.544484
  Final line search alpha, max atom move = 6.2111971e-12 1.3381703e-10
  Iterations, force evaluations = 9869 17913

MPI task timing breakdown:
Section |  min time  |  avg time  |  max time  |%varavg| %total
---------------------------------------------------------------
Pair    | 23.88      | 23.88      | 23.88      |   0.0 | 71.13
Bond    | 0.68464    | 0.68464    | 0.68464    |   0.0 |  2.04
Kspace  | 7.8781     | 7.8781     | 7.8781     |   0.0 | 23.47
Neigh   | 0.11256    | 0.11256    | 0.11256    |   0.0 |  0.34
Comm    | 0.17293    | 0.17293    | 0.17293    |   0.0 |  0.52
Output  | 0.0032763  | 0.0032763  | 0.0032763  |   0.0 |  0.01
Modify  | 0          | 0          | 0          |   0.0 |  0.00
Other   |            | 0.8399     |            |       |  2.50

Nlocal:            528 ave         528 max         528 min
Histogram: 1 0 0 0 0 0 0 0 0 0
Nghost:           7336 ave        7336 max        7336 min
Histogram: 1 0 0 0 0 0 0 0 0 0
Neighs:         213182 ave      213182 max      213182 min
Histogram: 1 0 0 0 0 0 0 0 0 0

Total # of neighbors = 213182
Ave neighs/atom = 403.75379
Ave special neighs/atom = 8.1212121
Neighbor list builds = 40
Dangerous builds = 0
unfix           f0



##### NVT Dynamics

reset_timestep  0

velocity 		all create ${T} ${T}
velocity 		all create 300 ${T}
velocity 		all create 300 300

fix		 		f1 all nve
fix 			f2 all langevin ${T} ${T} ${damp_T} ${seed} zero yes
fix 			f2 all langevin 300 ${T} ${damp_T} ${seed} zero yes
fix 			f2 all langevin 300 300 ${damp_T} ${seed} zero yes
fix 			f2 all langevin 300 300 100 ${seed} zero yes
fix 			f2 all langevin 300 300 100 301360 zero yes
compute 		c1 all temp/com
fix_modify		f2 temp c1

thermo_style 	custom step pe ke etotal evdwl ecoul epair emol econserve density vol
thermo 	 	 	5000

run 		 	50000
Ewald initialization ...
  using 12-bit tables for long-range coulomb (../kspace.cpp:342)
  G vector (1/distance) = 0.23956966
  estimated absolute RMS force accuracy = 0.00038043783
  estimated relative force accuracy = 1.1456772e-06
  KSpace vectors: actual max1d max3d = 384 7 1687
                  kxmax kymax kzmax  = 7 4 5
Generated 21 of 21 mixed pair_coeff terms from arithmetic mixing rule
WARNING: Inconsistent image flags (../domain.cpp:819)
Per MPI rank memory allocation (min/avg/max) = 66.95 | 66.95 | 66.95 Mbytes
   Step         PotEng         KinEng         TotEng         E_vdwl         E_coul         E_pair         E_mol        Econserve       Density         Volume    
         0  -370.3434       471.26607      100.92266      21.009826     -1068.586      -2301.0213      1930.6779      100.92266      1.2502733      8291.6519    
      5000   70.973475      476.78622      547.75969      55.837728     -1070.5999     -2280.4542      2351.4276      547.75969      1.2502733      8291.6519    
     10000   35.924854      504.81064      540.73549      67.893574     -1081.4452     -2284.0125      2319.9374      540.73549      1.2502733      8291.6519    
     15000   65.367511      485.91411      551.28162      78.244164     -1078.8119     -2267.9883      2333.3558      551.28162      1.2502733      8291.6519    
     20000   47.82682       472.19309      520.01991      54.602        -1075.2211     -2290.3044      2338.1312      520.01991      1.2502733      8291.6519    
     25000   32.603117      490.68522      523.28834      71.624644     -1080.1269     -2277.0233      2309.6264      523.28834      1.2502733      8291.6519    
     30000   29.433994      471.95602      501.39002      52.666331     -1076.0189     -2292.2113      2321.6452      501.39002      1.2502733      8291.6519    
     35000   32.979911      484.20137      517.18128      62.018925     -1084.7418     -2293.7034      2326.6833      517.18128      1.2502733      8291.6519    
     40000   26.080261      507.34642      533.42668      61.852979     -1087.3638     -2296.1514      2322.2317      533.42668      1.2502733      8291.6519    
     45000   12.654546      464.75852      477.41307      58.11117      -1080.1781     -2293.0765      2305.7311      477.41307      1.2502733      8291.6519    
     50000   44.417256      496.08093      540.49818      56.297863     -1085.3467     -2301.8867      2346.304       540.49818      1.2502733      8291.6519    
Loop time of 86.4257 on 1 procs for 50000 steps with 528 atoms

Performance: 49.985 ns/day, 0.480 hours/ns, 578.531 timesteps/s
99.8% CPU use with 1 MPI tasks x no OpenMP threads

MPI task timing breakdown:
Section |  min time  |  avg time  |  max time  |%varavg| %total
---------------------------------------------------------------
Pair    | 57.764     | 57.764     | 57.764     |   0.0 | 66.84
Bond    | 1.4387     | 1.4387     | 1.4387     |   0.0 |  1.66
Kspace  | 22.652     | 22.652     | 22.652     |   0.0 | 26.21
Neigh   | 3.3419     | 3.3419     | 3.3419     |   0.0 |  3.87
Comm    | 0.6065     | 0.6065     | 0.6065     |   0.0 |  0.70
Output  | 0.00010242 | 0.00010242 | 0.00010242 |   0.0 |  0.00
Modify  | 0.55685    | 0.55685    | 0.55685    |   0.0 |  0.64
Other   |            | 0.0663     |            |       |  0.08

Nlocal:            528 ave         528 max         528 min
Histogram: 1 0 0 0 0 0 0 0 0 0
Nghost:           7283 ave        7283 max        7283 min
Histogram: 1 0 0 0 0 0 0 0 0 0
Neighs:         213897 ave      213897 max      213897 min
Histogram: 1 0 0 0 0 0 0 0 0 0

Total # of neighbors = 213897
Ave neighs/atom = 405.10795
Ave special neighs/atom = 8.1212121
Neighbor list builds = 837
Dangerous builds = 0

unfix 		 	f1
unfix 		 	f2

#------------------------------------------------------------------------------#
# final equilibration and save data file
#------------------------------------------------------------------------------#
### save volume
reset_timestep  0
min_style 		cg
minimize		1e-15 1e-15 100000 100000
WARNING: Using 'neigh_modify every 1 delay 0 check yes' setting during minimization (../min.cpp:187)
Ewald initialization ...
  using 12-bit tables for long-range coulomb (../kspace.cpp:342)
  G vector (1/distance) = 0.23956966
  estimated absolute RMS force accuracy = 0.00038043783
  estimated relative force accuracy = 1.1456772e-06
  KSpace vectors: actual max1d max3d = 384 7 1687
                  kxmax kymax kzmax  = 7 4 5
Generated 21 of 21 mixed pair_coeff terms from arithmetic mixing rule
WARNING: Inconsistent image flags (../domain.cpp:819)
Per MPI rank memory allocation (min/avg/max) = 68.07 | 68.07 | 68.07 Mbytes
   Step         PotEng         KinEng         TotEng         E_vdwl         E_coul         E_pair         E_mol        Econserve       Density         Volume    
         0   44.417256      496.08093      540.49818      56.297863     -1085.3467     -2301.8867      2346.304       540.49818      1.2502733      8291.6519    
       425  -461.06308      496.08093      35.017844      8.3871484     -1099.1338     -2364.8217      1903.7586      35.017844      1.2502733      8291.6519    
Loop time of 1.99832 on 1 procs for 425 steps with 528 atoms

99.9% CPU use with 1 MPI tasks x no OpenMP threads

Minimization stats:
  Stopping criterion = linesearch alpha is zero
  Energy initial, next-to-last, final = 
      44.4172556453996  -461.063082923947  -461.063082923947
  Force two-norm initial, final = 891.7263 1.257066
  Force max component initial, final = 110.83061 0.28897405
  Final line search alpha, max atom move = 5.6876104e-09 1.6435718e-09
  Iterations, force evaluations = 425 897

MPI task timing breakdown:
Section |  min time  |  avg time  |  max time  |%varavg| %total
---------------------------------------------------------------
Pair    | 1.5335     | 1.5335     | 1.5335     |   0.0 | 76.74
Bond    | 0.02836    | 0.02836    | 0.02836    |   0.0 |  1.42
Kspace  | 0.40986    | 0.40986    | 0.40986    |   0.0 | 20.51
Neigh   | 0.011997   | 0.011997   | 0.011997   |   0.0 |  0.60
Comm    | 0.010267   | 0.010267   | 0.010267   |   0.0 |  0.51
Output  | 0          | 0          | 0          |   0.0 |  0.00
Modify  | 0          | 0          | 0          |   0.0 |  0.00
Other   |            | 0.004349   |            |       |  0.22

Nlocal:            528 ave         528 max         528 min
Histogram: 1 0 0 0 0 0 0 0 0 0
Nghost:           7297 ave        7297 max        7297 min
Histogram: 1 0 0 0 0 0 0 0 0 0
Neighs:         213732 ave      213732 max      213732 min
Histogram: 1 0 0 0 0 0 0 0 0 0

Total # of neighbors = 213732
Ave neighs/atom = 404.79545
Ave special neighs/atom = 8.1212121
Neighbor list builds = 3
Dangerous builds = 0

reset_timestep  0
fix             f0 all box/relax tri ${p} vmax 0.001
fix             f0 all box/relax tri 0 vmax 0.001
thermo          10
thermo_style    custom step lx ly lz press pxx pyy pzz
min_style       cg
minimize        1e-15 1e-15 100000 100000
WARNING: Using 'neigh_modify every 1 delay 0 check yes' setting during minimization (../min.cpp:187)
Ewald initialization ...
  using 12-bit tables for long-range coulomb (../kspace.cpp:342)
  G vector (1/distance) = 0.23956966
  estimated absolute RMS force accuracy = 0.00038043783
  estimated relative force accuracy = 1.1456772e-06
  KSpace vectors: actual max1d max3d = 384 7 1687
                  kxmax kymax kzmax  = 7 4 5
Generated 21 of 21 mixed pair_coeff terms from arithmetic mixing rule
WARNING: Inconsistent image flags (../domain.cpp:819)
Per MPI rank memory allocation (min/avg/max) = 68.07 | 68.07 | 68.07 Mbytes
   Step           Lx             Ly             Lz           Press           Pxx            Pyy            Pzz      
         0   27.150282      17.26277       17.691156      1387.772       1889.2415      1289.5481      984.52634    
        10   27.13558       17.223668      17.662422      2815.9168      2852.849       2977.7914      2617.1098    
        20   27.132194      17.208342      17.654546      2716.6003      2626.7486      3187.0368      2336.0155    
        30   27.127198      17.182373      17.635822      2636.9618      2494.9638      3101.2904      2314.6313    
        40   27.12252       17.167956      17.625708      2795.6176      2633.0065      3205.8881      2547.9583    
        50   27.116943      17.162879      17.620026      2784.6585      2932.3786      2851.2485      2570.3483    
        60   27.122034      17.150225      17.615329      2926.238       2664.5899      3375.062       2739.0621    
        70   27.113531      17.145389      17.609715      2924.7757      3097.0182      2954.4331      2722.8757    
        80   27.119342      17.132725      17.602594      3019.4432      2924.1817      3234.6158      2899.532     
        90   27.116105      17.128945      17.602038      2910.3924      3129.6634      3015.6244      2585.8893    
       100   27.121813      17.125144      17.597541      2916.2234      2965.741       2944.9579      2837.9714    
       110   27.125017      17.120381      17.59893       2882.1305      2911.0358      3095.788       2639.5676    
       120   27.124225      17.120396      17.598006      2883.1586      3001.7593      2929.2351      2718.4814    
       130   27.129974      17.112959      17.597599      2905.8793      2875.8548      3163.276       2678.5071    
       135   27.131769      17.111256      17.596691      2904.5781      2763.1642      3214.4067      2736.1632    
Loop time of 0.747176 on 1 procs for 135 steps with 528 atoms

99.1% CPU use with 1 MPI tasks x no OpenMP threads

Minimization stats:
  Stopping criterion = linesearch alpha is zero
  Energy initial, next-to-last, final = 
     -461.063082923945  -464.484208970175  -464.437291585055
  Force two-norm initial, final = 373.39663 48.2677
  Force max component initial, final = 210.22953 31.46316
  Final line search alpha, max atom move = 3.0516714e-12 9.6015226e-11
  Iterations, force evaluations = 135 314

MPI task timing breakdown:
Section |  min time  |  avg time  |  max time  |%varavg| %total
---------------------------------------------------------------
Pair    | 0.56068    | 0.56068    | 0.56068    |   0.0 | 75.04
Bond    | 0.012518   | 0.012518   | 0.012518   |   0.0 |  1.68
Kspace  | 0.14589    | 0.14589    | 0.14589    |   0.0 | 19.53
Neigh   | 0.0043619  | 0.0043619  | 0.0043619  |   0.0 |  0.58
Comm    | 0.0036205  | 0.0036205  | 0.0036205  |   0.0 |  0.48
Output  | 3.8207e-05 | 3.8207e-05 | 3.8207e-05 |   0.0 |  0.01
Modify  | 0          | 0          | 0          |   0.0 |  0.00
Other   |            | 0.02007    |            |       |  2.69

Nlocal:            528 ave         528 max         528 min
Histogram: 1 0 0 0 0 0 0 0 0 0
Nghost:           7329 ave        7329 max        7329 min
Histogram: 1 0 0 0 0 0 0 0 0 0
Neighs:         216390 ave      216390 max      216390 min
Histogram: 1 0 0 0 0 0 0 0 0 0

Total # of neighbors = 216390
Ave neighs/atom = 409.82955
Ave special neighs/atom = 8.1212121
Neighbor list builds = 1
Dangerous builds = 0
unfix           f0

min_style 		cg
minimize		1e-15 1e-15 100000 100000
WARNING: Using 'neigh_modify every 1 delay 0 check yes' setting during minimization (../min.cpp:187)
Ewald initialization ...
  using 12-bit tables for long-range coulomb (../kspace.cpp:342)
  G vector (1/distance) = 0.23966883
  estimated absolute RMS force accuracy = 0.00036873748
  estimated relative force accuracy = 1.110442e-06
  KSpace vectors: actual max1d max3d = 383 7 1687
                  kxmax kymax kzmax  = 7 4 5
Generated 21 of 21 mixed pair_coeff terms from arithmetic mixing rule
WARNING: Inconsistent image flags (../domain.cpp:819)
Per MPI rank memory allocation (min/avg/max) = 68.07 | 68.07 | 68.07 Mbytes
   Step           Lx             Ly             Lz           Press           Pxx            Pyy            Pzz      
       135   27.131769      17.111256      17.596691      2904.5795      2763.166       3214.4073      2736.1652    
       140   27.131769      17.111256      17.596691      2707.6224      2814.3252      2855.096       2453.446     
       150   27.131769      17.111256      17.596691      2593.8835      2823.0612      2719.567       2239.0222    
       160   27.131769      17.111256      17.596691      2330.0659      2646.0557      2315.3731      2028.7689    
       170   27.131769      17.111256      17.596691      2389.1734      2712.4733      2354.8471      2100.1998    
       180   27.131769      17.111256      17.596691      2360.6762      2715.1313      2268.9762      2097.9213    
       190   27.131769      17.111256      17.596691      2173.7096      2531.7997      2107.7693      1881.56      
       200   27.131769      17.111256      17.596691      2111.3151      2493.7875      2015.5044      1824.6534    
       210   27.131769      17.111256      17.596691      2100.1208      2459.3748      2004.0064      1836.9812    
       220   27.131769      17.111256      17.596691      2074.5746      2448.2667      1987.0898      1788.3672    
       230   27.131769      17.111256      17.596691      1998.5831      2354.3596      1917.8391      1723.5506    
       240   27.131769      17.111256      17.596691      2011.3259      2343.0292      1931.9707      1758.9778    
       250   27.131769      17.111256      17.596691      1988.1764      2333.4407      1908.6509      1722.4377    
       260   27.131769      17.111256      17.596691      1951.1708      2284.0368      1887.8079      1681.6678    
       270   27.131769      17.111256      17.596691      1939.2504      2296.5375      1884.9469      1636.2668    
       280   27.131769      17.111256      17.596691      1919.8212      2269.3944      1854.8901      1635.1792    
       290   27.131769      17.111256      17.596691      1927.0871      2284.451       1864.1699      1632.6403    
       300   27.131769      17.111256      17.596691      1917.8751      2272.5096      1843.2185      1637.8971    
       310   27.131769      17.111256      17.596691      1897.2816      2259.5315      1826.2346      1606.0786    
       320   27.131769      17.111256      17.596691      1906.3303      2265.3496      1852.1956      1601.4457    
       330   27.131769      17.111256      17.596691      1893.061       2251.8173      1830.0053      1597.3602    
       340   27.131769      17.111256      17.596691      1882.3759      2223.7946      1840.849       1582.4839    
       350   27.131769      17.111256      17.596691      1885.1519      2230.9374      1839.4578      1585.0606    
       360   27.131769      17.111256      17.596691      1872.0457      2214.916       1823.7445      1577.4766    
       366   27.131769      17.111256      17.596691      1884.2558      2231.3193      1836.4739      1584.9741    
Loop time of 1.1459 on 1 procs for 231 steps with 528 atoms

99.8% CPU use with 1 MPI tasks x no OpenMP threads

Minimization stats:
  Stopping criterion = linesearch alpha is zero
  Energy initial, next-to-last, final = 
     -464.437266914041  -466.704277177096  -466.704277177096
  Force two-norm initial, final = 14.388595 1.0095511
  Force max component initial, final = 7.5585107 0.19647128
  Final line search alpha, max atom move = 1.0738876e-08 2.1098808e-09
  Iterations, force evaluations = 231 507

MPI task timing breakdown:
Section |  min time  |  avg time  |  max time  |%varavg| %total
---------------------------------------------------------------
Pair    | 0.88979    | 0.88979    | 0.88979    |   0.0 | 77.65
Bond    | 0.016543   | 0.016543   | 0.016543   |   0.0 |  1.44
Kspace  | 0.23122    | 0.23122    | 0.23122    |   0.0 | 20.18
Neigh   | 0          | 0          | 0          |   0.0 |  0.00
Comm    | 0.0058302  | 0.0058302  | 0.0058302  |   0.0 |  0.51
Output  | 5.6208e-05 | 5.6208e-05 | 5.6208e-05 |   0.0 |  0.00
Modify  | 0          | 0          | 0          |   0.0 |  0.00
Other   |            | 0.002454   |            |       |  0.21

Nlocal:            528 ave         528 max         528 min
Histogram: 1 0 0 0 0 0 0 0 0 0
Nghost:           7341 ave        7341 max        7341 min
Histogram: 1 0 0 0 0 0 0 0 0 0
Neighs:         216919 ave      216919 max      216919 min
Histogram: 1 0 0 0 0 0 0 0 0 0

Total # of neighbors = 216919
Ave neighs/atom = 410.83144
Ave special neighs/atom = 8.1212121
Neighbor list builds = 0
Dangerous builds = 0

variable 		volume equal vol
print 		 	"The volume of sow-4c_FeS-2c_B_S: ${volume}" file VOLUME.dat
The volume of sow-4c_FeS-2c_B_S: 8169.41639191474

write_data 		data.emin_sow-4c_FeS-2c_B_S_TMA pair ij
System init for write_data ...
Ewald initialization ...
  using 12-bit tables for long-range coulomb (../kspace.cpp:342)
  G vector (1/distance) = 0.23966883
  estimated absolute RMS force accuracy = 0.00036873748
  estimated relative force accuracy = 1.110442e-06
  KSpace vectors: actual max1d max3d = 383 7 1687
                  kxmax kymax kzmax  = 7 4 5
Generated 21 of 21 mixed pair_coeff terms from arithmetic mixing rule

### For strain energy
reset_timestep  0


fix				f1 all nve
fix 			f2 all langevin 0 0 ${damp_T} ${seed}
fix 			f2 all langevin 0 0 100 ${seed}
fix 			f2 all langevin 0 0 100 301360

thermo_style 	custom step pe ke etotal evdwl ecoul epair emol econserve density vol
thermo 	 	 	5000

variable		strain equal pe
fix 			STRAIN all ave/time 1 100 100 v_strain file STRAIN.dat

run 			100
Ewald initialization ...
  using 12-bit tables for long-range coulomb (../kspace.cpp:342)
  G vector (1/distance) = 0.23966883
  estimated absolute RMS force accuracy = 0.00036873748
  estimated relative force accuracy = 1.110442e-06
  KSpace vectors: actual max1d max3d = 383 7 1687
                  kxmax kymax kzmax  = 7 4 5
Generated 21 of 21 mixed pair_coeff terms from arithmetic mixing rule
WARNING: Inconsistent image flags (../domain.cpp:819)
Per MPI rank memory allocation (min/avg/max) = 66.95 | 66.95 | 66.95 Mbytes
   Step         PotEng         KinEng         TotEng         E_vdwl         E_coul         E_pair         E_mol        Econserve       Density         Volume    
         0  -466.70428      496.08093      29.37665       5.3241249     -1103.086      -2373.094       1906.3897      29.37665       1.2689806      8169.4164    
       100  -360.46427      77.24237      -283.2219       19.384828     -1102.8062     -2358.4214      1997.9571     -283.2219       1.2689806      8169.4164    
Loop time of 0.227853 on 1 procs for 100 steps with 528 atoms

Performance: 37.919 ns/day, 0.633 hours/ns, 438.879 timesteps/s
99.9% CPU use with 1 MPI tasks x no OpenMP threads

MPI task timing breakdown:
Section |  min time  |  avg time  |  max time  |%varavg| %total
---------------------------------------------------------------
Pair    | 0.17739    | 0.17739    | 0.17739    |   0.0 | 77.85
Bond    | 0.0031792  | 0.0031792  | 0.0031792  |   0.0 |  1.40
Kspace  | 0.045036   | 0.045036   | 0.045036   |   0.0 | 19.77
Neigh   | 0          | 0          | 0          |   0.0 |  0.00
Comm    | 0.001152   | 0.001152   | 0.001152   |   0.0 |  0.51
Output  | 3.125e-06  | 3.125e-06  | 3.125e-06  |   0.0 |  0.00
Modify  | 0.00095845 | 0.00095845 | 0.00095845 |   0.0 |  0.42
Other   |            | 0.0001338  |            |       |  0.06

Nlocal:            528 ave         528 max         528 min
Histogram: 1 0 0 0 0 0 0 0 0 0
Nghost:           7352 ave        7352 max        7352 min
Histogram: 1 0 0 0 0 0 0 0 0 0
Neighs:         216933 ave      216933 max      216933 min
Histogram: 1 0 0 0 0 0 0 0 0 0

Total # of neighbors = 216933
Ave neighs/atom = 410.85795
Ave special neighs/atom = 8.1212121
Neighbor list builds = 0
Dangerous builds = 0

unfix			f1
unfix			f2
unfix			STRAIN

### For potential energy
reset_timestep	0
velocity 		all create ${T} ${T}
velocity 		all create 300 ${T}
velocity 		all create 300 300
fix 		 	f1 all nve
fix 		 	f2 all langevin ${T} ${T} ${damp_T} ${seed} zero yes
fix 		 	f2 all langevin 300 ${T} ${damp_T} ${seed} zero yes
fix 		 	f2 all langevin 300 300 ${damp_T} ${seed} zero yes
fix 		 	f2 all langevin 300 300 100 ${seed} zero yes
fix 		 	f2 all langevin 300 300 100 301360 zero yes
fix_modify 		f2 temp c1
thermo_style 	custom step pe ke etotal evdwl ecoul epair emol econserve density vol
thermo 	 	 	5000
variable 	 	potential equal pe
fix				PE all ave/time 1 50000 50000 v_potential file PE.dat

run				50000
Ewald initialization ...
  using 12-bit tables for long-range coulomb (../kspace.cpp:342)
  G vector (1/distance) = 0.23966883
  estimated absolute RMS force accuracy = 0.00036873748
  estimated relative force accuracy = 1.110442e-06
  KSpace vectors: actual max1d max3d = 383 7 1687
                  kxmax kymax kzmax  = 7 4 5
Generated 21 of 21 mixed pair_coeff terms from arithmetic mixing rule
WARNING: Inconsistent image flags (../domain.cpp:819)
Per MPI rank memory allocation (min/avg/max) = 66.95 | 66.95 | 66.95 Mbytes
   Step         PotEng         KinEng         TotEng         E_vdwl         E_coul         E_pair         E_mol        Econserve       Density         Volume    
         0  -360.46427      471.26607      110.8018       19.384828     -1102.8062     -2358.4214      1997.9571      110.8018       1.2689806      8169.4164    
      5000   25.841104      462.36528      488.20639      54.254026     -1091.534      -2309.3736      2335.2147      488.20639      1.2689806      8169.4164    
     10000   8.3280742      483.87833      492.20641      70.65638      -1089.2685     -2292.591       2300.9191      492.20641      1.2689806      8169.4164    
     15000   41.221736      469.43016      510.65189      75.078915     -1092.4815     -2283.8655      2325.0873      510.65189      1.2689806      8169.4164    
     20000   23.945499      509.3464       533.2919       62.007645     -1078.9885     -2286.7616      2310.7071      533.2919       1.2689806      8169.4164    
     25000   38.76166       489.35085      528.11251      88.518089     -1081.4074     -2260.7808      2299.5424      528.11251      1.2689806      8169.4164    
     30000   37.946184      473.21248      511.15866      71.000002     -1080.1535     -2276.4532      2314.3994      511.15866      1.2689806      8169.4164    
     35000   30.197079      474.35329      504.55037      63.0001       -1083.6374     -2289.3588      2319.5559      504.55037      1.2689806      8169.4164    
     40000   27.525996      487.93458      515.46057      67.508879     -1085.9487     -2287.2061      2314.7321      515.46057      1.2689806      8169.4164    
     45000   22.623374      455.49391      478.11728      73.093113     -1075.8811     -2272.3718      2294.9952      478.11728      1.2689806      8169.4164    
     50000   45.353731      499.53148      544.88522      37.658997     -1066.5254     -2297.511       2342.8647      544.88522      1.2689806      8169.4164    
Loop time of 118.819 on 1 procs for 50000 steps with 528 atoms

Performance: 36.358 ns/day, 0.660 hours/ns, 420.809 timesteps/s
99.8% CPU use with 1 MPI tasks x no OpenMP threads

MPI task timing breakdown:
Section |  min time  |  avg time  |  max time  |%varavg| %total
---------------------------------------------------------------
Pair    | 89.393     | 89.393     | 89.393     |   0.0 | 75.23
Bond    | 1.598      | 1.598      | 1.598      |   0.0 |  1.34
Kspace  | 22.885     | 22.885     | 22.885     |   0.0 | 19.26
Neigh   | 3.6726     | 3.6726     | 3.6726     |   0.0 |  3.09
Comm    | 0.62342    | 0.62342    | 0.62342    |   0.0 |  0.52
Output  | 0.00010046 | 0.00010046 | 0.00010046 |   0.0 |  0.00
Modify  | 0.5796     | 0.5796     | 0.5796     |   0.0 |  0.49
Other   |            | 0.06649    |            |       |  0.06

Nlocal:            528 ave         528 max         528 min
Histogram: 1 0 0 0 0 0 0 0 0 0
Nghost:           7474 ave        7474 max        7474 min
Histogram: 1 0 0 0 0 0 0 0 0 0
Neighs:         217093 ave      217093 max      217093 min
Histogram: 1 0 0 0 0 0 0 0 0 0

Total # of neighbors = 217093
Ave neighs/atom = 411.16098
Ave special neighs/atom = 8.1212121
Neighbor list builds = 856
Dangerous builds = 0

unfix			f1
unfix			f2
unfix			PE


Total wall time: 0:04:03
