
#------------------------------------------------------------------------------#
# simulation settings
#------------------------------------------------------------------------------#

##### simulation variables

variable        seed 	equal  77229
variable        T       equal  300	    #K
variable        p       equal  0.0 	#bar
variable        damp_T  equal  100 		  	#K
variable        damp_P  equal  1000.0	  	#bar
variable        dT      equal  1.0 		 	#fs
variable        kb      equal  0.0019872041

## system setup ##

units           real
atom_style      full
boundary        p p p

pair_style      lj/cut/soft 1 0.5 12.5
bond_style      harmonic
angle_style     hybrid fourier cosine/periodic
dihedral_style  harmonic
improper_style  fourier

pair_modify 	tail yes mix arithmetic
special_bonds 	lj/coul 0.0 0.0 1.0

read_data 	 	../data.emin_pto-4c_In-3c_BTB_DMA_fe
Reading data file ...
  triclinic box = (1.0127974 1.2506642 1.0737052) to (27.573203 27.546212 27.449243) with tilt (-0.4871608 -0.79355401 -0.31961632)
  2 by 1 by 2 MPI processor grid
  reading atoms ...
  456 atoms
  reading velocities ...
  456 velocities
  scanning bonds ...
  8 = max bonds/atom
  scanning angles ...
  28 = max angles/atom
  scanning dihedrals ...
  12 = max dihedrals/atom
  scanning impropers ...
  3 = max impropers/atom
  reading bonds ...
  516 bonds
  reading angles ...
  972 angles
  reading dihedrals ...
  1164 dihedrals
  reading impropers ...
  648 impropers
Finding 1-2 1-3 1-4 neighbors ...
  special bond factors lj:    0        0        1       
  special bond factors coul:  0        0        1       
     8 = max # of 1-2 neighbors
     9 = max # of 1-3 neighbors
    12 = max # of special neighbors
  special bonds CPU = 0.000 seconds
  read_data CPU = 0.004 seconds
include 	 	../non_bonded_pto-4c_In-3c_BTB_lj.param
### Parameters for Equilibration ###

### Parameters for MOF ###

mass 1 12.010700000
mass 2 1.007940000
mass 3 114.818000000
mass 4 15.999400000


bond_coeff 1 462.655054 1.379256
bond_coeff 2 391.669513 1.458000
bond_coeff 3 357.440381 1.081418
bond_coeff 4 187.991596 2.033568
bond_coeff 5 646.680887 1.311940

angle_coeff 1 cosine/periodic 111.297508 -1 3
angle_coeff 2 cosine/periodic 102.183280 -1 3
angle_coeff 3 cosine/periodic 57.289016 -1 3
angle_coeff 4 fourier 127.915933 0.343737 0.374972 0.281246
angle_coeff 5 cosine/periodic 77.909182 -1 3
angle_coeff 6 cosine/periodic 131.755710 -1 3
angle_coeff 7 cosine/periodic 187.136328 -1 3

dihedral_coeff 1 3.368555 -1 2
dihedral_coeff 2 1.250000 -1 2
dihedral_coeff 3 6.737110 -1 2

improper_coeff 1 2.000000 1.000000 -1.000000 0.000000 0

### Parameters for Molecule ###

mass 5 12.010700000
mass 6 1.007940000
mass 7 14.006700000


bond_coeff 6 331.069389 1.109401
bond_coeff 7 528.634538 1.451071
bond_coeff 8 527.945261 1.044419

angle_coeff 8 fourier 75.498766 0.343737 0.374972 0.281246
angle_coeff 9 fourier 169.780468 0.343737 0.374972 0.281246
angle_coeff 10 fourier 260.869388 0.317506 0.313225 0.272502
angle_coeff 11 fourier 144.695053 0.317506 0.313225 0.272502
angle_coeff 12 fourier 97.017167 0.317506 0.313225 0.272502

dihedral_coeff 4 0.054250 1 3


pair_coeff 1 1 0.105 3.43085 1 12.5
pair_coeff 1 2 0.0679706 3.00099 1 12.5
pair_coeff 1 3 0.250789 3.70347 1 12.5
pair_coeff 1 4 0.0793725 3.2745 1 12.5
pair_coeff 1 5 0.105 3.43085 1 12.5
pair_coeff 1 6 0.0679706 3.00099 1 12.5
pair_coeff 1 7 0.0851176 3.34577 1 12.5
pair_coeff 2 2 0.044 2.57113 1 12.5
pair_coeff 2 3 0.162345 3.27361 1 12.5
pair_coeff 2 4 0.0513809 2.84464 1 12.5
pair_coeff 2 5 0.0679706 3.00099 1 12.5
pair_coeff 2 6 0.044 2.57113 1 12.5
pair_coeff 2 7 0.0550999 2.91591 1 12.5
pair_coeff 3 3 0.599 3.97608 1 12.5
pair_coeff 3 4 0.189578 3.54711 1 12.5
pair_coeff 3 5 0.250789 3.70347 1 12.5
pair_coeff 3 6 0.162345 3.27361 1 12.5
pair_coeff 3 7 0.2033 3.61838 1 12.5
pair_coeff 4 4 0.06 3.11815 1 12.5
pair_coeff 4 5 0.0793725 3.2745 1 12.5
pair_coeff 4 6 0.0513809 2.84464 1 12.5
pair_coeff 4 7 0.0643428 3.18942 1 12.5
pair_coeff 5 5 0.105 3.43085 1 12.5
pair_coeff 5 6 0.0679706 3.00099 1 12.5
pair_coeff 5 7 0.0851176 3.34577 1 12.5
pair_coeff 6 6 0.044 2.57113 1 12.5
pair_coeff 6 7 0.0550999 2.91591 1 12.5
pair_coeff 7 7 0.069 3.26069 1 12.5

group			fram type < 5
390 atoms in group fram

fix				SPRING fram spring/self 10 	# harmonic restraint to framework

group			cation type > 4
66 atoms in group cation
group			center type 7
6 atoms in group center
fix			SPRING2 center spring/self 1


#------------------------------------------------------------------------------#
# equilibration
#------------------------------------------------------------------------------#

reset_timestep	0

variable 		delta equal ${lambda}
variable 		delta equal 0
fix 			ADAPT all adapt 0 pair lj/cut/soft lambda * * v_delta

thermo_style	custom step etotal ke pe temp press density vol evdwl etail ecoul elong epair
thermo 			5000
velocity 		all create ${T} ${seed}
velocity 		all create 300 ${seed}
velocity 		all create 300 77229

fix				f1 all nve
fix 			f2 all langevin ${T} ${T} ${damp_T} ${seed} zero yes
fix 			f2 all langevin 300 ${T} ${damp_T} ${seed} zero yes
fix 			f2 all langevin 300 300 ${damp_T} ${seed} zero yes
fix 			f2 all langevin 300 300 100 ${seed} zero yes
fix 			f2 all langevin 300 300 100 77229 zero yes
compute 		c1 all temp/com
fix_modify		f2 temp c1

run				500000
Generated 0 of 21 mixed pair_coeff terms from arithmetic mixing rule
Neighbor list info ...
  update every 1 steps, delay 10 steps, check yes
  max neighbors/atom: 2000, page size: 100000
  master list distance cutoff = 14.5
  ghost atom cutoff = 14.5
  binsize = 7.25, bins = 4 4 4
  1 neighbor lists, perpetual/occasional/extra = 1 0 0
  (1) pair lj/cut/soft, perpetual
      attributes: half, newton on
      pair build: half/bin/newton/tri
      stencil: half/bin/3d/tri
      bin: standard
WARNING: Inconsistent image flags (../domain.cpp:819)
Per MPI rank memory allocation (min/avg/max) = 20.35 | 20.35 | 20.35 Mbytes
   Step         TotEng         KinEng         PotEng          Temp          Press         Density         Volume         E_vdwl         E_tail         E_coul         E_long         E_pair    
         0   4708.0649      406.88057      4301.1843      300           -6449.8033      0.40101743     18421.214      0              0              0              0              0            
      5000   4912.3631      381.31135      4531.0518      281.14737     -3263.2982      0.40101743     18421.214      0              0              0              0              0            
     10000   4938.18        399.79265      4538.3874      294.77395     -3041.7401      0.40101743     18421.214      0              0              0              0              0            
     15000   4921.6462      404.91565      4516.7306      298.55123     -2981.7237      0.40101743     18421.214      0              0              0              0              0            
     20000   4961.6163      410.20443      4551.4119      302.45074     -2994.6941      0.40101743     18421.214      0              0              0              0              0            
     25000   4947.2956      437.82362      4509.472       322.81484     -2406.4828      0.40101743     18421.214      0              0              0              0              0            
     30000   4926.1828      378.02709      4548.1557      278.72583     -2779.5309      0.40101743     18421.214      0              0              0              0              0            
     35000   5010.9285      438.70217      4572.2264      323.46261     -2495.324       0.40101743     18421.214      0              0              0              0              0            
     40000   4973.7133      423.60065      4550.1127      312.328       -1839.1709      0.40101743     18421.214      0              0              0              0              0            
     45000   4914.1544      398.31749      4515.8369      293.68629     -1825.8261      0.40101743     18421.214      0              0              0              0              0            
     50000   4953.9754      403.18066      4550.7948      297.27199     -2684.8728      0.40101743     18421.214      0              0              0              0              0            
     55000   4972.6536      417.15585      4555.4977      307.57614     -2946.2421      0.40101743     18421.214      0              0              0              0              0            
     60000   4994.5577      437.69783      4556.8599      322.72209     -2913.9596      0.40101743     18421.214      0              0              0              0              0            
     65000   4979.2475      444.309        4534.9385      327.59662     -2402.034       0.40101743     18421.214      0              0              0              0              0            
     70000   4945.2636      410.16977      4535.0939      302.42518     -1961.8619      0.40101743     18421.214      0              0              0              0              0            
     75000   4944.8942      410.66281      4534.2314      302.78871     -1412.8256      0.40101743     18421.214      0              0              0              0              0            
     80000   4918.1179      397.18792      4520.93        292.85344     -1849.3622      0.40101743     18421.214      0              0              0              0              0            
     85000   4935.9062      412.67959      4523.2266      304.27572     -1750.8283      0.40101743     18421.214      0              0              0              0              0            
     90000   4957.3398      441.43738      4515.9024      325.47932     -3221.2289      0.40101743     18421.214      0              0              0              0              0            
     95000   4977.9161      427.84047      4550.0757      315.45409     -3413.2135      0.40101743     18421.214      0              0              0              0              0            
    100000   4957.9207      411.5097       4546.411       303.41314     -1847.598       0.40101743     18421.214      0              0              0              0              0            
    105000   4939.9472      387.50773      4552.4394      285.71607     -1410.0459      0.40101743     18421.214      0              0              0              0              0            
    110000   4996.7259      429.90318      4566.8227      316.97496     -1960.9612      0.40101743     18421.214      0              0              0              0              0            
    115000   4906.455       406.98034      4499.4747      300.07356     -2738.1332      0.40101743     18421.214      0              0              0              0              0            
    120000   4916.7848      386.06169      4530.7231      284.64988     -3030.4888      0.40101743     18421.214      0              0              0              0              0            
    125000   4925.9513      412.10765      4513.8437      303.85401     -3554.1372      0.40101743     18421.214      0              0              0              0              0            
    130000   4991.342       430.24332      4561.0987      317.22575     -2641.4832      0.40101743     18421.214      0              0              0              0              0            
    135000   4914.4975      378.19836      4536.2991      278.85211     -2714.5931      0.40101743     18421.214      0              0              0              0              0            
    140000   4920.7783      402.7167       4518.0616      296.92991     -1591.1416      0.40101743     18421.214      0              0              0              0              0            
    145000   4957.2458      401.58688      4555.659       296.09687     -3101.64        0.40101743     18421.214      0              0              0              0              0            
    150000   4960.8498      413.6873       4547.1625      305.01872     -2709.1053      0.40101743     18421.214      0              0              0              0              0            
    155000   4950.3748      408.50975      4541.8651      301.20122     -1731.6245      0.40101743     18421.214      0              0              0              0              0            
    160000   4928.022       420.8371       4507.1849      310.29039     -1910.4988      0.40101743     18421.214      0              0              0              0              0            
    165000   4908.7209      398.67592      4510.0449      293.95057     -1743.5446      0.40101743     18421.214      0              0              0              0              0            
    170000   4992.1862      432.28768      4559.8985      318.73309     -3103.8755      0.40101743     18421.214      0              0              0              0              0            
    175000   4961.921       419.43814      4542.4829      309.25891     -2787.9876      0.40101743     18421.214      0              0              0              0              0            
    180000   4952.8796      410.90216      4541.9774      302.96518     -1513.0746      0.40101743     18421.214      0              0              0              0              0            
    185000   4948.1285      427.00201      4521.1265      314.83588     -2979.5871      0.40101743     18421.214      0              0              0              0              0            
    190000   4933.4737      391.34259      4542.1311      288.54358     -2377.7318      0.40101743     18421.214      0              0              0              0              0            
    195000   4903.3489      393.22206      4510.1269      289.92935     -2690.9131      0.40101743     18421.214      0              0              0              0              0            
    200000   4944.7914      426.30702      4518.4844      314.32345     -3098.6262      0.40101743     18421.214      0              0              0              0              0            
    205000   4947.4853      426.5385       4520.9468      314.49412     -2682.1456      0.40101743     18421.214      0              0              0              0              0            
    210000   4933.4407      422.31874      4511.1219      311.38283     -2987.4762      0.40101743     18421.214      0              0              0              0              0            
    215000   4975.3468      431.53132      4543.8155      318.17542     -2700.2527      0.40101743     18421.214      0              0              0              0              0            
    220000   4940.6886      380.98009      4559.7085      280.90313     -2624.4984      0.40101743     18421.214      0              0              0              0              0            
    225000   4925.5618      379.16004      4546.4018      279.56118     -4005.8564      0.40101743     18421.214      0              0              0              0              0            
    230000   4944.4642      410.20473      4534.2594      302.45096     -1979.1924      0.40101743     18421.214      0              0              0              0              0            
    235000   4971.1265      424.37158      4546.7549      312.89642     -3272.0631      0.40101743     18421.214      0              0              0              0              0            
    240000   4971.3094      417.14808      4554.1613      307.57041     -2752.7451      0.40101743     18421.214      0              0              0              0              0            
    245000   4962.6899      423.09246      4539.5974      311.9533      -3814.2386      0.40101743     18421.214      0              0              0              0              0            
    250000   4993.8062      439.62702      4554.1792      324.14452     -2085.4927      0.40101743     18421.214      0              0              0              0              0            
    255000   4938.6774      396.61271      4542.0647      292.42933     -1504.8091      0.40101743     18421.214      0              0              0              0              0            
    260000   4943.6918      416.09056      4527.6012      306.79068     -2975.7215      0.40101743     18421.214      0              0              0              0              0            
    265000   4940.2119      417.80992      4522.402       308.0584      -3077.9565      0.40101743     18421.214      0              0              0              0              0            
    270000   4930.2593      406.67549      4523.5838      299.84879     -3116.9886      0.40101743     18421.214      0              0              0              0              0            
    275000   4909.3726      404.84321      4504.5294      298.49782     -2268.4259      0.40101743     18421.214      0              0              0              0              0            
    280000   4950.2083      428.31943      4521.8889      315.80724     -3205.8073      0.40101743     18421.214      0              0              0              0              0            
    285000   4968.8888      409.82699      4559.0618      302.17245     -1758.8299      0.40101743     18421.214      0              0              0              0              0            
    290000   4974.9178      441.61458      4533.3032      325.60998     -2319.6008      0.40101743     18421.214      0              0              0              0              0            
    295000   4947.3624      416.10183      4531.2606      306.79899     -3240.131       0.40101743     18421.214      0              0              0              0              0            
    300000   4933.2387      407.39459      4525.8441      300.37899     -3607.4816      0.40101743     18421.214      0              0              0              0              0            
    305000   4967.6575      430.18019      4537.4773      317.17921     -1512.8691      0.40101743     18421.214      0              0              0              0              0            
    310000   4910.7385      396.09604      4514.6425      292.04838     -2523.5065      0.40101743     18421.214      0              0              0              0              0            
    315000   4954.1481      418.65854      4535.4896      308.6841      -2249.7911      0.40101743     18421.214      0              0              0              0              0            
    320000   4906.83        371.32579      4535.5042      273.78485     -1800.8074      0.40101743     18421.214      0              0              0              0              0            
    325000   4932.0706      396.34339      4535.7272      292.23076     -2704.2311      0.40101743     18421.214      0              0              0              0              0            
    330000   4932.2332      395.6169       4536.6163      291.69511     -3548.6851      0.40101743     18421.214      0              0              0              0              0            
    335000   4934.779       393.38273      4541.3963      290.04781     -2281.0271      0.40101743     18421.214      0              0              0              0              0            
    340000   4921.7023      382.79724      4538.9051      282.24295     -3789.2663      0.40101743     18421.214      0              0              0              0              0            
    345000   4947.6041      400.98508      4546.619       295.65316     -3034.3046      0.40101743     18421.214      0              0              0              0              0            
    350000   4975.5113      430.88278      4544.6285      317.69724     -3664.2072      0.40101743     18421.214      0              0              0              0              0            
    355000   4950.9604      435.84711      4515.1133      321.35753     -2405.2182      0.40101743     18421.214      0              0              0              0              0            
    360000   4945.916       400.82393      4545.0921      295.53434     -3880.9257      0.40101743     18421.214      0              0              0              0              0            
    365000   4950.0262      416.79323      4533.233       307.30877     -866.30385      0.40101743     18421.214      0              0              0              0              0            
    370000   4948.6447      406.03614      4542.6086      299.37739     -2824.1149      0.40101743     18421.214      0              0              0              0              0            
    375000   4926.1825      414.79881      4511.3837      305.83825     -1775.3933      0.40101743     18421.214      0              0              0              0              0            
    380000   4935.8448      411.85168      4523.9931      303.66528     -1820.9776      0.40101743     18421.214      0              0              0              0              0            
    385000   4940.7509      424.07883      4516.6721      312.68057     -3209.5045      0.40101743     18421.214      0              0              0              0              0            
    390000   4949.415       402.42007      4546.995       296.7112      -3397.5942      0.40101743     18421.214      0              0              0              0              0            
    395000   4933.839       412.23702      4521.602       303.9494      -2621.9897      0.40101743     18421.214      0              0              0              0              0            
    400000   4955.2362      403.34156      4551.8946      297.39063     -3087.015       0.40101743     18421.214      0              0              0              0              0            
    405000   4964.566       443.55395      4521.012       327.03991     -3961.2585      0.40101743     18421.214      0              0              0              0              0            
    410000   4938.5321      395.68771      4542.8444      291.74731     -1811.7118      0.40101743     18421.214      0              0              0              0              0            
    415000   4958.9472      425.53309      4533.4141      313.75282     -2546.3213      0.40101743     18421.214      0              0              0              0              0            
    420000   4932.8338      423.76284      4509.0709      312.44759     -2656.9026      0.40101743     18421.214      0              0              0              0              0            
    425000   4955.3481      422.01222      4533.3358      311.15682     -3107.153       0.40101743     18421.214      0              0              0              0              0            
    430000   4969.426       438.47199      4530.954       323.29289     -2774.7501      0.40101743     18421.214      0              0              0              0              0            
    435000   4927.7171      408.54282      4519.1743      301.22561     -2906.2113      0.40101743     18421.214      0              0              0              0              0            
    440000   4949.284       414.08576      4535.1983      305.31251     -2781.1605      0.40101743     18421.214      0              0              0              0              0            
    445000   4968.3769      420.57331      4547.8036      310.09589     -2583.3838      0.40101743     18421.214      0              0              0              0              0            
    450000   4923.6148      404.05982      4519.5549      297.92022     -2463.0287      0.40101743     18421.214      0              0              0              0              0            
    455000   4937.394       412.78025      4524.6138      304.34994     -2928.4038      0.40101743     18421.214      0              0              0              0              0            
    460000   5008.2767      448.0237       4560.253       330.33553     -3042.429       0.40101743     18421.214      0              0              0              0              0            
    465000   4928.6958      392.89448      4535.8013      289.68782     -3434.0466      0.40101743     18421.214      0              0              0              0              0            
    470000   4964.9467      423.36684      4541.5799      312.15561     -3670.5641      0.40101743     18421.214      0              0              0              0              0            
    475000   4927.7318      394.29185      4533.44        290.71812     -2453.4915      0.40101743     18421.214      0              0              0              0              0            
    480000   4945.2553      396.79045      4548.4649      292.56038     -2562.849       0.40101743     18421.214      0              0              0              0              0            
    485000   4999.7442      432.59873      4567.1455      318.96244     -2550.3257      0.40101743     18421.214      0              0              0              0              0            
    490000   4978.6085      425.2634       4553.3451      313.55397     -3107.9478      0.40101743     18421.214      0              0              0              0              0            
    495000   4956.6428      414.1878       4542.455       305.38774     -1984.3483      0.40101743     18421.214      0              0              0              0              0            
    500000   4912.3243      384.72379      4527.6005      283.66343     -2486.7702      0.40101743     18421.214      0              0              0              0              0            
Loop time of 48.1043 on 4 procs for 500000 steps with 456 atoms

Performance: 898.049 ns/day, 0.027 hours/ns, 10394.084 timesteps/s
99.5% CPU use with 4 MPI tasks x no OpenMP threads

MPI task timing breakdown:
Section |  min time  |  avg time  |  max time  |%varavg| %total
---------------------------------------------------------------
Pair    | 20.413     | 24.537     | 28.482     |  59.6 | 51.01
Bond    | 4.4823     | 4.6646     | 4.814      |   5.5 |  9.70
Neigh   | 3.7901     | 3.793      | 3.7958     |   0.1 |  7.88
Comm    | 8.2356     | 12.223     | 16.531     |  86.5 | 25.41
Output  | 0.0010012  | 0.0010653  | 0.0012407  |   0.3 |  0.00
Modify  | 2.4209     | 2.4305     | 2.4465     |   0.6 |  5.05
Other   |            | 0.4549     |            |       |  0.95

Nlocal:            114 ave         123 max         100 min
Histogram: 1 0 0 0 0 0 1 1 0 1
Nghost:           2237 ave        2290 max        2188 min
Histogram: 1 1 0 0 0 0 0 1 0 1
Neighs:        17731.2 ave       20667 max       13520 min
Histogram: 1 0 0 0 1 0 0 0 1 1

Total # of neighbors = 70925
Ave neighs/atom = 155.53728
Ave special neighs/atom = 6.3157895
Neighbor list builds = 10766
Dangerous builds = 0
unfix			ADAPT

#------------------------------------------------------------------------------#
# sampling
#------------------------------------------------------------------------------#

reset_timestep	0

variable		ddlambda equal 0.001
variable		ddlambda_n equal -0.001

compute 		ALL1 all fep ${T} pair lj/cut/soft lambda * * v_ddlambda
compute 		ALL1 all fep 300 pair lj/cut/soft lambda * * v_ddlambda
compute 		ALL2 all fep ${T} pair lj/cut/soft lambda * * v_ddlambda_n
compute 		ALL2 all fep 300 pair lj/cut/soft lambda * * v_ddlambda_n
variable 		dudlam equal (c_ALL1[1]-c_ALL2[1])/0.002

fix				ALL all ave/time 250 1 250 v_dudlam file LJ_${lambda}.lmp
fix				ALL all ave/time 250 1 250 v_dudlam file LJ_0.lmp

thermo_style	custom step etotal ke pe temp press density vol evdwl etail ecoul elong epair v_dudlam
thermo			250

run 			800000
Generated 0 of 21 mixed pair_coeff terms from arithmetic mixing rule
FEP settings ...
  temperature = 300.000000
  tail no
  pair lj/cut/soft lambda 1-7 1-7
FEP settings ...
  temperature = 300.000000
  tail no
  pair lj/cut/soft lambda 1-7 1-7
WARNING: Inconsistent image flags (../domain.cpp:819)
Per MPI rank memory allocation (min/avg/max) = 20.35 | 20.35 | 20.35 Mbytes
   Step         TotEng         KinEng         PotEng          Temp          Press         Density         Volume         E_vdwl         E_tail         E_coul         E_long         E_pair        v_dudlam   
         0   4912.3243      384.72379      4527.6005      283.66343     -2486.7702      0.40101743     18421.214      0              0              0              0              0             -178.09742    
       250   4917.7408      389.27476      4528.466       287.01893     -2268.2279      0.40101743     18421.214      0              0              0              0              0             -171.99355    
       500   4942.3211      426.32796      4515.9931      314.33889     -1784.3353      0.40101743     18421.214      0              0              0              0              0             -175.90935    
       750   4936.8515      393.813        4543.0385      290.36505     -1807.5491      0.40101743     18421.214      0              0              0              0              0             -179.57063    
      1000   4956.9881      404.95346      4552.0347      298.57911     -2815.9888      0.40101743     18421.214      0              0              0              0              0             -183.20013    
      1250   4916.9684      404.74687      4512.2215      298.42678     -1544.4362      0.40101743     18421.214      0              0              0              0              0             -178.7902     
      1500   4943.0118      389.42012      4553.5917      287.12611     -3884.8048      0.40101743     18421.214      0              0              0              0              0             -178.02498    
      1750   4934.0857      404.99718      4529.0886      298.61134     -2480.0936      0.40101743     18421.214      0              0              0              0              0             -181.04248    
      2000   4955.6483      418.73256      4536.9157      308.73867     -2284.2646      0.40101743     18421.214      0              0              0              0              0             -179.7376     
      2250   4975.5592      429.66525      4545.894       316.79953     -2802.1646      0.40101743     18421.214      0              0              0              0              0             -186.89451    
      2500   4964.2204      419.45309      4544.7673      309.26993     -1947.2865      0.40101743     18421.214      0              0              0              0              0             -185.31568    
      2750   4902.2882      374.01257      4528.2756      275.76586     -3601.3533      0.40101743     18421.214      0              0              0              0              0             -179.41693    
      3000   4937.7673      413.18449      4524.5828      304.64798     -3397.9514      0.40101743     18421.214      0              0              0              0              0             -180.41002    
      3250   4931.7788      393.56888      4538.2099      290.18507     -3133.5481      0.40101743     18421.214      0              0              0              0              0             -186.99368    
      3500   4950.2607      399.01595      4551.2448      294.20128     -2518.3904      0.40101743     18421.214      0              0              0              0              0             -180.4877     
      3750   5006.2137      437.63022      4568.5835      322.67224     -869.49385      0.40101743     18421.214      0              0              0              0              0             -191.91613    
      4000   4968.9347      432.78134      4536.1534      319.09708     -3452.5175      0.40101743     18421.214      0              0              0              0              0             -185.4417     
      4250   4979.6335      421.60552      4558.028       310.85695     -2405.5264      0.40101743     18421.214      0              0              0              0              0             -190.77786    
      4500   4910.4534      388.85005      4521.6034      286.70579     -2778.8054      0.40101743     18421.214      0              0              0              0              0             -190.31858    
      4750   4940.3987      412.01824      4528.3805      303.78809     -1692.1713      0.40101743     18421.214      0              0              0              0              0             -184.40705    
      5000   4917.2335      404.17316      4513.0604      298.00378     -2093.4991      0.40101743     18421.214      0              0              0              0              0             -186.55861    
      5250   4944.4592      413.05161      4531.4076      304.55001     -3817.7331      0.40101743     18421.214      0              0              0              0              0             -183.57168    
      5500   5001.6118      447.94099      4553.6708      330.27455     -1352.4714      0.40101743     18421.214      0              0              0              0              0             -179.84261    
      5750   4991.2274      430.17929      4561.0481      317.17854     -3542.8087      0.40101743     18421.214      0              0              0              0              0             -180.44063    
      6000   4959.7381      422.97548      4536.7627      311.86705     -3783.3736      0.40101743     18421.214      0              0              0              0              0             -182.88271    
      6250   4947.063       394.65144      4552.4116      290.98325     -2103.1555      0.40101743     18421.214      0              0              0              0              0             -191.14654    
      6500   4926.0134      382.91284      4543.1006      282.32818     -2398.334       0.40101743     18421.214      0              0              0              0              0             -188.36344    
      6750   4916.1797      387.40991      4528.7698      285.64395     -2410.469       0.40101743     18421.214      0              0              0              0              0             -189.79572    
      7000   4942.7547      419.26766      4523.4871      309.13321     -1190.1972      0.40101743     18421.214      0              0              0              0              0             -192.89138    
      7250   5002.4349      441.67786      4560.7571      325.65663     -1370.2215      0.40101743     18421.214      0              0              0              0              0             -187.79338    
      7500   4960.7073      412.82924      4547.8781      304.38605     -1787.8301      0.40101743     18421.214      0              0              0              0              0             -194.07575    
      7750   4944.0382      418.51102      4525.5272      308.57533     -2848.2008      0.40101743     18421.214      0              0              0              0              0             -193.72334    
      8000   4941.4464      407.24717      4534.1992      300.2703      -2479.1702      0.40101743     18421.214      0              0              0              0              0             -196.33549    
      8250   4906.6373      359.78018      4546.8571      265.27208     -2650.1109      0.40101743     18421.214      0              0              0              0              0             -191.36672    
      8500   4983.0751      441.11324      4541.9619      325.24033     -849.97946      0.40101743     18421.214      0              0              0              0              0             -190.69616    
      8750   4953.6407      404.5613       4549.0794      298.28996     -2831.7212      0.40101743     18421.214      0              0              0              0              0             -193.1726     
      9000   4936.0021      406.90314      4529.099       300.01664     -2667.2526      0.40101743     18421.214      0              0              0              0              0             -194.55677    
      9250   4932.5553      398.39096      4534.1644      293.74047     -3329.7038      0.40101743     18421.214      0              0              0              0              0             -192.79146    
      9500   4978.6177      423.65989      4554.9578      312.37168     -1520.2674      0.40101743     18421.214      0              0              0              0              0             -192.22767    
      9750   4973.868       418.05661      4555.8114      308.24029     -1449.5632      0.40101743     18421.214      0              0              0              0              0             -194.78217    
     10000   4909.6452      386.78791      4522.8573      285.18534     -998.49065      0.40101743     18421.214      0              0              0              0              0             -197.72525    
     10250   4947.1449      418.85953      4528.2854      308.83229     -2668.1444      0.40101743     18421.214      0              0              0              0              0             -193.97697    
     10500   4941.0761      424.79278      4516.2833      313.20698     -2540.5539      0.40101743     18421.214      0              0              0              0              0             -193.9262     
     10750   4924.3378      408.80088      4515.5369      301.41587     -2008.347       0.40101743     18421.214      0              0              0              0              0             -183.5598     
     11000   4952.5509      430.0331       4522.5178      317.07076     -2376.5556      0.40101743     18421.214      0              0              0              0              0             -182.91056    
     11250   4926.8416      400.93144      4525.9102      295.6136      -3343.2708      0.40101743     18421.214      0              0              0              0              0             -185.83314    
     11500   4952.4457      410.2794       4542.1663      302.50601     -2308.1387      0.40101743     18421.214      0              0              0              0              0             -181.3107     
     11750   4942.0182      418.73844      4523.2797      308.74301     -2921.9439      0.40101743     18421.214      0              0              0              0              0             -177.32242    
     12000   4935.9352      401.62772      4534.3074      296.12698     -3344.0275      0.40101743     18421.214      0              0              0              0              0             -172.42694    
     12250   4941.5297      413.66563      4527.8641      305.00274     -2285.9383      0.40101743     18421.214      0              0              0              0              0             -179.43302    
     12500   4942.2687      409.94592      4532.3228      302.26014     -2930.4304      0.40101743     18421.214      0              0              0              0              0             -177.12722    
     12750   4920.9585      392.08931      4528.8692      289.09415     -2322.5879      0.40101743     18421.214      0              0              0              0              0             -178.92148    
     13000   4977.6397      428.11049      4549.5292      315.65318     -2734.9957      0.40101743     18421.214      0              0              0              0              0             -182.64683    
     13250   4943.2333      398.69137      4544.5419      293.96196     -2045.9068      0.40101743     18421.214      0              0              0              0              0             -179.66043    
     13500   4953.1813      393.33165      4559.8496      290.01015     -2151.5055      0.40101743     18421.214      0              0              0              0              0             -177.15079    
     13750   4940.2521      404.69443      4535.5577      298.38812     -2415.5709      0.40101743     18421.214      0              0              0              0              0             -186.43544    
     14000   4940.9822      398.60866      4542.3736      293.90098     -1528.1138      0.40101743     18421.214      0              0              0              0              0             -190.24662    
     14250   4938.1357      401.14809      4536.9876      295.77334     -2260.9404      0.40101743     18421.214      0              0              0              0              0             -192.60003    
     14500   4986.6132      430.2348       4556.3784      317.21947     -3386.4724      0.40101743     18421.214      0              0              0              0              0             -189.97564    
     14750   4942.2957      390.49276      4551.803       287.91699     -2043.4034      0.40101743     18421.214      0              0              0              0              0             -191.76491    
     15000   4936.3432      395.54842      4540.7948      291.64461     -2962.9386      0.40101743     18421.214      0              0              0              0              0             -188.56593    
     15250   4927.0147      385.03988      4541.9748      283.89648     -1811.4648      0.40101743     18421.214      0              0              0              0              0             -188.86865    
     15500   4920.1325      401.66925      4518.4633      296.1576      -3784.8081      0.40101743     18421.214      0              0              0              0              0             -190.04977    
     15750   4969.4505      419.77693      4549.6736      309.50871     -2999.269       0.40101743     18421.214      0              0              0              0              0             -193.95255    
     16000   4950.2259      401.02396      4549.202       295.68182     -2866.3128      0.40101743     18421.214      0              0              0              0              0             -192.4731     
     16250   4951.6553      408.54805      4543.1073      301.22946     -3311.987       0.40101743     18421.214      0              0              0              0              0             -189.7957     
     16500   4974.3102      436.39859      4537.9116      321.76414     -2509.2876      0.40101743     18421.214      0              0              0              0              0             -186.21686    
     16750   4969.3925      431.49071      4537.9018      318.14547     -2289.1848      0.40101743     18421.214      0              0              0              0              0             -189.0048     
     17000   4908.2718      407.21704      4501.0548      300.24808     -503.43169      0.40101743     18421.214      0              0              0              0              0             -183.9606     
     17250   4933.4887      404.94818      4528.5405      298.57522     -2154.7165      0.40101743     18421.214      0              0              0              0              0             -184.47912    
     17500   4929.9541      405.40072      4524.5534      298.90888     -2242.2761      0.40101743     18421.214      0              0              0              0              0             -177.83828    
     17750   4946.8654      410.61254      4536.2529      302.75164     -3370.3462      0.40101743     18421.214      0              0              0              0              0             -185.32205    
     18000   4933.5618      397.07245      4536.4893      292.76831     -3496.4252      0.40101743     18421.214      0              0              0              0              0             -169.71172    
     18250   4951.8101      411.05106      4540.759       303.07497     -2866.4487      0.40101743     18421.214      0              0              0              0              0             -171.36602    
     18500   4923.7428      388.99089      4534.752       286.80963     -3093.964       0.40101743     18421.214      0              0              0              0              0             -188.04961    
     18750   4965.297       418.2705       4547.0265      308.39799     -529.10312      0.40101743     18421.214      0              0              0              0              0             -188.20337    
     19000   4963.1901      418.59635      4544.5937      308.63824     -1747.9943      0.40101743     18421.214      0              0              0              0              0             -187.0061     
     19250   4957.755       390.33442      4567.4206      287.80024     -1833.3917      0.40101743     18421.214      0              0              0              0              0             -175.70767    
     19500   4932.4488      414.0532       4518.3956      305.2885      -2040.2908      0.40101743     18421.214      0              0              0              0              0             -183.00133    
     19750   4969.0583      424.10523      4544.9531      312.70003     -3611.5797      0.40101743     18421.214      0              0              0              0              0             -185.47074    
     20000   4939.1551      402.90292      4536.2522      297.06721     -1932.9777      0.40101743     18421.214      0              0              0              0              0             -179.53972    
     20250   4938.2353      408.32767      4529.9076      301.06697     -2175.2679      0.40101743     18421.214      0              0              0              0              0             -166.20442    
     20500   4929.0293      399.59218      4529.4371      294.62615     -2828.4245      0.40101743     18421.214      0              0              0              0              0             -169.3564     
     20750   4936.1806      406.87732      4529.3033      299.9976      -1599.5567      0.40101743     18421.214      0              0              0              0              0             -164.31627    
     21000   4951.9112      408.79972      4543.1115      301.41502     -2217.1953      0.40101743     18421.214      0              0              0              0              0             -172.50528    
     21250   4952.6429      408.87153      4543.7714      301.46796     -2549.6546      0.40101743     18421.214      0              0              0              0              0             -164.95423    
     21500   4940.9699      404.99918      4535.9707      298.61282     -1361.9295      0.40101743     18421.214      0              0              0              0              0             -161.93064    
     21750   4938.5109      400.0387       4538.4722      294.95537     -2915.1069      0.40101743     18421.214      0              0              0              0              0             -164.82275    
     22000   4962.3947      412.57636      4549.8183      304.1996      -1748.7267      0.40101743     18421.214      0              0              0              0              0             -157.08323    
     22250   4930.9473      400.35426      4530.5931      295.18804     -2125.5632      0.40101743     18421.214      0              0              0              0              0             -169.61105    
     22500   4948.5452      407.65215      4540.8931      300.5689      -2639.0385      0.40101743     18421.214      0              0              0              0              0             -184.4111     
     22750   4982.3208      448.78457      4533.5362      330.89653     -2725.9462      0.40101743     18421.214      0              0              0              0              0             -184.68604    
     23000   4974.7037      439.99892      4534.7048      324.41872     -3222.3252      0.40101743     18421.214      0              0              0              0              0             -188.45396    
     23250   4962.982       412.78338      4550.1986      304.35224     -3728.7346      0.40101743     18421.214      0              0              0              0              0             -182.66363    
     23500   4947.2791      420.89052      4526.3886      310.32977     -3028.6042      0.40101743     18421.214      0              0              0              0              0             -174.28961    
     23750   4947.9584      415.05769      4532.9007      306.02913     -1627.0989      0.40101743     18421.214      0              0              0              0              0             -168.21159    
     24000   4947.7652      406.35369      4541.4115      299.61152     -2189.5214      0.40101743     18421.214      0              0              0              0              0             -168.6033     
     24250   4946.2391      401.41168      4544.8274      295.9677      -2398.9762      0.40101743     18421.214      0              0              0              0              0             -178.68074    
     24500   4969.7695      427.4084       4542.3611      315.13552     -2071.3883      0.40101743     18421.214      0              0              0              0              0             -167.20069    
     24750   4952.6013      400.06669      4552.5346      294.97601     -2545.8859      0.40101743     18421.214      0              0              0              0              0             -167.46243    
     25000   4956.3161      419.9468       4536.3693      309.63395     -2047.9734      0.40101743     18421.214      0              0              0              0              0             -173.04476    
     25250   4938.0076      393.89227      4544.1153      290.4235      -2205.0658      0.40101743     18421.214      0              0              0              0              0             -174.80089    
     25500   4982.5342      412.84331      4569.6909      304.39643     -3318.1366      0.40101743     18421.214      0              0              0              0              0             -168.98459    
     25750   4911.4564      386.45809      4524.9983      284.94216     -2975.1522      0.40101743     18421.214      0              0              0              0              0             -176.39712    
     26000   4932.668       413.16111      4519.5069      304.63075     -2309.1551      0.40101743     18421.214      0              0              0              0              0             -176.82015    
     26250   4938.0973      415.60279      4522.4945      306.43104     -1181.6006      0.40101743     18421.214      0              0              0              0              0             -181.23911    
     26500   4961.8983      412.02127      4549.8771      303.79033     -2165.0116      0.40101743     18421.214      0              0              0              0              0             -186.9553     
     26750   4937.6398      400.78166      4536.8581      295.50317     -2619.111       0.40101743     18421.214      0              0              0              0              0             -183.28328    
     27000   4940.3574      425.03245      4515.3249      313.38369     -3237.1627      0.40101743     18421.214      0              0              0              0              0             -185.60161    
     27250   4934.4694      410.83506      4523.6343      302.91571     -3322.1357      0.40101743     18421.214      0              0              0              0              0             -189.97513    
     27500   4949.9962      414.11505      4535.8811      305.33411     -2610.4335      0.40101743     18421.214      0              0              0              0              0             -190.15601    
     27750   4948.0965      409.07733      4539.0192      301.61971     -3059.3638      0.40101743     18421.214      0              0              0              0              0             -192.28833    
     28000   5004.5203      445.65991      4558.8603      328.59267     -2779.8462      0.40101743     18421.214      0              0              0              0              0             -189.82604    
     28250   4945.6895      409.77918      4535.9103      302.13719     -4392.883       0.40101743     18421.214      0              0              0              0              0             -194.06074    
     28500   4964.3255      435.3134       4529.0121      320.96401     -2398.7211      0.40101743     18421.214      0              0              0              0              0             -196.70291    
     28750   4938.8119      401.88018      4536.9317      296.31313     -2366.593       0.40101743     18421.214      0              0              0              0              0             -198.37969    
     29000   4989.4425      443.25494      4546.1875      326.81945     -2928.7551      0.40101743     18421.214      0              0              0              0              0             -192.90178    
     29250   4942.7382      373.51652      4569.2217      275.40011     -2076.45        0.40101743     18421.214      0              0              0              0              0             -184.61236    
     29500   4938.2325      389.02497      4549.2075      286.83476     -3742.882       0.40101743     18421.214      0              0              0              0              0             -185.68641    
     29750   4942.1712      416.40742      4525.7638      307.02431     -2525.1348      0.40101743     18421.214      0              0              0              0              0             -173.38787    
     30000   4913.4842      387.49027      4525.9939      285.7032      -2661.4952      0.40101743     18421.214      0              0              0              0              0             -180.10065    
     30250   4883.1298      378.87168      4504.2581      279.34856     -3852.753       0.40101743     18421.214      0              0              0              0              0             -185.32544    
     30500   4940.0194      410.73009      4529.2893      302.83831     -2164.282       0.40101743     18421.214      0              0              0              0              0             -182.24565    
     30750   4913.6172      397.07074      4516.5465      292.76704     -1395.818       0.40101743     18421.214      0              0              0              0              0             -179.74244    
     31000   4970.8459      436.86359      4533.9823      322.10699     -3671.0472      0.40101743     18421.214      0              0              0              0              0             -182.09792    
     31250   4993.2936      412.26337      4581.0302      303.96883     -3835.2676      0.40101743     18421.214      0              0              0              0              0             -185.16332    
     31500   4939.2699      412.51483      4526.7551      304.15423     -1828.9263      0.40101743     18421.214      0              0              0              0              0             -193.75528    
     31750   4949.1298      420.36876      4528.761       309.94507     -1795.7971      0.40101743     18421.214      0              0              0              0              0             -194.77049    
     32000   4946.264       409.26659      4536.9974      301.75925     -1876.2794      0.40101743     18421.214      0              0              0              0              0             -191.34608    
     32250   4935.3203      428.87763      4506.4427      316.21881     -2509.9654      0.40101743     18421.214      0              0              0              0              0             -178.68543    
     32500   4950.5606      421.36279      4529.1978      310.67799     -4293.5434      0.40101743     18421.214      0              0              0              0              0             -163.98263    
     32750   4922.2668      397.13964      4525.1272      292.81784     -3903.9368      0.40101743     18421.214      0              0              0              0              0             -169.76363    
     33000   4954.142       398.81697      4555.3251      294.05457     -2875.2832      0.40101743     18421.214      0              0              0              0              0             -173.31269    
     33250   4936.8092      395.97475      4540.8344      291.95895     -875.70356      0.40101743     18421.214      0              0              0              0              0             -166.04053    
     33500   4974.9151      407.03422      4567.8808      300.11329     -2603.5385      0.40101743     18421.214      0              0              0              0              0             -164.19084    
     33750   4965.4837      416.25788      4549.2258      306.91405     -3359.3412      0.40101743     18421.214      0              0              0              0              0             -171.41483    
     34000   4957.9736      415.87859      4542.095       306.63439     -1201.3799      0.40101743     18421.214      0              0              0              0              0             -173.1829     
     34250   4961.4732      403.67171      4557.8015      297.63405     -2422.8024      0.40101743     18421.214      0              0              0              0              0             -184.47345    
     34500   4939.6623      418.55005      4521.1122      308.6041      -3388.1846      0.40101743     18421.214      0              0              0              0              0             -188.01502    
     34750   4921.6179      386.00525      4535.6127      284.60827     -2733.0246      0.40101743     18421.214      0              0              0              0              0             -184.72882    
     35000   4942.6209      395.02252      4547.5983      291.25686     -3406.5621      0.40101743     18421.214      0              0              0              0              0             -191.56263    
     35250   4935.8667      398.21149      4537.6553      293.60814     -2740.4897      0.40101743     18421.214      0              0              0              0              0             -192.61602    
     35500   4978.5805      430.8522       4547.7283      317.67469     -2389.6779      0.40101743     18421.214      0              0              0              0              0             -192.82277    
     35750   4970.1352      416.66394      4553.4713      307.21344     -1866.9024      0.40101743     18421.214      0              0              0              0              0             -195.31931    
     36000   4935.2724      410.87148      4524.4009      302.94256     -2616.9247      0.40101743     18421.214      0              0              0              0              0             -194.65364    
     36250   4984.6012      429.08867      4555.5126      316.37441     -1408.6973      0.40101743     18421.214      0              0              0              0              0             -198.63788    
     36500   4967.9432      418.57368      4549.3696      308.62153     -2601.8198      0.40101743     18421.214      0              0              0              0              0             -196.19169    
     36750   4964.6593      424.09265      4540.5666      312.69076     -2372.4192      0.40101743     18421.214      0              0              0              0              0             -198.55144    
     37000   4940.923       398.25573      4542.6673      293.64075     -3182.9787      0.40101743     18421.214      0              0              0              0              0             -197.28132    
     37250   4928.9606      406.7897       4522.1709      299.933       -1749.9901      0.40101743     18421.214      0              0              0              0              0             -200.89023    
     37500   4913.4042      388.59733      4524.8068      286.51945     -2987.2837      0.40101743     18421.214      0              0              0              0              0             -196.40318    
     37750   4971.336       429.82943      4541.5066      316.92058     -1939.958       0.40101743     18421.214      0              0              0              0              0             -196.56147    
     38000   4950.5849      412.76705      4537.8178      304.3402      -3045.8318      0.40101743     18421.214      0              0              0              0              0             -194.81362    
     38250   4965.166       433.1846       4531.9814      319.39441     -2812.8239      0.40101743     18421.214      0              0              0              0              0             -190.40313    
     38500   4942.6202      408.05349      4534.5667      300.86481     -2381.8291      0.40101743     18421.214      0              0              0              0              0             -189.44096    
     38750   4945.7241      412.37443      4533.3497      304.05072     -1937.4918      0.40101743     18421.214      0              0              0              0              0             -189.80512    
     39000   4985.6696      435.95333      4549.7163      321.43584     -2264.5268      0.40101743     18421.214      0              0              0              0              0             -196.25569    
     39250   4975.3754      426.71669      4548.6587      314.62551     -3064.8871      0.40101743     18421.214      0              0              0              0              0             -197.0739     
     39500   4938.8149      393.13505      4545.6798      289.86519     -1864.5106      0.40101743     18421.214      0              0              0              0              0             -199.71463    
     39750   4947.0218      393.29905      4553.7227      289.98611     -2340.4817      0.40101743     18421.214      0              0              0              0              0             -194.4283     
     40000   4923.3591      404.95582      4518.4033      298.58085     -3084.8517      0.40101743     18421.214      0              0              0              0              0             -180.88732    
     40250   4941.2829      398.93904      4542.3438      294.14457     -2000.6873      0.40101743     18421.214      0              0              0              0              0             -181.09552    
     40500   4982.7501      429.47979      4553.2703      316.66279     -1419.6307      0.40101743     18421.214      0              0              0              0              0             -184.1576     
     40750   4960.8247      426.50875      4534.316       314.47219     -2946.8442      0.40101743     18421.214      0              0              0              0              0             -185.61315    
     41000   4968.7167      412.92308      4555.7936      304.45524     -2636.4273      0.40101743     18421.214      0              0              0              0              0             -184.57444    
     41250   4921.0708      385.36811      4535.7027      284.13849     -2656.3659      0.40101743     18421.214      0              0              0              0              0             -184.96855    
     41500   4936.6611      390.09218      4546.569       287.62163     -2663.3289      0.40101743     18421.214      0              0              0              0              0             -177.86593    
     41750   4949.6146      404.72283      4544.8917      298.40906     -2637.6177      0.40101743     18421.214      0              0              0              0              0             -184.86935    
     42000   4942.6347      382.05858      4560.5761      281.69832     -3302.2726      0.40101743     18421.214      0              0              0              0              0             -187.61592    
     42250   4951.1048      419.60185      4531.5029      309.37961     -4591.6895      0.40101743     18421.214      0              0              0              0              0             -185.2126     
     42500   4925.1578      421.75124      4503.4066      310.96439     -3070.8807      0.40101743     18421.214      0              0              0              0              0             -179.34279    
     42750   4928.9263      398.37078      4530.5556      293.72559     -2855.8219      0.40101743     18421.214      0              0              0              0              0             -183.3205     
     43000   4952.4146      415.14461      4537.27        306.09322     -2762.6959      0.40101743     18421.214      0              0              0              0              0             -184.61157    
     43250   4996.6434      441.7881       4554.8553      325.73792     -1721.5115      0.40101743     18421.214      0              0              0              0              0             -186.5749     
     43500   4934.76        389.44413      4545.3159      287.14381     -2713.5543      0.40101743     18421.214      0              0              0              0              0             -180.05067    
     43750   4915.8824      386.83186      4529.0506      285.21774     -2699.4765      0.40101743     18421.214      0              0              0              0              0             -179.79566    
     44000   4949.5414      428.54278      4520.9986      315.97192     -2273.9717      0.40101743     18421.214      0              0              0              0              0             -176.60367    
     44250   4982.8317      422.02889      4560.8028      311.16911     -2071.4662      0.40101743     18421.214      0              0              0              0              0             -183.31315    
     44500   4934.7967      416.32871      4518.468       306.96627     -1534.0697      0.40101743     18421.214      0              0              0              0              0             -184.73321    
     44750   4958.6105      415.40569      4543.2048      306.28571     -1925.3191      0.40101743     18421.214      0              0              0              0              0             -178.96755    
     45000   4958.1113      398.78111      4559.3302      294.02813     -3283.7748      0.40101743     18421.214      0              0              0              0              0             -176.9443     
     45250   4935.5705      407.72553      4527.8449      300.62301     -2935.7448      0.40101743     18421.214      0              0              0              0              0             -175.23985    
     45500   4961.3823      413.24515      4548.1371      304.69271     -2277.7746      0.40101743     18421.214      0              0              0              0              0             -178.52705    
     45750   4935.2189      400.79233      4534.4266      295.51104     -2246.9734      0.40101743     18421.214      0              0              0              0              0             -177.79462    
     46000   4918.6178      395.13669      4523.4812      291.34103     -1861.7748      0.40101743     18421.214      0              0              0              0              0             -174.31844    
     46250   4948.2704      397.0057       4551.2647      292.71909     -3266.8604      0.40101743     18421.214      0              0              0              0              0             -183.20171    
     46500   4944.1754      416.02484      4528.1505      306.74223     -3471.4005      0.40101743     18421.214      0              0              0              0              0             -187.1176     
     46750   4945.5992      399.88004      4545.7192      294.83839     -2465.0329      0.40101743     18421.214      0              0              0              0              0             -190.57324    
     47000   4935.5162      404.65301      4530.8632      298.35758     -2595.1679      0.40101743     18421.214      0              0              0              0              0             -183.87624    
     47250   4932.169       397.54926      4534.6197      293.11986     -3155.0578      0.40101743     18421.214      0              0              0              0              0             -181.86697    
     47500   4944.73        415.76421      4528.9658      306.55006     -2696.0039      0.40101743     18421.214      0              0              0              0              0             -184.60616    
     47750   4920.6798      386.71556      4533.9643      285.13199     -1662.9962      0.40101743     18421.214      0              0              0              0              0             -172.87146    
     48000   4927.0189      409.12098      4517.898       301.65189     -2843.647       0.40101743     18421.214      0              0              0              0              0             -176.66553    
     48250   4937.7255      407.00262      4530.7229      300.08998     -2731.9862      0.40101743     18421.214      0              0              0              0              0             -179.93129    
     48500   4924.2017      411.38318      4512.8185      303.31985     -2971.5147      0.40101743     18421.214      0              0              0              0              0             -185.41147    
     48750   4900.7521      392.20302      4508.549       289.17799     -2277.3083      0.40101743     18421.214      0              0              0              0              0             -184.79571    
     49000   4937.2281      394.55243      4542.6756      290.91025     -3116.9941      0.40101743     18421.214      0              0              0              0              0             -192.10906    
     49250   4955.0183      418.14967      4536.8686      308.3089      -3033.5471      0.40101743     18421.214      0              0              0              0              0             -195.03943    
     49500   4909.4037      408.0198       4501.3839      300.83997     -3014.8668      0.40101743     18421.214      0              0              0              0              0             -194.4161     
     49750   4969.559       431.85073      4537.7083      318.41093     -2854.7709      0.40101743     18421.214      0              0              0              0              0             -196.29621    
     50000   4917.4905      425.68794      4491.8025      313.867       -1344.1973      0.40101743     18421.214      0              0              0              0              0             -193.42323    
     50250   4956.456       423.2647       4533.1913      312.0803      -2774.5363      0.40101743     18421.214      0              0              0              0              0             -193.85829    
     50500   4932.6558      408.35822      4524.2976      301.0895      -3138.2005      0.40101743     18421.214      0              0              0              0              0             -201.02486    
     50750   4980.4555      417.27707      4563.1784      307.66551     -2774.6879      0.40101743     18421.214      0              0              0              0              0             -200.0802     
     51000   4933.0886      390.18288      4542.9057      287.68851     -1854.6082      0.40101743     18421.214      0              0              0              0              0             -198.57828    
     51250   4920.2747      403.50886      4516.7658      297.51398     -3092.6229      0.40101743     18421.214      0              0              0              0              0             -194.41709    
     51500   4910.0805      387.13481      4522.9457      285.44111     -2431.1092      0.40101743     18421.214      0              0              0              0              0             -187.02031    
     51750   4963.4163      408.68196      4554.7343      301.32819     -2647.4593      0.40101743     18421.214      0              0              0              0              0             -182.5135     
     52000   4922.5974      397.76901      4524.8283      293.28189     -2934.8053      0.40101743     18421.214      0              0              0              0              0             -190.66143    
     52250   4941.2771      416.55322      4524.7239      307.13181     -1802.6744      0.40101743     18421.214      0              0              0              0              0             -190.71063    
     52500   4973.0176      416.60129      4556.4163      307.16725     -3377.9442      0.40101743     18421.214      0              0              0              0              0             -183.54167    
     52750   4939.2278      391.74673      4547.4811      288.84156     -2230.7479      0.40101743     18421.214      0              0              0              0              0             -185.94253    
     53000   4917.4485      391.36462      4526.0839      288.55982     -3220.58        0.40101743     18421.214      0              0              0              0              0             -180.66726    
     53250   4944.3156      408.73753      4535.5781      301.36917     -2520.4791      0.40101743     18421.214      0              0              0              0              0             -179.29494    
     53500   4959.5726      407.69777      4551.8748      300.60253     -2386.6248      0.40101743     18421.214      0              0              0              0              0             -179.93748    
     53750   4936.9486      412.75549      4524.1932      304.33167     -2929.1705      0.40101743     18421.214      0              0              0              0              0             -182.39966    
     54000   4955.4791      428.34526      4527.1338      315.82628     -2381.1284      0.40101743     18421.214      0              0              0              0              0             -181.05522    
     54250   4976.2285      428.45131      4547.7772      315.90448     -2915.8059      0.40101743     18421.214      0              0              0              0              0             -182.96525    
     54500   4937.2088      412.93383      4524.275       304.46317     -2115.7999      0.40101743     18421.214      0              0              0              0              0             -186.18629    
     54750   4981.5943      446.49641      4535.0979      329.20944     -2424.7938      0.40101743     18421.214      0              0              0              0              0             -183.56438    
     55000   4951.4936      403.60743      4547.8862      297.58666     -1741.1532      0.40101743     18421.214      0              0              0              0              0             -179.51806    
     55250   4954.2724      423.64658      4530.6258      312.36186     -2468.3203      0.40101743     18421.214      0              0              0              0              0             -177.75802    
     55500   4969.081       430.3183       4538.7627      317.28104     -3272.8041      0.40101743     18421.214      0              0              0              0              0             -180.15672    
     55750   4929.1584      396.60089      4532.5575      292.42061     -2329.0956      0.40101743     18421.214      0              0              0              0              0             -186.94184    
     56000   4961.3597      422.48822      4538.8715      311.50779     -1404.2757      0.40101743     18421.214      0              0              0              0              0             -186.62482    
     56250   4950.7242      416.24569      4534.4785      306.90506     -3335.7974      0.40101743     18421.214      0              0              0              0              0             -186.84958    
     56500   4961.244       410.47214      4550.7719      302.64812     -1982.3141      0.40101743     18421.214      0              0              0              0              0             -180.20982    
     56750   4927.1608      389.1327       4538.0281      286.91419     -1868.1223      0.40101743     18421.214      0              0              0              0              0             -172.26325    
     57000   4948.4902      412.61927      4535.8709      304.23124     -3036.6267      0.40101743     18421.214      0              0              0              0              0             -167.48985    
     57250   4939.2082      414.77382      4524.4344      305.81983     -2351.2341      0.40101743     18421.214      0              0              0              0              0             -169.45396    
     57500   4954.3737      423.44286      4530.9308      312.21166     -1324.5909      0.40101743     18421.214      0              0              0              0              0             -171.90884    
     57750   4996.4222      435.73661      4560.6856      321.27605     -1681.4111      0.40101743     18421.214      0              0              0              0              0             -159.28442    
     58000   4965.2654      419.55768      4545.7078      309.34705     -1691.6948      0.40101743     18421.214      0              0              0              0              0             -145.55862    
     58250   4931.5767      398.55088      4533.0258      293.85838     -3093.5175      0.40101743     18421.214      0              0              0              0              0             -145.9607     
     58500   4940.1721      409.474        4530.6981      301.91218     -2825.479       0.40101743     18421.214      0              0              0              0              0             -166.26214    
     58750   4947.3265      402.78726      4544.5393      296.98193     -1721.4496      0.40101743     18421.214      0              0              0              0              0             -175.95438    
     59000   4941.274       426.702        4514.572       314.61468     -2630.8341      0.40101743     18421.214      0              0              0              0              0             -182.07816    
     59250   4915.4364      386.71176      4528.7246      285.12919     -2514.0986      0.40101743     18421.214      0              0              0              0              0             -185.76746    
     59500   4966.3739      435.68645      4530.6875      321.23907     -2571.1641      0.40101743     18421.214      0              0              0              0              0             -183.82666    
     59750   4925.1802      399.86785      4525.3124      294.8294      -2679.6154      0.40101743     18421.214      0              0              0              0              0             -183.15778    
     60000   4968.849       439.53934      4529.3097      324.07987     -2665.3709      0.40101743     18421.214      0              0              0              0              0             -185.96898    
     60250   4965.0422      406.65926      4558.383       299.83683     -1265.3787      0.40101743     18421.214      0              0              0              0              0             -187.29872    
     60500   4970.5313      430.54759      4539.9837      317.4501      -2803.0019      0.40101743     18421.214      0              0              0              0              0             -185.48976    
     60750   4902.8321      390.64148      4512.1906      288.02664     -2688.2939      0.40101743     18421.214      0              0              0              0              0             -176.12119    
     61000   4936.6778      388.74697      4547.9308      286.62979     -2404.6692      0.40101743     18421.214      0              0              0              0              0             -181.52614    
     61250   4917.8591      403.84288      4514.0162      297.76026     -2231.5662      0.40101743     18421.214      0              0              0              0              0             -182.39488    
     61500   4948.0227      419.02183      4529.0009      308.95196     -2959.3481      0.40101743     18421.214      0              0              0              0              0             -185.29966    
     61750   4933.8337      416.89831      4516.9354      307.38625     -3270.2611      0.40101743     18421.214      0              0              0              0              0             -187.1119     
     62000   4959.9382      417.54006      4542.3982      307.85942     -1578.576       0.40101743     18421.214      0              0              0              0              0             -184.20855    
     62250   4957.4199      424.95953      4532.4603      313.32992     -2544.5045      0.40101743     18421.214      0              0              0              0              0             -180.3306     
     62500   4944.4263      425.67503      4518.7513      313.85748     -2441.6872      0.40101743     18421.214      0              0              0              0              0             -183.39803    
     62750   4944.7416      402.2402       4542.5014      296.57857     -2469.9407      0.40101743     18421.214      0              0              0              0              0             -181.61381    
     63000   4927.0296      403.89082      4523.1388      297.7956      -4379.6758      0.40101743     18421.214      0              0              0              0              0             -181.59948    
     63250   4967.5026      417.28053      4550.222       307.66807     -2784.0331      0.40101743     18421.214      0              0              0              0              0             -189.09744    
     63500   4993.9161      424.73613      4569.18        313.16521     -2983.8688      0.40101743     18421.214      0              0              0              0              0             -179.55631    
     63750   4934.3939      401.63177      4532.7622      296.12997     -2402.8487      0.40101743     18421.214      0              0              0              0              0             -185.53519    
     64000   4931.1087      407.1024       4524.0063      300.16356     -1144.9955      0.40101743     18421.214      0              0              0              0              0             -186.53646    
     64250   4966.1377      433.41735      4532.7204      319.56602     -3432.2541      0.40101743     18421.214      0              0              0              0              0             -190.51908    
     64500   4962.6903      446.78544      4515.9049      329.42254     -2224.8716      0.40101743     18421.214      0              0              0              0              0             -181.83311    
     64750   4979.9088      446.55407      4533.3548      329.25195     -4211.1742      0.40101743     18421.214      0              0              0              0              0             -179.80235    
     65000   4918.7216      376.43656      4542.285       277.55311     -3546.4326      0.40101743     18421.214      0              0              0              0              0             -182.84207    
     65250   4943.8547      426.73311      4517.1216      314.63762     -2936.7082      0.40101743     18421.214      0              0              0              0              0             -187.35163    
     65500   4977.8628      414.38519      4563.4776      305.53329     -2843.59        0.40101743     18421.214      0              0              0              0              0             -190.0481     
     65750   4980.5224      435.71543      4544.807       321.26044     -3694.1773      0.40101743     18421.214      0              0              0              0              0             -184.86923    
     66000   4943.5975      413.0702       4530.5273      304.56372     -2402.6245      0.40101743     18421.214      0              0              0              0              0             -179.51828    
     66250   4946.3974      413.25664      4533.1408      304.70119     -3543.3832      0.40101743     18421.214      0              0              0              0              0             -177.18897    
     66500   4926.3677      392.12138      4534.2463      289.11779     -3026.8465      0.40101743     18421.214      0              0              0              0              0             -178.81766    
     66750   4971.6308      407.71725      4563.9136      300.61689     -3009.483       0.40101743     18421.214      0              0              0              0              0             -179.55252    
     67000   4930.3079      414.12076      4516.1871      305.33831     -3468.8188      0.40101743     18421.214      0              0              0              0              0             -181.16309    
     67250   4955.0894      399.71731      4555.3721      294.7184      -2104.2429      0.40101743     18421.214      0              0              0              0              0             -193.82074    
     67500   4961.9954      434.65623      4527.3392      320.47947     -2840.5674      0.40101743     18421.214      0              0              0              0              0             -189.06681    
     67750   4943.4325      403.22339      4540.2091      297.3035      -1940.8091      0.40101743     18421.214      0              0              0              0              0             -184.83334    
     68000   4928.8014      391.04552      4537.7559      288.32455     -2997.8735      0.40101743     18421.214      0              0              0              0              0             -185.31034    
     68250   4917.7899      391.18557      4526.6044      288.42781     -1713.9744      0.40101743     18421.214      0              0              0              0              0             -192.15066    
     68500   4964.3322      418.20267      4546.1296      308.34797     -2317.3573      0.40101743     18421.214      0              0              0              0              0             -189.69775    
     68750   4940           404.40614      4535.5939      298.17556     -2475.1268      0.40101743     18421.214      0              0              0              0              0             -184.92579    
     69000   4935.1682      398.71769      4536.4505      293.98137     -2076.2687      0.40101743     18421.214      0              0              0              0              0             -180.03996    
     69250   4960.7621      397.05573      4563.7063      292.75598     -2547.9281      0.40101743     18421.214      0              0              0              0              0             -181.32985    
     69500   4965.8024      436.1066       4529.6958      321.54885     -2044.7308      0.40101743     18421.214      0              0              0              0              0             -183.36124    
     69750   4927.2954      400.51805      4526.7773      295.3088      -3447.7815      0.40101743     18421.214      0              0              0              0              0             -177.1341     
     70000   4938.6078      407.65447      4530.9533      300.57061     -3235.2088      0.40101743     18421.214      0              0              0              0              0             -179.72495    
     70250   4955.3952      416.07906      4539.3162      306.7822      -2607.9569      0.40101743     18421.214      0              0              0              0              0             -173.52748    
     70500   4908.7681      411.98856      4496.7795      303.76621     -1844.8355      0.40101743     18421.214      0              0              0              0              0             -183.10449    
     70750   4922.0756      394.17388      4527.9017      290.63114     -2774.0853      0.40101743     18421.214      0              0              0              0              0             -188.19755    
     71000   4945.9027      413.39028      4532.5124      304.79972     -3178.8118      0.40101743     18421.214      0              0              0              0              0             -184.47715    
     71250   4967.504       432.57667      4534.9273      318.94617     -2584.9475      0.40101743     18421.214      0              0              0              0              0             -186.57999    
     71500   4961.9848      423.16734      4538.8174      312.00851     -1752.8447      0.40101743     18421.214      0              0              0              0              0             -176.50977    
     71750   4915.5913      387.72818      4527.8631      285.87861     -2699.3781      0.40101743     18421.214      0              0              0              0              0             -181.71191    
     72000   4951.275       398.05101      4553.224       293.48981     -3159.3088      0.40101743     18421.214      0              0              0              0              0             -181.63122    
     72250   4972.8772      429.41247      4543.4647      316.61315     -2127.943       0.40101743     18421.214      0              0              0              0              0             -180.26238    
     72500   4961.7295      408.52657      4553.2029      301.21362     -3496.3839      0.40101743     18421.214      0              0              0              0              0             -173.99106    
     72750   4921.5177      392.96988      4528.5478      289.74341     -2400.7133      0.40101743     18421.214      0              0              0              0              0             -163.72351    
     73000   4913.5637      387.73785      4525.8258      285.88574     -3148.9131      0.40101743     18421.214      0              0              0              0              0             -171.09653    
     73250   4955.379       403.64549      4551.7335      297.61472     -1556.2554      0.40101743     18421.214      0              0              0              0              0             -167.73438    
     73500   4965.3175      420.88164      4544.4359      310.32323     -1900.4756      0.40101743     18421.214      0              0              0              0              0             -171.62317    
     73750   4946.7415      409.59056      4537.151       301.99812     -2274.8528      0.40101743     18421.214      0              0              0              0              0             -169.59886    
     74000   4970.3593      432.59253      4537.7667      318.95786     -2579.5622      0.40101743     18421.214      0              0              0              0              0             -171.2241     
     74250   4928.2275      393.94982      4534.2777      290.46594     -2532.8168      0.40101743     18421.214      0              0              0              0              0             -178.9149     
     74500   4948.0875      402.61857      4545.4689      296.85755     -2148.8373      0.40101743     18421.214      0              0              0              0              0             -178.12412    
     74750   4965.32        407.88884      4557.4312      300.74341     -2882.4271      0.40101743     18421.214      0              0              0              0              0             -163.54822    
     75000   4944.5147      397.2916       4547.2231      292.92989     -1954.4549      0.40101743     18421.214      0              0              0              0              0             -158.9602     
     75250   4960.1431      426.51985      4533.6233      314.48038     -1926.9029      0.40101743     18421.214      0              0              0              0              0             -167.28792    
     75500   4935.4797      403.32039      4532.1593      297.37502     -662.52228      0.40101743     18421.214      0              0              0              0              0             -168.32755    
     75750   4951.4165      418.78024      4532.6363      308.77383     -2413.0185      0.40101743     18421.214      0              0              0              0              0             -173.39393    
     76000   4967.4043      425.06626      4542.338       313.40862     -2611.8291      0.40101743     18421.214      0              0              0              0              0             -163.6816     
     76250   4946.1906      404.71216      4541.4785      298.40119     -3590.2781      0.40101743     18421.214      0              0              0              0              0             -169.82642    
     76500   4925.3762      418.79497      4506.5812      308.78469     -2350.7193      0.40101743     18421.214      0              0              0              0              0             -167.36342    
     76750   4969.818       426.74963      4543.0684      314.64979     -2682.0206      0.40101743     18421.214      0              0              0              0              0             -182.95766    
     77000   4940.8797      411.71562      4529.1641      303.56496     -3315.5873      0.40101743     18421.214      0              0              0              0              0             -186.94218    
     77250   4956.2078      425.85874      4530.3491      313.99292     -4103.1229      0.40101743     18421.214      0              0              0              0              0             -185.07772    
     77500   4968.7439      426.23839      4542.5055      314.27285     -2091.2168      0.40101743     18421.214      0              0              0              0              0             -191.29332    
     77750   4965.7772      422.59501      4543.1822      311.58652     -2289.6253      0.40101743     18421.214      0              0              0              0              0             -200.83018    
     78000   4919.8863      394.33544      4525.5508      290.75026     -2439.456       0.40101743     18421.214      0              0              0              0              0             -197.0049     
     78250   4959.8532      408.80943      4551.0438      301.42218     -3056.3335      0.40101743     18421.214      0              0              0              0              0             -190.63456    
     78500   4969.7168      412.51752      4557.1993      304.15622     -2248.5976      0.40101743     18421.214      0              0              0              0              0             -184.31131    
     78750   4932.3125      384.59771      4547.7148      283.57046     -2280.6716      0.40101743     18421.214      0              0              0              0              0             -189.76998    
     79000   4950.8516      413.37071      4537.4809      304.78529     -2119.8151      0.40101743     18421.214      0              0              0              0              0             -187.41889    
     79250   4932.4014      392.85451      4539.5469      289.65834     -2532.2691      0.40101743     18421.214      0              0              0              0              0             -194.55071    
     79500   4940.62        420.42873      4520.1913      309.98929     -2617.756       0.40101743     18421.214      0              0              0              0              0             -184.86583    
     79750   4998.5253      437.69921      4560.8261      322.72311     -3419.159       0.40101743     18421.214      0              0              0              0              0             -177.27401    
     80000   4959.472       421.49527      4537.9767      310.77567     -3853.5936      0.40101743     18421.214      0              0              0              0              0             -182.83221    
     80250   4915.5349      407.61656      4507.9183      300.54266     -3350.8901      0.40101743     18421.214      0              0              0              0              0             -181.72368    
     80500   4948.3455      402.73448      4545.611       296.94301     -2764.454       0.40101743     18421.214      0              0              0              0              0             -189.65201    
     80750   4948.6809      427.77781      4520.9031      315.40789     -2385.2344      0.40101743     18421.214      0              0              0              0              0             -192.67863    
     81000   4942.1992      409.59351      4532.6057      302.0003      -1813.7842      0.40101743     18421.214      0              0              0              0              0             -191.25154    
     81250   4957.3464      417.06701      4540.2794      307.51064     -1812.0375      0.40101743     18421.214      0              0              0              0              0             -191.10959    
     81500   4941.1936      411.84468      4529.3489      303.66012     -2057.9345      0.40101743     18421.214      0              0              0              0              0             -185.42748    
     81750   4954.0227      429.16807      4524.8546      316.43295     -3028.8305      0.40101743     18421.214      0              0              0              0              0             -182.80134    
     82000   4933.1057      413.62928      4519.4764      304.97594     -1990.6281      0.40101743     18421.214      0              0              0              0              0             -186.09894    
     82250   4949.1855      417.44181      4531.7437      307.78698     -3673.8127      0.40101743     18421.214      0              0              0              0              0             -189.81198    
     82500   4939.1702      423.84911      4515.321       312.51119     -2356.3952      0.40101743     18421.214      0              0              0              0              0             -195.02924    
     82750   4957.154       416.8347       4540.3192      307.33935     -2519.9675      0.40101743     18421.214      0              0              0              0              0             -191.86726    
     83000   4916.154       393.37894      4522.775       290.04502     -1516.3718      0.40101743     18421.214      0              0              0              0              0             -181.48739    
     83250   4923.8988      402.33403      4521.5648      296.64776     -1287.8586      0.40101743     18421.214      0              0              0              0              0             -180.51431    
     83500   4965.2965      431.2372       4534.0593      317.95856     -2524.0864      0.40101743     18421.214      0              0              0              0              0             -178.75089    
     83750   4972.5797      422.45018      4550.1295      311.47974     -1919.8788      0.40101743     18421.214      0              0              0              0              0             -172.62825    
     84000   4941.7381      405.11149      4536.6266      298.69563     -1497.131       0.40101743     18421.214      0              0              0              0              0             -179.89497    
     84250   4955.3569      408.71762      4546.6393      301.35449     -2621.2429      0.40101743     18421.214      0              0              0              0              0             -180.97101    
     84500   4938.6653      402.07973      4536.5855      296.46026     -95.687575      0.40101743     18421.214      0              0              0              0              0             -184.80562    
     84750   4934.2648      400.5245       4533.7403      295.31356     -3910.6035      0.40101743     18421.214      0              0              0              0              0             -180.40285    
     85000   4967.8163      416.69017      4551.1261      307.23279     -1027.3222      0.40101743     18421.214      0              0              0              0              0             -181.09561    
     85250   4964.4         406.83018      4557.5699      299.96285     -2167.2021      0.40101743     18421.214      0              0              0              0              0             -181.07326    
     85500   4947.1097      399.18236      4547.9274      294.32398     -2029.6854      0.40101743     18421.214      0              0              0              0              0             -193.57006    
     85750   4954.5884      435.98759      4518.6008      321.4611      -1993.4373      0.40101743     18421.214      0              0              0              0              0             -182.92593    
     86000   4931.5793      382.66883      4548.9105      282.14827     -1866.0251      0.40101743     18421.214      0              0              0              0              0             -183.0917     
     86250   4953.8927      400.91078      4552.9819      295.59837     -1675.4442      0.40101743     18421.214      0              0              0              0              0             -189.95765    
     86500   4956.9403      428.5077       4528.4326      315.94605     -1414.1319      0.40101743     18421.214      0              0              0              0              0             -194.10721    
     86750   4933.7939      410.51927      4523.2746      302.68287     -1656.9805      0.40101743     18421.214      0              0              0              0              0             -194.20717    
     87000   4939.2462      421.81624      4517.4299      311.01232     -2016.1006      0.40101743     18421.214      0              0              0              0              0             -191.67978    
     87250   4902.989       384.08498      4518.9041      283.19242     -2474.0842      0.40101743     18421.214      0              0              0              0              0             -191.70225    
     87500   4969.565       444.42337      4525.1416      327.68095     -2360.5293      0.40101743     18421.214      0              0              0              0              0             -182.17322    
     87750   4937.321       395.79435      4541.5266      291.82594     -3457.2694      0.40101743     18421.214      0              0              0              0              0             -166.94995    
     88000   4922.2052      386.01394      4536.1913      284.61468     -2390.3876      0.40101743     18421.214      0              0              0              0              0             -178.23825    
     88250   4939.8568      425.18386      4514.673       313.49533     -1882.6425      0.40101743     18421.214      0              0              0              0              0             -189.49091    
     88500   4912.0377      387.541        4524.4967      285.7406      -2928.0119      0.40101743     18421.214      0              0              0              0              0             -190.36868    
     88750   4926.4064      396.93145      4529.475       292.66434     -1853.4713      0.40101743     18421.214      0              0              0              0              0             -186.69865    
     89000   4977.7417      435.07562      4542.6661      320.78869     -3924.0962      0.40101743     18421.214      0              0              0              0              0             -191.66016    
     89250   4935.1177      409.46965      4525.6481      301.90897     -1663.4494      0.40101743     18421.214      0              0              0              0              0             -191.94331    
     89500   4931.7507      399.08798      4532.6627      294.25439     -1952.8743      0.40101743     18421.214      0              0              0              0              0             -187.831      
     89750   4961.0569      412.91195      4548.145       304.44704     -3401.3904      0.40101743     18421.214      0              0              0              0              0             -188.83236    
     90000   4969.3124      420.57793      4548.7345      310.0993      -2504.3144      0.40101743     18421.214      0              0              0              0              0             -185.11458    
     90250   4939.8274      396.38941      4543.438       292.26468     -2772.9012      0.40101743     18421.214      0              0              0              0              0             -186.71428    
     90500   4932.2606      391.83943      4540.4211      288.90991     -1513.9715      0.40101743     18421.214      0              0              0              0              0             -188.61912    
     90750   4955.3801      424.70212      4530.678       313.14013     -1203.972       0.40101743     18421.214      0              0              0              0              0             -181.33877    
     91000   4937.9601      397.73829      4540.2219      293.25924     -2623.3107      0.40101743     18421.214      0              0              0              0              0             -186.19225    
     91250   4948.4571      408.51773      4539.9393      301.20711     -3680.0603      0.40101743     18421.214      0              0              0              0              0             -181.39154    
     91500   4958.716       404.5348       4554.1812      298.27042     -2596.8697      0.40101743     18421.214      0              0              0              0              0             -177.74022    
     91750   4927.5075      399.8448       4527.6627      294.8124      -3033.9132      0.40101743     18421.214      0              0              0              0              0             -179.50145    
     92000   4954.1675      429.67755      4524.49        316.8086      -3022.8957      0.40101743     18421.214      0              0              0              0              0             -169.99237    
     92250   4935.9813      409.3283       4526.653       301.80475     -2796.2244      0.40101743     18421.214      0              0              0              0              0             -162.95942    
     92500   4944.3153      411.78541      4532.5299      303.61642     -2843.5581      0.40101743     18421.214      0              0              0              0              0             -163.14676    
     92750   4936.29        399.91363      4536.3763      294.86316     -2785.3068      0.40101743     18421.214      0              0              0              0              0             -172.86333    
     93000   4943.883       418.4533       4525.4297      308.53277     -2878.3566      0.40101743     18421.214      0              0              0              0              0             -173.14646    
     93250   4931.3831      407.19496      4524.1881      300.2318      -2286.715       0.40101743     18421.214      0              0              0              0              0             -169.78684    
     93500   4950.2796      390.97234      4559.3073      288.27059     -1076.5798      0.40101743     18421.214      0              0              0              0              0             -167.20582    
     93750   4957.9742      400.56673      4557.4075      295.3447      -1701.4331      0.40101743     18421.214      0              0              0              0              0             -166.40965    
     94000   4914.7699      397.86973      4516.9002      293.35615     -1706.6755      0.40101743     18421.214      0              0              0              0              0             -165.7722     
     94250   4940.094       408.16885      4531.9251      300.94987     -1839.2398      0.40101743     18421.214      0              0              0              0              0             -168.95446    
     94500   4964.7184      389.94243      4574.776       287.51122     -2781.7152      0.40101743     18421.214      0              0              0              0              0             -168.74858    
     94750   4988.6755      410.24829      4578.4272      302.48307     -2635.0446      0.40101743     18421.214      0              0              0              0              0             -182.83875    
     95000   4964.7495      429.16576      4535.5838      316.43125     -2462.8246      0.40101743     18421.214      0              0              0              0              0             -183.8542     
     95250   4976.6607      438.39725      4538.2634      323.23778     -1452.3973      0.40101743     18421.214      0              0              0              0              0             -186.31513    
     95500   4966.321       434.47636      4531.8446      320.34684     -2721.0627      0.40101743     18421.214      0              0              0              0              0             -178.85093    
     95750   4941.2153      400.17953      4541.0358      295.05921     -2759.2019      0.40101743     18421.214      0              0              0              0              0             -184.4725     
     96000   4940.5616      415.41929      4525.1423      306.29574     -2441.4542      0.40101743     18421.214      0              0              0              0              0             -186.51698    
     96250   4938.7806      403.81529      4534.9653      297.73992     -2772.4581      0.40101743     18421.214      0              0              0              0              0             -173.6531     
     96500   4921.8644      400.19361      4521.6708      295.06959     -2659.5468      0.40101743     18421.214      0              0              0              0              0             -161.01662    
     96750   4974.038       428.49261      4545.5454      315.93492     -3169.3114      0.40101743     18421.214      0              0              0              0              0             -150.19422    
     97000   4917.8597      409.45319      4508.4065      301.89684     -2745.3384      0.40101743     18421.214      0              0              0              0              0             -156.59389    
     97250   4940.9709      399.8126       4541.1583      294.78866     -3342.945       0.40101743     18421.214      0              0              0              0              0             -154.98272    
     97500   4926.4733      390.05672      4536.4166      287.59549     -4117.8069      0.40101743     18421.214      0              0              0              0              0             -150.87186    
     97750   4964.4716      407.4531       4557.0185      300.42213     -2236.3589      0.40101743     18421.214      0              0              0              0              0             -159.0528     
     98000   4982.2107      416.18365      4566.027       306.85932     -2052.6401      0.40101743     18421.214      0              0              0              0              0             -166.74062    
     98250   5001.1798      421.42835      4579.7515      310.72632     -2147.6359      0.40101743     18421.214      0              0              0              0              0             -163.10646    
     98500   4979.6234      424.85105      4554.7723      313.24994     -1513.9548      0.40101743     18421.214      0              0              0              0              0             -159.93171    
     98750   4961.8247      404.09643      4557.7282      297.9472      -2978.0841      0.40101743     18421.214      0              0              0              0              0             -173.39037    
     99000   4941.1873      427.93521      4513.2521      315.52394     -2896.8614      0.40101743     18421.214      0              0              0              0              0             -178.18934    
     99250   4940.3005      411.67769      4528.6228      303.537       -2338.4001      0.40101743     18421.214      0              0              0              0              0             -180.4081     
     99500   4972.4977      424.26707      4548.2306      312.81936     -2784.8532      0.40101743     18421.214      0              0              0              0              0             -192.61009    
     99750   4937.2516      403.27595      4533.9757      297.34225     -3022.415       0.40101743     18421.214      0              0              0              0              0             -194.24525    
    100000   4992.1181      438.42698      4553.6911      323.25971     -3055.6561      0.40101743     18421.214      0              0              0              0              0             -188.4554     
    100250   4955.0162      410.91727      4544.099       302.97633     -2074.768       0.40101743     18421.214      0              0              0              0              0             -182.61364    
    100500   4938.9576      402.53314      4536.4245      296.79456     -3391.4184      0.40101743     18421.214      0              0              0              0              0             -185.27391    
    100750   4929.3291      410.88663      4518.4425      302.95373     -1746.3606      0.40101743     18421.214      0              0              0              0              0             -188.62724    
    101000   4962.4646      407.46196      4555.0027      300.42867     -2061.5997      0.40101743     18421.214      0              0              0              0              0             -181.62083    
    101250   4927.7961      401.25205      4526.5441      295.85        -2675.1321      0.40101743     18421.214      0              0              0              0              0             -181.65732    
    101500   4960.1297      417.70343      4542.4263      307.97988     -1413.3171      0.40101743     18421.214      0              0              0              0              0             -175.57866    
    101750   4916.5984      380.50562      4536.0928      280.5533      -2113.9752      0.40101743     18421.214      0              0              0              0              0             -167.238      
    102000   4951.5718      384.233        4567.3388      283.30156     -3255.6269      0.40101743     18421.214      0              0              0              0              0             -173.98495    
    102250   4952.3106      413.27146      4539.0392      304.71211     -3041.0336      0.40101743     18421.214      0              0              0              0              0             -178.32822    
    102500   4929.1936      408.56662      4520.627       301.24315     -2958.2801      0.40101743     18421.214      0              0              0              0              0             -174.82754    
    102750   4947.5997      404.61839      4542.9813      298.33205     -2650.8593      0.40101743     18421.214      0              0              0              0              0             -178.23337    
    103000   4989.8838      423.1845       4566.6993      312.02116     -3765.1155      0.40101743     18421.214      0              0              0              0              0             -188.3671     
    103250   4921.5434      394.41474      4527.1287      290.80873     -2330.1274      0.40101743     18421.214      0              0              0              0              0             -196.76654    
    103500   4968.9728      426.98699      4541.9859      314.82481     -1851.1071      0.40101743     18421.214      0              0              0              0              0             -194.11083    
    103750   4947.0748      395.37829      4551.6965      291.51917     -1653.6995      0.40101743     18421.214      0              0              0              0              0             -195.28767    
    104000   4974.3805      425.4375       4548.943       313.68234     -2951.1173      0.40101743     18421.214      0              0              0              0              0             -193.08356    
    104250   4912.8446      393.78937      4519.0553      290.34763     -1720.163       0.40101743     18421.214      0              0              0              0              0             -183.42259    
    104500   4936.4591      405.62911      4530.8299      299.07728     -2522.36        0.40101743     18421.214      0              0              0              0              0             -187.88882    
    104750   4979.4758      412.13338      4567.3425      303.87298     -3094.5239      0.40101743     18421.214      0              0              0              0              0             -187.53536    
    105000   4938.5719      426.60771      4511.9642      314.54516     -1462.0396      0.40101743     18421.214      0              0              0              0              0             -185.40888    
    105250   4937.8489      411.32161      4526.5273      303.27445     -1746.9557      0.40101743     18421.214      0              0              0              0              0             -192.81093    
    105500   4987.7817      425.95787      4561.8238      314.06602     -3296.0221      0.40101743     18421.214      0              0              0              0              0             -198.61218    
    105750   4948.9383      416.26716      4532.6711      306.92089     -2282.2972      0.40101743     18421.214      0              0              0              0              0             -192.82468    
    106000   4986.4703      411.2934       4575.1769      303.25366     -3210.8792      0.40101743     18421.214      0              0              0              0              0             -195.62246    
    106250   4948.9421      426.26972      4522.6724      314.29595     -2028.166       0.40101743     18421.214      0              0              0              0              0             -193.79183    
    106500   4907.127       383.60268      4523.5244      282.83681     -2864.5671      0.40101743     18421.214      0              0              0              0              0             -192.18795    
    106750   4932.394       398.90431      4533.4897      294.11896     -3872.3707      0.40101743     18421.214      0              0              0              0              0             -189.27271    
    107000   4962.8667      421.98545      4540.8813      311.13709     -2259.9928      0.40101743     18421.214      0              0              0              0              0             -188.07684    
    107250   4980.7431      431.06554      4549.6776      317.83199     -2468.4223      0.40101743     18421.214      0              0              0              0              0             -193.79744    
    107500   4949.4874      414.93464      4534.5527      305.9384      -1002.6771      0.40101743     18421.214      0              0              0              0              0             -193.24648    
    107750   4986.0032      447.84639      4538.1568      330.2048      -1581.7823      0.40101743     18421.214      0              0              0              0              0             -192.71862    
    108000   4940.5268      396.59673      4543.9301      292.41755     -3031.2134      0.40101743     18421.214      0              0              0              0              0             -195.55276    
    108250   4911.8716      378.4138       4533.4578      279.01096     -2640.6547      0.40101743     18421.214      0              0              0              0              0             -192.22229    
    108500   4952.7445      402.95221      4549.7923      297.10355     -1934.5138      0.40101743     18421.214      0              0              0              0              0             -192.27962    
    108750   4958.4524      419.82829      4538.6242      309.54657     -3196.8853      0.40101743     18421.214      0              0              0              0              0             -186.50126    
    109000   4963.1535      410.65169      4552.5018      302.78051     -3113.2938      0.40101743     18421.214      0              0              0              0              0             -181.75642    
    109250   4929.9439      412.80537      4517.1386      304.36846     -2024.3165      0.40101743     18421.214      0              0              0              0              0             -185.15903    
    109500   4973.5202      415.79368      4557.7265      306.57179     -2977.091       0.40101743     18421.214      0              0              0              0              0             -174.19269    
    109750   4939.9396      384.52338      4555.4162      283.51566     -2867.8949      0.40101743     18421.214      0              0              0              0              0             -161.60662    
    110000   4968.9002      420.2781       4548.6221      309.87823     -3229.0043      0.40101743     18421.214      0              0              0              0              0             -158.3071     
    110250   4934.1238      406.34114      4527.7827      299.60227     -2831.5404      0.40101743     18421.214      0              0              0              0              0             -159.38859    
    110500   4938.3665      429.25725      4509.1093      316.4987      -1663.5081      0.40101743     18421.214      0              0              0              0              0             -171.00108    
    110750   4943.6834      405.61238      4538.071       299.06494     -1406.6548      0.40101743     18421.214      0              0              0              0              0             -173.29307    
    111000   4960.8091      412.99635      4547.8128      304.50927     -2816.5633      0.40101743     18421.214      0              0              0              0              0             -174.76588    
    111250   4974.1128      436.0261       4538.0867      321.4895      -3337.337       0.40101743     18421.214      0              0              0              0              0             -169.71502    
    111500   4962.2881      415.66383      4546.6242      306.47605     -1604.6968      0.40101743     18421.214      0              0              0              0              0             -167.03786    
    111750   4939.6463      400.23403      4539.4122      295.09939     -2305.8047      0.40101743     18421.214      0              0              0              0              0             -172.01951    
    112000   4956.3969      422.21172      4534.1851      311.30392     -2564.9772      0.40101743     18421.214      0              0              0              0              0             -180.41831    
    112250   4960.6679      425.95893      4534.7089      314.0668      -2234.6194      0.40101743     18421.214      0              0              0              0              0             -182.33374    
    112500   4953.7848      430.29266      4523.4922      317.26213     -1742.9125      0.40101743     18421.214      0              0              0              0              0             -184.27586    
    112750   4984.3377      408.72016      4575.6176      301.35636     -1389.6414      0.40101743     18421.214      0              0              0              0              0             -182.42107    
    113000   4919.1044      403.46191      4515.6425      297.47936     -1987.3296      0.40101743     18421.214      0              0              0              0              0             -193.06169    
    113250   4940.7301      421.81581      4518.9143      311.01201     -1915.1484      0.40101743     18421.214      0              0              0              0              0             -191.31438    
    113500   4974.7462      445.77861      4528.9676      328.68019     -1827.1874      0.40101743     18421.214      0              0              0              0              0             -190.65917    
    113750   4939.3225      410.20315      4529.1193      302.4498      -3329.3042      0.40101743     18421.214      0              0              0              0              0             -191.34775    
    114000   4961.3719      429.15198      4532.2199      316.42109     -1719.3638      0.40101743     18421.214      0              0              0              0              0             -188.75355    
    114250   4932.8176      405.49532      4527.3223      298.97863     -2938.0607      0.40101743     18421.214      0              0              0              0              0             -178.44218    
    114500   4933.5177      397.15216      4536.3655      292.82708     -1804.2712      0.40101743     18421.214      0              0              0              0              0             -167.79682    
    114750   4967.4442      427.38676      4540.0575      315.11957     -1106.9017      0.40101743     18421.214      0              0              0              0              0             -170.42805    
    115000   4894.3801      384.91374      4509.4664      283.80348     -1999.3178      0.40101743     18421.214      0              0              0              0              0             -176.66688    
    115250   4943.1643      419.26796      4523.8963      309.13343     -3166.5745      0.40101743     18421.214      0              0              0              0              0             -185.52295    
    115500   4947.3559      417.69932      4529.6565      307.97685     -2265.8996      0.40101743     18421.214      0              0              0              0              0             -190.55063    
    115750   4948.8651      401.92131      4546.9438      296.34345     -1786.3516      0.40101743     18421.214      0              0              0              0              0             -183.96872    
    116000   4945.9176      423.8539       4522.0637      312.51473     -3275.8323      0.40101743     18421.214      0              0              0              0              0             -178.1127     
    116250   4963.4623      432.08294      4531.3794      318.58213     -3336.3939      0.40101743     18421.214      0              0              0              0              0             -173.6538     
    116500   4913.0185      401.78595      4511.2325      296.24365     -2331.5932      0.40101743     18421.214      0              0              0              0              0             -180.66257    
    116750   4966.2366      445.17242      4521.0641      328.23324     -2019.8935      0.40101743     18421.214      0              0              0              0              0             -184.81953    
    117000   4925.932       394.44197      4531.49        290.82881     -3139.8884      0.40101743     18421.214      0              0              0              0              0             -183.74643    
    117250   4939.6185      390.85624      4548.7623      288.18499     -2175.971       0.40101743     18421.214      0              0              0              0              0             -181.73469    
    117500   4875.2318      363.05975      4512.172       267.69016     -2764.3563      0.40101743     18421.214      0              0              0              0              0             -184.79433    
    117750   4956.3812      420.61282      4535.7684      310.12502     -2288.7311      0.40101743     18421.214      0              0              0              0              0             -182.38919    
    118000   4938.5435      417.72499      4520.8185      307.99577     -3226.3763      0.40101743     18421.214      0              0              0              0              0             -185.71372    
    118250   4946.4185      407.43944      4538.979       300.41206     -2625.8112      0.40101743     18421.214      0              0              0              0              0             -190.55618    
    118500   4960.1166      407.52797      4552.5886      300.47733     -3111.7756      0.40101743     18421.214      0              0              0              0              0             -191.03432    
    118750   4950.5126      381.65192      4568.8607      281.39848     -1709.0982      0.40101743     18421.214      0              0              0              0              0             -185.39279    
    119000   4983.1977      421.61519      4561.5825      310.86408     -3411.0227      0.40101743     18421.214      0              0              0              0              0             -187.84475    
    119250   4969.1922      418.25913      4550.9331      308.3896      -2839.2706      0.40101743     18421.214      0              0              0              0              0             -182.83604    
    119500   4949.8432      415.54313      4534.3         306.38705     -2934.4703      0.40101743     18421.214      0              0              0              0              0             -181.65025    
    119750   4945.4221      419.13404      4526.2881      309.03469     -3261.3247      0.40101743     18421.214      0              0              0              0              0             -191.03596    
    120000   4952.3161      410.0308       4542.2853      302.32271     -2012.4135      0.40101743     18421.214      0              0              0              0              0             -187.0812     
    120250   4950.4186      408.90247      4541.5161      301.49078     -2595.052       0.40101743     18421.214      0              0              0              0              0             -186.51105    
    120500   4932.623       400.20265      4532.4203      295.07626     -1350.1393      0.40101743     18421.214      0              0              0              0              0             -186.63879    
    120750   4925.8191      410.66682      4515.1523      302.79167     -3128.3919      0.40101743     18421.214      0              0              0              0              0             -187.24589    
    121000   4942.0458      393.14252      4548.9033      289.8707      -1409.4539      0.40101743     18421.214      0              0              0              0              0             -178.95636    
    121250   4949.5807      396.50611      4553.0746      292.35073     -3153.3505      0.40101743     18421.214      0              0              0              0              0             -182.45599    
    121500   4926.3077      388.06729      4538.2404      286.12865     -2179.3502      0.40101743     18421.214      0              0              0              0              0             -181.25781    
    121750   4919.0323      405.51552      4513.5168      298.99352     -2101.6074      0.40101743     18421.214      0              0              0              0              0             -178.27614    
    122000   4955.1035      409.62154      4545.4819      302.02096     -2959.8402      0.40101743     18421.214      0              0              0              0              0             -176.12726    
    122250   4920.1404      411.82017      4508.3202      303.64205     -1308.4825      0.40101743     18421.214      0              0              0              0              0             -171.81561    
    122500   4939.5841      411.07437      4528.5097      303.09216     -1647.3385      0.40101743     18421.214      0              0              0              0              0             -171.59584    
    122750   4908.5931      382.39587      4526.1972      281.94701     -2127.6885      0.40101743     18421.214      0              0              0              0              0             -170.86799    
    123000   4951.6956      395.0071       4556.6885      291.24549     -2771.1167      0.40101743     18421.214      0              0              0              0              0             -169.79186    
    123250   4952.3828      425.70986      4526.6729      313.88316     -1809.1347      0.40101743     18421.214      0              0              0              0              0             -165.02061    
    123500   4929.0998      395.77477      4533.325       291.81151     -3715.8122      0.40101743     18421.214      0              0              0              0              0             -162.39517    
    123750   4940.5509      397.18335      4543.3676      292.85007     -2477.3844      0.40101743     18421.214      0              0              0              0              0             -158.33451    
    124000   4906.9213      407.76976      4499.1515      300.65561     -3195.4473      0.40101743     18421.214      0              0              0              0              0             -157.19431    
    124250   4913.3825      412.45716      4500.9254      304.11171     -3070.9614      0.40101743     18421.214      0              0              0              0              0             -156.05641    
    124500   4933.9003      391.49551      4542.4048      288.65633     -3020.6257      0.40101743     18421.214      0              0              0              0              0             -162.99805    
    124750   4944.685       411.08773      4533.5973      303.10201     -1962.4572      0.40101743     18421.214      0              0              0              0              0             -169.70826    
    125000   4927.4772      401.39465      4526.0826      295.95513     -2264.6615      0.40101743     18421.214      0              0              0              0              0             -170.85077    
    125250   4964.957       431.7638       4533.1932      318.34683     -2610.3578      0.40101743     18421.214      0              0              0              0              0             -172.31545    
    125500   4961.315       410.50069      4550.8143      302.66917     -1712.6749      0.40101743     18421.214      0              0              0              0              0             -177.54316    
    125750   4948.1502      392.9133       4555.2369      289.70169     -3223.4647      0.40101743     18421.214      0              0              0              0              0             -173.75457    
    126000   4984.3689      413.98607      4570.3829      305.239       -2753.0091      0.40101743     18421.214      0              0              0              0              0             -167.77764    
    126250   4973.3586      419.60734      4553.7512      309.38366     -1919.1365      0.40101743     18421.214      0              0              0              0              0             -166.54954    
    126500   4936.9274      395.28408      4541.6433      291.44971     -3334.1145      0.40101743     18421.214      0              0              0              0              0             -158.19364    
    126750   4934.2912      399.41552      4534.8757      294.49589     -2884.2599      0.40101743     18421.214      0              0              0              0              0             -161.82679    
    127000   4965.9327      440.11483      4525.8179      324.50419     -2482.8533      0.40101743     18421.214      0              0              0              0              0             -164.75582    
    127250   4979.8765      422.4148       4557.4617      311.45366     -4073.4908      0.40101743     18421.214      0              0              0              0              0             -171.08284    
    127500   5023.9137      451.79221      4572.1215      333.11412     -3803.6325      0.40101743     18421.214      0              0              0              0              0             -177.24271    
    127750   4921.861       416.08277      4505.7783      306.78494     -2610.7579      0.40101743     18421.214      0              0              0              0              0             -187.23529    
    128000   4953.4871      421.47764      4532.0095      310.76267     -3463.5306      0.40101743     18421.214      0              0              0              0              0             -194.7182     
    128250   4984.9302      427.5391       4557.3911      315.23189     -2809.48        0.40101743     18421.214      0              0              0              0              0             -190.65158    
    128500   4943.7931      390.96556      4552.8275      288.26559     -2569.5504      0.40101743     18421.214      0              0              0              0              0             -181.93342    
    128750   4976.1407      437.04935      4539.0914      322.24396     -1981.2368      0.40101743     18421.214      0              0              0              0              0             -177.38213    
    129000   4964.4316      400.24688      4564.1847      295.10886     -2385.9532      0.40101743     18421.214      0              0              0              0              0             -182.21943    
    129250   4929.8637      404.70423      4525.1595      298.39535     -2295.44        0.40101743     18421.214      0              0              0              0              0             -184.06103    
    129500   4933.2755      407.34846      4525.9271      300.34498     -3235.8664      0.40101743     18421.214      0              0              0              0              0             -186.3888     
    129750   4950.7074      409.39486      4541.3126      301.85383     -2046.0127      0.40101743     18421.214      0              0              0              0              0             -188.60644    
    130000   4973.9504      411.57975      4562.3707      303.46478     -2291.7003      0.40101743     18421.214      0              0              0              0              0             -177.05455    
    130250   4963.3236      435.94481      4527.3788      321.42956     -3348.9796      0.40101743     18421.214      0              0              0              0              0             -181.39979    
    130500   4919.8861      425.36272      4494.5233      313.6272      -2540.9369      0.40101743     18421.214      0              0              0              0              0             -161.31608    
    130750   4940.6381      411.95866      4528.6794      303.74416     -1633.9709      0.40101743     18421.214      0              0              0              0              0             -168.42918    
    131000   4971.996       412.23129      4559.7648      303.94517     -2498.2721      0.40101743     18421.214      0              0              0              0              0             -174.27678    
    131250   4956.1515      421.25047      4534.9011      310.59517     -1888.067       0.40101743     18421.214      0              0              0              0              0             -178.78023    
    131500   4941.5496      410.54434      4531.0053      302.70136     -1134.2685      0.40101743     18421.214      0              0              0              0              0             -174.554      
    131750   4944.9805      417.84346      4527.1371      308.08313     -1937.5342      0.40101743     18421.214      0              0              0              0              0             -180.23631    
    132000   4966.2808      418.67441      4547.6064      308.6958      -3208.3133      0.40101743     18421.214      0              0              0              0              0             -185.60787    
    132250   4943.756       394.61694      4549.1391      290.95782     -1383.3939      0.40101743     18421.214      0              0              0              0              0             -188.75231    
    132500   4974.2124      401.38986      4572.8225      295.9516      -2996.837       0.40101743     18421.214      0              0              0              0              0             -188.55584    
    132750   4896.283       387.13733      4509.1457      285.44297     -2639.3189      0.40101743     18421.214      0              0              0              0              0             -186.18448    
    133000   4930.9911      407.62182      4523.3693      300.54653     -2831.5079      0.40101743     18421.214      0              0              0              0              0             -180.63981    
    133250   4936.2389      406.63016      4529.6088      299.81536     -2857.6525      0.40101743     18421.214      0              0              0              0              0             -187.5872     
    133500   4924.4693      411.69134      4512.778       303.54706     -1814.1506      0.40101743     18421.214      0              0              0              0              0             -190.35702    
    133750   4944.3865      410.62818      4533.7583      302.76318     -3630.9469      0.40101743     18421.214      0              0              0              0              0             -198.17244    
    134000   4952.4715      418.01206      4534.4595      308.20744     -2158.8539      0.40101743     18421.214      0              0              0              0              0             -196.19198    
    134250   4988.8216      436.05078      4552.7708      321.5077      -2683.3855      0.40101743     18421.214      0              0              0              0              0             -192.40922    
    134500   4955.3482      399.85962      4555.4886      294.82333     -3692.3164      0.40101743     18421.214      0              0              0              0              0             -194.83       
    134750   4928.1144      402.57569      4525.5387      296.82593     -2933.8714      0.40101743     18421.214      0              0              0              0              0             -198.73983    
    135000   4950.974       405.52845      4545.4455      299.00305     -1332.9858      0.40101743     18421.214      0              0              0              0              0             -191.41119    
    135250   4950.8368      434.14089      4516.6959      320.09949     -2478.4371      0.40101743     18421.214      0              0              0              0              0             -193.93629    
    135500   4962.9968      408.364        4554.6327      301.09376     -2431.2583      0.40101743     18421.214      0              0              0              0              0             -192.25491    
    135750   4954.7507      424.26081      4530.4899      312.81475     -3535.7059      0.40101743     18421.214      0              0              0              0              0             -193.68276    
    136000   4949.2406      409.25055      4539.9901      301.74742     -3838.5491      0.40101743     18421.214      0              0              0              0              0             -195.36857    
    136250   4981.5826      434.9034       4546.6792      320.66171     -2783.9707      0.40101743     18421.214      0              0              0              0              0             -191.49723    
    136500   4935.8856      391.6793       4544.2064      288.79184     -3091.1527      0.40101743     18421.214      0              0              0              0              0             -189.244      
    136750   4946.893       409.80896      4537.084       302.15915     -3357.3169      0.40101743     18421.214      0              0              0              0              0             -191.56199    
    137000   4942.7952      401.75048      4541.0447      296.2175      -4328.6589      0.40101743     18421.214      0              0              0              0              0             -195.248      
    137250   4940.667       392.27484      4548.3921      289.23095     -3767.7053      0.40101743     18421.214      0              0              0              0              0             -184.39192    
    137500   4978.3142      427.68622      4550.6279      315.34036     -1973.6394      0.40101743     18421.214      0              0              0              0              0             -181.66166    
    137750   4957.69        424.31135      4533.3786      312.85201     -2422.5329      0.40101743     18421.214      0              0              0              0              0             -180.45927    
    138000   4933.7546      394.02671      4539.7279      290.52263     -1860.8282      0.40101743     18421.214      0              0              0              0              0             -185.0451     
    138250   4986.1687      422.86167      4563.307       311.78314     -2510.7062      0.40101743     18421.214      0              0              0              0              0             -191.64506    
    138500   4957.6122      410.6276       4546.9846      302.76274     -2936.2839      0.40101743     18421.214      0              0              0              0              0             -188.79125    
    138750   4946.8417      407.48131      4539.3604      300.44293     -2872.584       0.40101743     18421.214      0              0              0              0              0             -185.5429     
    139000   4968.8044      430.56633      4538.2381      317.46392     -3327.4245      0.40101743     18421.214      0              0              0              0              0             -195.20446    
    139250   4941.7148      409.94153      4531.7733      302.2569      -2749.7625      0.40101743     18421.214      0              0              0              0              0             -195.48736    
    139500   4937.7851      423.28587      4514.4992      312.09591     -2801.9973      0.40101743     18421.214      0              0              0              0              0             -195.74532    
    139750   4958.1096      407.56634      4550.5432      300.50563     -3337.8335      0.40101743     18421.214      0              0              0              0              0             -194.05622    
    140000   4970.5         434.54407      4535.956       320.39677     -2658.8697      0.40101743     18421.214      0              0              0              0              0             -191.56568    
    140250   4906.5104      398.02941      4508.4809      293.47389     -3122.3969      0.40101743     18421.214      0              0              0              0              0             -193.899      
    140500   4929.8296      403.37903      4526.4505      297.41825     -4655.2189      0.40101743     18421.214      0              0              0              0              0             -190.53104    
    140750   4950.4307      397.45771      4552.9729      293.05237     -2983.8194      0.40101743     18421.214      0              0              0              0              0             -189.12247    
    141000   4947.1107      410.38251      4536.7282      302.58204     -2136.2231      0.40101743     18421.214      0              0              0              0              0             -188.78752    
    141250   4915.7389      396.30631      4519.4326      292.20342     -3020.2788      0.40101743     18421.214      0              0              0              0              0             -191.47647    
    141500   4966.3028      418.65432      4547.6485      308.68098     -3130.5342      0.40101743     18421.214      0              0              0              0              0             -179.35264    
    141750   4945.3558      420.89299      4524.4628      310.3316      -2518.473       0.40101743     18421.214      0              0              0              0              0             -178.69621    
    142000   4933.2548      391.39057      4541.8642      288.57895     -2382.1631      0.40101743     18421.214      0              0              0              0              0             -170.81444    
    142250   4942.8238      398.08243      4544.7414      293.51298     -2750.9265      0.40101743     18421.214      0              0              0              0              0             -167.92971    
    142500   4925.9205      400.44733      4525.4732      295.25666     -2907.6992      0.40101743     18421.214      0              0              0              0              0             -174.7444     
    142750   4955.3405      435.75039      4519.5901      321.28621     -1352.0125      0.40101743     18421.214      0              0              0              0              0             -185.05156    
    143000   4939.2623      405.17943      4534.0828      298.74572     -1333.949       0.40101743     18421.214      0              0              0              0              0             -180.56152    
    143250   4944.0636      409.59029      4534.4733      301.99792     -3337.5124      0.40101743     18421.214      0              0              0              0              0             -185.23508    
    143500   4946.7815      402.5408       4544.2407      296.80021     -2579.6416      0.40101743     18421.214      0              0              0              0              0             -182.53971    
    143750   4965.0911      417.71934      4547.3718      307.99161     -2917.2865      0.40101743     18421.214      0              0              0              0              0             -186.39996    
    144000   4948.048       430.66462      4517.3833      317.53639     -2187.835       0.40101743     18421.214      0              0              0              0              0             -188.22229    
    144250   4939.1245      398.18262      4540.9419      293.58685     -2542.8313      0.40101743     18421.214      0              0              0              0              0             -188.76405    
    144500   4953.7394      421.62071      4532.1187      310.86816     -2803.7258      0.40101743     18421.214      0              0              0              0              0             -187.73366    
    144750   4930.7836      387.89111      4542.8924      285.99874     -3105.6651      0.40101743     18421.214      0              0              0              0              0             -177.53472    
    145000   4954.5954      393.88751      4560.7079      290.42        -1381.1836      0.40101743     18421.214      0              0              0              0              0             -172.11037    
    145250   4938.2678      400.74052      4537.5273      295.47283     -2643.2799      0.40101743     18421.214      0              0              0              0              0             -181.57795    
    145500   4955.2574      408.80108      4546.4563      301.41603     -2803.1914      0.40101743     18421.214      0              0              0              0              0             -180.02293    
    145750   4958.8335      416.37946      4542.4541      307.00369     -1441.5723      0.40101743     18421.214      0              0              0              0              0             -174.40082    
    146000   4986.4955      430.98573      4555.5098      317.77315     -2973.8829      0.40101743     18421.214      0              0              0              0              0             -174.071      
    146250   4925.6183      403.53431      4522.084       297.53275     -2830.8819      0.40101743     18421.214      0              0              0              0              0             -179.90032    
    146500   4914.9051      398.37049      4516.5346      293.72537     -1976.5396      0.40101743     18421.214      0              0              0              0              0             -172.18577    
    146750   4962.7423      409.72892      4553.0134      302.10013     -2489.7725      0.40101743     18421.214      0              0              0              0              0             -170.93208    
    147000   4925.0594      406.31767      4518.7417      299.58496     -2580.5675      0.40101743     18421.214      0              0              0              0              0             -177.63303    
    147250   4939.78        416.48982      4523.2902      307.08506     -3894.9139      0.40101743     18421.214      0              0              0              0              0             -178.63909    
    147500   4950.6692      414.19252      4536.4767      305.39123     -3511.4586      0.40101743     18421.214      0              0              0              0              0             -172.5889     
    147750   4920.5371      390.92637      4529.6108      288.23669     -3387.0998      0.40101743     18421.214      0              0              0              0              0             -178.19662    
    148000   4991.6571      435.44102      4556.2161      321.0581      -2586.5506      0.40101743     18421.214      0              0              0              0              0             -183.47344    
    148250   4924.533       384.14048      4540.3925      283.23334     -3248.1962      0.40101743     18421.214      0              0              0              0              0             -178.06706    
    148500   4955.1144      399.6643       4555.4501      294.67932     -3412.442       0.40101743     18421.214      0              0              0              0              0             -180.7535     
    148750   4991.8038      444.37982      4547.424       327.64883     -3343.4727      0.40101743     18421.214      0              0              0              0              0             -185.44758    
    149000   4981.9697      429.50153      4552.4682      316.67882     -3481.404       0.40101743     18421.214      0              0              0              0              0             -193.65119    
    149250   4926.2035      405.30791      4520.8956      298.84045     -2387.8006      0.40101743     18421.214      0              0              0              0              0             -189.03822    
    149500   4925.3228      409.96735      4515.3555      302.27594     -911.19076      0.40101743     18421.214      0              0              0              0              0             -190.34185    
    149750   4953.216       399.83472      4553.3813      294.80497     -4227.723       0.40101743     18421.214      0              0              0              0              0             -182.95389    
    150000   4961.4385      432.12032      4529.3182      318.6097      -2732.6853      0.40101743     18421.214      0              0              0              0              0             -184.03522    
    150250   4939.6487      403.50087      4536.1478      297.50809     -3125.2493      0.40101743     18421.214      0              0              0              0              0             -178.94476    
    150500   4940.0843      409.96303      4530.1213      302.27275     -2207.8113      0.40101743     18421.214      0              0              0              0              0             -175.4857     
    150750   4937.3492      421.77497      4515.5743      310.98189     -2894.7139      0.40101743     18421.214      0              0              0              0              0             -173.04684    
    151000   4954.524       420.54887      4533.9752      310.07787     -1542.9835      0.40101743     18421.214      0              0              0              0              0             -174.50985    
    151250   4921.2655      411.37819      4509.8873      303.31617     -2053.9102      0.40101743     18421.214      0              0              0              0              0             -162.0743     
    151500   4924.4584      411.6459       4512.8125      303.51356     -2696.3259      0.40101743     18421.214      0              0              0              0              0             -146.71934    
    151750   4945.3033      413.17212      4532.1312      304.63887     -2488.8101      0.40101743     18421.214      0              0              0              0              0             -142.12325    
    152000   4956.9601      422.18576      4534.7743      311.28478     -2113.7959      0.40101743     18421.214      0              0              0              0              0             -146.81599    
    152250   4923.2886      409.7826       4513.506       302.13972     -1625.1012      0.40101743     18421.214      0              0              0              0              0             -170.4804     
    152500   4926.6971      411.97051      4514.7265      303.7529      -3262.8728      0.40101743     18421.214      0              0              0              0              0             -180.56825    
    152750   4990.2085      426.35226      4563.8562      314.35681     -2591.5103      0.40101743     18421.214      0              0              0              0              0             -176.49741    
    153000   4961.4115      410.96496      4550.4465      303.01149     -2642.2765      0.40101743     18421.214      0              0              0              0              0             -186.63226    
    153250   4943.4728      386.88313      4556.5897      285.25554     -2605.723       0.40101743     18421.214      0              0              0              0              0             -184.05144    
    153500   4949.0453      432.35452      4516.6908      318.78238     -2978.2325      0.40101743     18421.214      0              0              0              0              0             -188.60877    
    153750   4947.9776      415.01072      4532.9669      305.9945      -1530.007       0.40101743     18421.214      0              0              0              0              0             -197.18264    
    154000   4928.5614      403.5137       4525.0477      297.51755     -2480.1341      0.40101743     18421.214      0              0              0              0              0             -191.34317    
    154250   4938.1424      404.23086      4533.9116      298.04632     -2949.9161      0.40101743     18421.214      0              0              0              0              0             -189.69237    
    154500   4940.985       406.64019      4534.3448      299.82276     -2949.1958      0.40101743     18421.214      0              0              0              0              0             -183.52584    
    154750   4919.6386      419.94221      4499.6964      309.63057     -2978.6908      0.40101743     18421.214      0              0              0              0              0             -183.56301    
    155000   4972.257       443.32057      4528.9364      326.86783     -2118.6365      0.40101743     18421.214      0              0              0              0              0             -188.27222    
    155250   4942.1375      419.41229      4522.7252      309.23985     -3527.7849      0.40101743     18421.214      0              0              0              0              0             -193.32322    
    155500   4942.6696      416.26916      4526.4004      306.92237     -2527.2667      0.40101743     18421.214      0              0              0              0              0             -198.16707    
    155750   4899.354       401.06164      4498.2923      295.7096      -2951.7121      0.40101743     18421.214      0              0              0              0              0             -195.675      
    156000   4917.5388      396.80779      4520.7311      292.57316     -2550.427       0.40101743     18421.214      0              0              0              0              0             -194.5285     
    156250   4969.3616      407.50629      4561.8553      300.46135     -3905.0424      0.40101743     18421.214      0              0              0              0              0             -192.68508    
    156500   4947.4619      400.0872       4547.3747      294.99113     -2433.2638      0.40101743     18421.214      0              0              0              0              0             -193.78225    
    156750   4925.3919      401.68861      4523.7033      296.17188     -3137.2645      0.40101743     18421.214      0              0              0              0              0             -199.68269    
    157000   4949.5982      412.6523       4536.9459      304.25559     -2448.473       0.40101743     18421.214      0              0              0              0              0             -200.20957    
    157250   4981.7724      428.69841      4553.074       316.08667     -810.52672      0.40101743     18421.214      0              0              0              0              0             -194.78622    
    157500   4979.5313      415.50943      4564.0219      306.36221     -1842.6946      0.40101743     18421.214      0              0              0              0              0             -188.75292    
    157750   4950.5796      411.31709      4539.2625      303.27112     -1693.5716      0.40101743     18421.214      0              0              0              0              0             -191.07158    
    158000   4920.3057      407.84919      4512.4565      300.71418     -1544.3986      0.40101743     18421.214      0              0              0              0              0             -189.73019    
    158250   4948.2369      410.89251      4537.3444      302.95807     -2636.4333      0.40101743     18421.214      0              0              0              0              0             -188.42927    
    158500   4957.767       415.4019       4542.3651      306.28292     -2915.0691      0.40101743     18421.214      0              0              0              0              0             -187.83272    
    158750   4966.882       431.24068      4535.6413      317.96113     -1872.7882      0.40101743     18421.214      0              0              0              0              0             -190.61456    
    159000   4941.2935      415.15042      4526.1431      306.0975      -2388.1016      0.40101743     18421.214      0              0              0              0              0             -190.06616    
    159250   4956.1655      412.48196      4543.6835      304.13        -4025.452       0.40101743     18421.214      0              0              0              0              0             -194.43413    
    159500   4961.3343      422.60051      4538.7338      311.59058     -2485.1561      0.40101743     18421.214      0              0              0              0              0             -194.92667    
    159750   4945.8613      410.30576      4535.5556      302.52545     -1970.7533      0.40101743     18421.214      0              0              0              0              0             -182.99697    
    160000   4967.849       418.67116      4549.1778      308.6934      -1913.4983      0.40101743     18421.214      0              0              0              0              0             -178.71482    
    160250   4960.3453      428.22132      4532.124       315.7349      -2451.5311      0.40101743     18421.214      0              0              0              0              0             -183.58777    
    160500   4951.3662      425.76283      4525.6034      313.92221     -2478.5764      0.40101743     18421.214      0              0              0              0              0             -183.24218    
    160750   4964.8403      430.34454      4534.4958      317.30038     -2589.3363      0.40101743     18421.214      0              0              0              0              0             -187.46874    
    161000   4913.8531      409.56353      4504.2896      301.97819     -3408.3187      0.40101743     18421.214      0              0              0              0              0             -184.48635    
    161250   4908.1941      383.59903      4524.5951      282.83412     -2585.0755      0.40101743     18421.214      0              0              0              0              0             -172.12921    
    161500   4937.5344      403.36133      4534.1731      297.4052      -3201.4076      0.40101743     18421.214      0              0              0              0              0             -178.76457    
    161750   4974.958       434.34803      4540.61        320.25222     -3472.6627      0.40101743     18421.214      0              0              0              0              0             -179.22457    
    162000   4936.3719      416.56491      4519.807       307.14043     -2537.8881      0.40101743     18421.214      0              0              0              0              0             -177.81917    
    162250   4964.9024      436.92765      4527.9747      322.15423     -2486.5637      0.40101743     18421.214      0              0              0              0              0             -174.2918     
    162500   4950.9685      435.1924       4515.7761      320.87479     -2332.0949      0.40101743     18421.214      0              0              0              0              0             -180.83418    
    162750   4922.4483      385.96685      4536.4815      284.57995     -1834.7117      0.40101743     18421.214      0              0              0              0              0             -187.49472    
    163000   4914.9969      380.42526      4534.5716      280.49405     -1394.3565      0.40101743     18421.214      0              0              0              0              0             -191.16791    
    163250   4937.5238      422.49094      4515.0329      311.50979     -2440.8461      0.40101743     18421.214      0              0              0              0              0             -186.41615    
    163500   4968.9758      423.23824      4545.7376      312.06079     -3030.8761      0.40101743     18421.214      0              0              0              0              0             -190.10932    
    163750   4948.5852      415.06785      4533.5174      306.03662     -2062.0065      0.40101743     18421.214      0              0              0              0              0             -189.93036    
    164000   4921.4867      395.61876      4525.868       291.69647     -3328.7447      0.40101743     18421.214      0              0              0              0              0             -184.14315    
    164250   4931.8402      395.55234      4536.2878      291.6475      -2016.5361      0.40101743     18421.214      0              0              0              0              0             -177.46552    
    164500   4925.4631      406.40485      4519.0582      299.64924     -2616.758       0.40101743     18421.214      0              0              0              0              0             -174.17082    
    164750   4927.5347      396.82754      4530.7072      292.58773     -2474.5199      0.40101743     18421.214      0              0              0              0              0             -181.07185    
    165000   4925.468       373.89536      4551.5726      275.67944     -4175.3555      0.40101743     18421.214      0              0              0              0              0             -179.23889    
    165250   4957.2601      400.46612      4556.7939      295.27052     -3484.5769      0.40101743     18421.214      0              0              0              0              0             -179.87462    
    165500   4933.1519      400.92327      4532.2286      295.60758     -572.06496      0.40101743     18421.214      0              0              0              0              0             -173.40884    
    165750   4908.3619      385.55455      4522.8074      284.27596     -3032.5853      0.40101743     18421.214      0              0              0              0              0             -171.89168    
    166000   4940.1042      399.62256      4540.4817      294.64854     -2993.5037      0.40101743     18421.214      0              0              0              0              0             -177.76383    
    166250   4938.0186      406.57404      4531.4445      299.77399     -2781.6813      0.40101743     18421.214      0              0              0              0              0             -179.45912    
    166500   4957.1166      411.21796      4545.8986      303.19803     -2515.2254      0.40101743     18421.214      0              0              0              0              0             -179.61491    
    166750   4954.5988      420.00589      4534.5929      309.67752     -2928.3412      0.40101743     18421.214      0              0              0              0              0             -180.86625    
    167000   4917.7826      398.24006      4519.5426      293.6292      -3037.7982      0.40101743     18421.214      0              0              0              0              0             -174.86118    
    167250   4981.7793      435.34485      4546.4345      320.9872      -3252.8371      0.40101743     18421.214      0              0              0              0              0             -167.23432    
    167500   4989.8004      435.42931      4554.3711      321.04948     -1003.2253      0.40101743     18421.214      0              0              0              0              0             -176.47473    
    167750   4940.6129      382.64564      4557.9672      282.13117     -2845.2257      0.40101743     18421.214      0              0              0              0              0             -179.26655    
    168000   4921.9074      401.90056      4520.0069      296.32815     -1951.6005      0.40101743     18421.214      0              0              0              0              0             -182.82021    
    168250   4938.4903      399.07495      4539.4154      294.24478     -3399.5578      0.40101743     18421.214      0              0              0              0              0             -178.65448    
    168500   4912.4171      394.16477      4518.2523      290.62442     -2999.929       0.40101743     18421.214      0              0              0              0              0             -176.33302    
    168750   4916.2202      390.99902      4525.2212      288.29026     -1836.1215      0.40101743     18421.214      0              0              0              0              0             -173.24968    
    169000   4954.3043      411.10554      4543.1987      303.11514     -3146.2384      0.40101743     18421.214      0              0              0              0              0             -170.74436    
    169250   4926.5022      390.54495      4535.9573      287.95547     -2838.3792      0.40101743     18421.214      0              0              0              0              0             -178.66162    
    169500   4944.5565      400.06142      4544.4951      294.97212     -1621.4302      0.40101743     18421.214      0              0              0              0              0             -187.62475    
    169750   4950.3517      422.34914      4528.0025      311.40524     -2121.7455      0.40101743     18421.214      0              0              0              0              0             -187.52949    
    170000   4922.5712      402.88585      4519.6854      297.05463     -2394.4291      0.40101743     18421.214      0              0              0              0              0             -188.26465    
    170250   4981.5183      423.99579      4557.5225      312.61935     -924.54252      0.40101743     18421.214      0              0              0              0              0             -186.56964    
    170500   4927.1346      399.94428      4527.1903      294.88576     -1693.8143      0.40101743     18421.214      0              0              0              0              0             -182.55748    
    170750   4915.8235      389.69103      4526.1325      287.32586     -3360.5828      0.40101743     18421.214      0              0              0              0              0             -186.43274    
    171000   4969.551       418.9647       4550.5863      308.90984     -3310.7883      0.40101743     18421.214      0              0              0              0              0             -195.85796    
    171250   4934.5553      394.97227      4539.583       291.21981     -2229.2621      0.40101743     18421.214      0              0              0              0              0             -184.50039    
    171500   4945.9963      404.04492      4541.9514      297.90923     -3257.8484      0.40101743     18421.214      0              0              0              0              0             -180.01262    
    171750   4939.9752      383.29541      4556.6798      282.61025     -2435.2504      0.40101743     18421.214      0              0              0              0              0             -184.75712    
    172000   4928.644       404.65876      4523.9853      298.36182     -1562.3852      0.40101743     18421.214      0              0              0              0              0             -184.79425    
    172250   4935.9245      397.81323      4538.1112      293.3145      -3130.5955      0.40101743     18421.214      0              0              0              0              0             -172.74537    
    172500   4891.5814      398.43403      4493.1473      293.77222     -2881.995       0.40101743     18421.214      0              0              0              0              0             -174.70889    
    172750   4903.5106      380.63034      4522.8802      280.64526     -2340.2906      0.40101743     18421.214      0              0              0              0              0             -179.6755     
    173000   4975.9438      418.29516      4557.6487      308.41617     -3698.6593      0.40101743     18421.214      0              0              0              0              0             -171.83239    
    173250   4950.2516      408.34559      4541.906       301.08019     -3213.6103      0.40101743     18421.214      0              0              0              0              0             -173.7689     
    173500   4986.7098      415.16423      4571.5455      306.10768     -2624.996       0.40101743     18421.214      0              0              0              0              0             -170.63566    
    173750   4924.5385      410.64783      4513.8906      302.77766     -2210.3935      0.40101743     18421.214      0              0              0              0              0             -177.14773    
    174000   4954.6829      400.42576      4554.2572      295.24076     -2082.6879      0.40101743     18421.214      0              0              0              0              0             -185.30869    
    174250   4937.1988      392.79945      4544.3994      289.61775     -2374.7102      0.40101743     18421.214      0              0              0              0              0             -181.40428    
    174500   4920.8161      405.93331      4514.8828      299.30157     -2254.4789      0.40101743     18421.214      0              0              0              0              0             -172.90353    
    174750   4913.8301      403.28345      4510.5466      297.34778     -2816.098       0.40101743     18421.214      0              0              0              0              0             -185.1892     
    175000   4934.6896      399.56605      4535.1235      294.60688     -2047.0222      0.40101743     18421.214      0              0              0              0              0             -178.41143    
    175250   4938.0177      406.24952      4531.7681      299.53472     -3049.8475      0.40101743     18421.214      0              0              0              0              0             -179.35613    
    175500   4934.6941      412.27234      4522.4217      303.97544     -3003.9328      0.40101743     18421.214      0              0              0              0              0             -184.04224    
    175750   4973.9907      414.69456      4559.2962      305.76139     -2998.9492      0.40101743     18421.214      0              0              0              0              0             -184.60058    
    176000   4982.9594      422.69326      4560.2661      311.65896     -2645.139       0.40101743     18421.214      0              0              0              0              0             -184.58688    
    176250   4913.0855      404.35983      4508.7257      298.14141     -2421.0043      0.40101743     18421.214      0              0              0              0              0             -184.21319    
    176500   4966.3973      417.68482      4548.7125      307.96616     -2172.3728      0.40101743     18421.214      0              0              0              0              0             -181.76869    
    176750   4916.3893      376.21663      4540.1727      277.39095     -1954.8782      0.40101743     18421.214      0              0              0              0              0             -179.09027    
    177000   4931.235       416.27596      4514.959       306.92738     -2908.1772      0.40101743     18421.214      0              0              0              0              0             -180.52455    
    177250   4895.4729      390.65504      4504.8178      288.03664     -2384.3238      0.40101743     18421.214      0              0              0              0              0             -181.89281    
    177500   4969.3257      421.9385       4547.3872      311.10247     -2044.6085      0.40101743     18421.214      0              0              0              0              0             -185.56516    
    177750   4979.4858      435.24918      4544.2366      320.91666     -3709.8072      0.40101743     18421.214      0              0              0              0              0             -188.97026    
    178000   4955.1052      416.0759       4539.0293      306.77988     -2555.6848      0.40101743     18421.214      0              0              0              0              0             -176.24918    
    178250   4971.8407      431.15004      4540.6906      317.89429     -2175.2431      0.40101743     18421.214      0              0              0              0              0             -167.10337    
    178500   4937.3049      407.59951      4529.7054      300.53009     -3243.6224      0.40101743     18421.214      0              0              0              0              0             -171.93743    
    178750   4945.3906      407.03574      4538.3548      300.11441     -2023.3124      0.40101743     18421.214      0              0              0              0              0             -166.53612    
    179000   4933.0843      389.31964      4543.7646      287.05203     -1746.7211      0.40101743     18421.214      0              0              0              0              0             -168.49289    
    179250   4963.7585      436.70396      4527.0545      321.98929     -3294.1915      0.40101743     18421.214      0              0              0              0              0             -166.19211    
    179500   4945.3592      403.00918      4542.35        297.14556     -2602.3531      0.40101743     18421.214      0              0              0              0              0             -177.45816    
    179750   4946.0755      402.12663      4543.9488      296.49484     -2301.8766      0.40101743     18421.214      0              0              0              0              0             -185.29746    
    180000   4948.1434      423.43902      4524.7044      312.20883     -3037.2013      0.40101743     18421.214      0              0              0              0              0             -195.64315    
    180250   4928.5325      385.35484      4543.1777      284.12871     -1711.0394      0.40101743     18421.214      0              0              0              0              0             -194.14482    
    180500   4969.0694      409.73045      4559.339       302.10126     -1957.2546      0.40101743     18421.214      0              0              0              0              0             -189.51297    
    180750   4944.9907      428.78764      4516.2031      316.15245     -2884.8323      0.40101743     18421.214      0              0              0              0              0             -189.74012    
    181000   5001.3225      441.8732       4559.4493      325.80066     -2122.8244      0.40101743     18421.214      0              0              0              0              0             -176.6066     
    181250   4929.4957      412.64166      4516.854       304.24775     -2130.8032      0.40101743     18421.214      0              0              0              0              0             -181.04984    
    181500   4922.1556      404.99044      4517.1651      298.60637     -3036.6583      0.40101743     18421.214      0              0              0              0              0             -174.15957    
    181750   4929.8779      389.82421      4540.0537      287.42405     -2863.9445      0.40101743     18421.214      0              0              0              0              0             -168.72931    
    182000   4937.234       396.14818      4541.0859      292.08682     -2867.61        0.40101743     18421.214      0              0              0              0              0             -165.6568     
    182250   4959.6167      438.99586      4520.6209      323.67915     -2646.052       0.40101743     18421.214      0              0              0              0              0             -162.77532    
    182500   4974.7602      422.74535      4552.0149      311.69737     -2355.4328      0.40101743     18421.214      0              0              0              0              0             -165.83973    
    182750   4961.7962      389.55225      4572.2439      287.22353     -3224.8428      0.40101743     18421.214      0              0              0              0              0             -177.95482    
    183000   4967.1531      420.48999      4546.6631      310.03446     -2738.5993      0.40101743     18421.214      0              0              0              0              0             -189.68526    
    183250   4948.1135      398.63594      4549.4776      293.92109     -2939.9947      0.40101743     18421.214      0              0              0              0              0             -189.58256    
    183500   4934.7795      413.39364      4521.3858      304.80219     -3312.953       0.40101743     18421.214      0              0              0              0              0             -189.01159    
    183750   4930.7734      379.89513      4550.8783      280.10317     -3224.9515      0.40101743     18421.214      0              0              0              0              0             -187.14169    
    184000   4922.1551      407.14429      4515.0109      300.19444     -3012.3273      0.40101743     18421.214      0              0              0              0              0             -183.32851    
    184250   4956.7896      402.31492      4554.4747      296.63367     -2642.0328      0.40101743     18421.214      0              0              0              0              0             -195.36867    
    184500   4951.79        422.97823      4528.8117      311.86908     -2575.5215      0.40101743     18421.214      0              0              0              0              0             -189.74591    
    184750   4958.5345      417.03417      4541.5004      307.48642     -1365.2386      0.40101743     18421.214      0              0              0              0              0             -183.33891    
    185000   4920.4654      411.90589      4508.5595      303.70525     -2414.0329      0.40101743     18421.214      0              0              0              0              0             -179.4629     
    185250   4927.1683      398.56449      4528.6038      293.86841     -3062.5679      0.40101743     18421.214      0              0              0              0              0             -176.06561    
    185500   4961.6635      418.33724      4543.3262      308.4472      -3074.1199      0.40101743     18421.214      0              0              0              0              0             -184.74308    
    185750   4968.4425      415.46522      4552.9772      306.32961     -2944.3796      0.40101743     18421.214      0              0              0              0              0             -193.85155    
    186000   4902.7606      379.61928      4523.1413      279.89979     -2583.1278      0.40101743     18421.214      0              0              0              0              0             -193.41291    
    186250   4947.3796      420.74277      4526.6369      310.22083     -2884.6446      0.40101743     18421.214      0              0              0              0              0             -189.75254    
    186500   4964.4869      439.22289      4525.264       323.84654     -2856.4188      0.40101743     18421.214      0              0              0              0              0             -184.9141     
    186750   4949.4627      412.97952      4536.4831      304.49686     -3405.161       0.40101743     18421.214      0              0              0              0              0             -183.10659    
    187000   4944.2882      413.16539      4531.1228      304.6339      -1720.5381      0.40101743     18421.214      0              0              0              0              0             -176.72805    
    187250   4925.1196      383.13155      4541.988       282.48944     -2748.2152      0.40101743     18421.214      0              0              0              0              0             -186.59606    
    187500   4948.9309      410.74098      4538.1899      302.84634     -1823.5943      0.40101743     18421.214      0              0              0              0              0             -178.8172     
    187750   4918.8662      410.29851      4508.5677      302.5201      -2278.6773      0.40101743     18421.214      0              0              0              0              0             -167.48705    
    188000   4952.1231      416.47703      4535.6461      307.07563     -2166.9808      0.40101743     18421.214      0              0              0              0              0             -160.06587    
    188250   4962.0083      407.65079      4554.3575      300.5679      -1854.4401      0.40101743     18421.214      0              0              0              0              0             -158.61468    
    188500   4917.4436      398.25255      4519.1911      293.63841     -2406.8481      0.40101743     18421.214      0              0              0              0              0             -160.04968    
    188750   4943.837       399.91878      4543.9182      294.86695     -2717.5601      0.40101743     18421.214      0              0              0              0              0             -157.46915    
    189000   4940.6703      405.55138      4535.1189      299.01996     -2299.0748      0.40101743     18421.214      0              0              0              0              0             -166.10044    
    189250   4926.6423      417.77545      4508.8669      308.03298     -3368.7182      0.40101743     18421.214      0              0              0              0              0             -169.2488     
    189500   4967.3272      409.59949      4557.7277      302.00471     -3534.1446      0.40101743     18421.214      0              0              0              0              0             -175.5695     
    189750   4954.948       400.5522       4554.3958      295.33398     -1983.321       0.40101743     18421.214      0              0              0              0              0             -186.75926    
    190000   4919.9435      428.54425      4491.3992      315.973       -2318.5882      0.40101743     18421.214      0              0              0              0              0             -186.26541    
    190250   4943.5115      428.52117      4514.9904      315.95598     -2253.3103      0.40101743     18421.214      0              0              0              0              0             -185.39511    
    190500   4932.7614      403.27101      4529.4904      297.33861     -1756.6378      0.40101743     18421.214      0              0              0              0              0             -187.57822    
    190750   4928.9297      392.07852      4536.8512      289.0862      -3044.295       0.40101743     18421.214      0              0              0              0              0             -188.67552    
    191000   4926.4476      409.22976      4517.2178      301.7321      -2801.1776      0.40101743     18421.214      0              0              0              0              0             -191.78283    
    191250   4957.0445      414.2287       4542.8158      305.4179      -3298.6887      0.40101743     18421.214      0              0              0              0              0             -187.87438    
    191500   4962.6819      430.39545      4532.2864      317.33792     -2412.8845      0.40101743     18421.214      0              0              0              0              0             -185.58254    
    191750   4953.2065      394.65728      4558.5492      290.98756     -3772.1942      0.40101743     18421.214      0              0              0              0              0             -182.70079    
    192000   4939.6419      434.16971      4505.4722      320.12074     -2751.0928      0.40101743     18421.214      0              0              0              0              0             -176.26215    
    192250   4958.1424      419.78231      4538.3601      309.51267     -2014.8578      0.40101743     18421.214      0              0              0              0              0             -180.37919    
    192500   4894.9815      394.67491      4500.3066      291.00056     -1975.5011      0.40101743     18421.214      0              0              0              0              0             -175.08173    
    192750   4917.239       396.21075      4521.0282      292.13296     -2574.3383      0.40101743     18421.214      0              0              0              0              0             -194.57871    
    193000   4955.3546      420.9262       4534.4284      310.35608     -2318.555       0.40101743     18421.214      0              0              0              0              0             -193.5101     
    193250   4963.7133      435.02898      4528.6843      320.7543      -2241.6321      0.40101743     18421.214      0              0              0              0              0             -197.70282    
    193500   4960.5756      420.0145       4540.5611      309.68387     -2249.832       0.40101743     18421.214      0              0              0              0              0             -196.73602    
    193750   4925.109       392.12729      4532.9817      289.12215     -3260.8657      0.40101743     18421.214      0              0              0              0              0             -189.22703    
    194000   4943.042       401.85913      4541.1829      296.2976      -2301.2995      0.40101743     18421.214      0              0              0              0              0             -191.95552    
    194250   4950.6293      419.6643       4530.965       309.42566     -3169.3025      0.40101743     18421.214      0              0              0              0              0             -189.26235    
    194500   4953.8331      434.20932      4519.6238      320.14996     -3097.6715      0.40101743     18421.214      0              0              0              0              0             -193.84014    
    194750   4959.3434      426.05892      4533.2845      314.14053     -1901.9282      0.40101743     18421.214      0              0              0              0              0             -190.4872     
    195000   4960.0938      423.80898      4536.2848      312.4816      -4242.3234      0.40101743     18421.214      0              0              0              0              0             -184.96356    
    195250   4960.4068      414.9563       4545.4505      305.95437     -2452.9485      0.40101743     18421.214      0              0              0              0              0             -180.8926     
    195500   4941.9434      412.22089      4529.7225      303.93751     -3254.6421      0.40101743     18421.214      0              0              0              0              0             -186.02829    
    195750   4962.9431      401.12487      4561.8182      295.75622     -4411.4023      0.40101743     18421.214      0              0              0              0              0             -188.16385    
    196000   4932.267       402.40971      4529.8573      296.70356     -2892.5953      0.40101743     18421.214      0              0              0              0              0             -180.55793    
    196250   4961.9173      417.83654      4544.0807      308.07802     -1403.691       0.40101743     18421.214      0              0              0              0              0             -194.1365     
    196500   4962.0597      417.00896      4545.0507      307.46783     -1700.2467      0.40101743     18421.214      0              0              0              0              0             -187.63674    
    196750   4936.0834      420.25207      4515.8313      309.85904     -2052.0822      0.40101743     18421.214      0              0              0              0              0             -187.3442     
    197000   4965.7017      445.09656      4520.6052      328.1773      -1737.6268      0.40101743     18421.214      0              0              0              0              0             -190.58529    
    197250   4952.0568      412.65662      4539.4002      304.25878     -3499.2152      0.40101743     18421.214      0              0              0              0              0             -190.81876    
    197500   4931.4943      405.46303      4526.0312      298.95482     -2564.2399      0.40101743     18421.214      0              0              0              0              0             -186.57298    
    197750   4965.4158      424.88267      4540.5331      313.27326     -1823.784       0.40101743     18421.214      0              0              0              0              0             -186.81072    
    198000   4949.7535      418.24702      4531.5064      308.38068     -2279.9537      0.40101743     18421.214      0              0              0              0              0             -187.95087    
    198250   4959.926       406.35517      4553.5709      299.61261     -2214.8961      0.40101743     18421.214      0              0              0              0              0             -197.33699    
    198500   4914.6457      388.82413      4525.8216      286.68668     -2154.2919      0.40101743     18421.214      0              0              0              0              0             -194.96471    
    198750   4937.8308      390.55328      4547.2775      287.96161     -1894.7159      0.40101743     18421.214      0              0              0              0              0             -193.97145    
    199000   4911.7556      380.92002      4530.8356      280.85884     -2776.2548      0.40101743     18421.214      0              0              0              0              0             -188.59715    
    199250   4921.5094      384.54128      4536.9681      283.52886     -2296.5344      0.40101743     18421.214      0              0              0              0              0             -185.7371     
    199500   4934.4695      401.08411      4533.3854      295.72617     -2729.1492      0.40101743     18421.214      0              0              0              0              0             -185.45445    
    199750   4916.8289      394.46426      4522.3646      290.84524     -1462.0822      0.40101743     18421.214      0              0              0              0              0             -192.21354    
    200000   4966.5597      404.27042      4562.2893      298.07549     -2444.7034      0.40101743     18421.214      0              0              0              0              0             -198.10193    
    200250   4925.4856      379.77244      4545.7131      280.01271     -3796.0275      0.40101743     18421.214      0              0              0              0              0             -196.6051     
    200500   4911.0749      396.41063      4514.6643      292.28034     -1904.5469      0.40101743     18421.214      0              0              0              0              0             -196.59799    
    200750   4912.7273      379.11267      4533.6146      279.52625     -2037.2696      0.40101743     18421.214      0              0              0              0              0             -195.06552    
    201000   4948.3644      420.95922      4527.4052      310.38043     -3187.8387      0.40101743     18421.214      0              0              0              0              0             -193.20107    
    201250   4950.598       404.86132      4545.7367      298.51117     -3429.3845      0.40101743     18421.214      0              0              0              0              0             -191.43741    
    201500   4953.0485      408.6385       4544.41        301.29615     -3114.1134      0.40101743     18421.214      0              0              0              0              0             -181.78766    
    201750   4966.7238      423.43695      4543.2869      312.2073      -1646.4249      0.40101743     18421.214      0              0              0              0              0             -189.05166    
    202000   4946.2595      410.94061      4535.3189      302.99354     -1760.7203      0.40101743     18421.214      0              0              0              0              0             -193.04927    
    202250   4921.4035      397.32594      4524.0775      292.95521     -2969.2508      0.40101743     18421.214      0              0              0              0              0             -196.93358    
    202500   4931.5299      420.26638      4511.2635      309.86958     -2477.2349      0.40101743     18421.214      0              0              0              0              0             -196.4794     
    202750   4941.8772      411.10532      4530.7719      303.11498     -2598.1078      0.40101743     18421.214      0              0              0              0              0             -192.79052    
    203000   4959.15        408.11468      4551.0353      300.90993     -2995.6247      0.40101743     18421.214      0              0              0              0              0             -189.72556    
    203250   4911.0789      385.47715      4525.6018      284.21889     -2480.2006      0.40101743     18421.214      0              0              0              0              0             -192.98323    
    203500   4957.5632      426.76658      4530.7967      314.6623      -1663.1872      0.40101743     18421.214      0              0              0              0              0             -190.54221    
    203750   4963.3596      408.55784      4554.8017      301.23668     -1468.1449      0.40101743     18421.214      0              0              0              0              0             -180.14898    
    204000   4951.1402      406.98336      4544.1569      300.07578     -3769.9317      0.40101743     18421.214      0              0              0              0              0             -185.85253    
    204250   4957.3916      404.63278      4552.7589      298.34266     -2768.7604      0.40101743     18421.214      0              0              0              0              0             -182.95563    
    204500   4927.7191      401.22469      4526.4944      295.82982     -1634.2039      0.40101743     18421.214      0              0              0              0              0             -180.2156     
    204750   4950.7601      404.35104      4546.4091      298.13493     -1652.3207      0.40101743     18421.214      0              0              0              0              0             -181.01176    
    205000   4934.046       407.0671       4526.9789      300.13753     -3550.7598      0.40101743     18421.214      0              0              0              0              0             -183.59952    
    205250   4925.3255      398.62808      4526.6974      293.9153      -3822.2618      0.40101743     18421.214      0              0              0              0              0             -185.85822    
    205500   4951.4241      415.50734      4535.9167      306.36066     -2513.4462      0.40101743     18421.214      0              0              0              0              0             -181.903      
    205750   4966.6595      417.68324      4548.9763      307.96499     -3389.383       0.40101743     18421.214      0              0              0              0              0             -183.79925    
    206000   4974.0171      437.14154      4536.8756      322.31193     -2983.133       0.40101743     18421.214      0              0              0              0              0             -189.69608    
    206250   4957.8364      406.45888      4551.3775      299.68908     -2294.1424      0.40101743     18421.214      0              0              0              0              0             -193.0826     
    206500   4918.9154      400.91651      4517.9989      295.6026      -1991.8388      0.40101743     18421.214      0              0              0              0              0             -188.30693    
    206750   4963.7576      439.84505      4523.9125      324.30527     -2858.0734      0.40101743     18421.214      0              0              0              0              0             -182.95014    
    207000   4979.9052      437.87902      4542.0262      322.85569     -4514.9197      0.40101743     18421.214      0              0              0              0              0             -183.1958     
    207250   4957.1118      405.10751      4552.0042      298.69269     -2676.0352      0.40101743     18421.214      0              0              0              0              0             -184.10352    
    207500   4938.155       408.71611      4529.4389      301.35337     -2735.2166      0.40101743     18421.214      0              0              0              0              0             -179.13924    
    207750   4920.3571      390.56059      4529.7965      287.967       -3439.7869      0.40101743     18421.214      0              0              0              0              0             -179.38358    
    208000   4966.027       409.54969      4556.4773      301.96798     -2227.5969      0.40101743     18421.214      0              0              0              0              0             -167.47112    
    208250   4933.6676      401.02332      4532.6443      295.68135     -2585.911       0.40101743     18421.214      0              0              0              0              0             -170.72275    
    208500   4956.7013      419.76166      4536.9396      309.49745     -956.17039      0.40101743     18421.214      0              0              0              0              0             -168.62051    
    208750   4923.4647      414.4365       4509.0282      305.57112     -4241.9569      0.40101743     18421.214      0              0              0              0              0             -175.41472    
    209000   4950.3216      406.99775      4543.3238      300.0864      -2740.3968      0.40101743     18421.214      0              0              0              0              0             -175.9027     
    209250   4963.6569      402.80118      4560.8557      296.9922      -2037.0026      0.40101743     18421.214      0              0              0              0              0             -179.95624    
    209500   4979.8755      433.58526      4546.2902      319.68982     -3433.1491      0.40101743     18421.214      0              0              0              0              0             -184.41399    
    209750   4972.3265      432.1365       4540.19        318.62162     -1640.5209      0.40101743     18421.214      0              0              0              0              0             -178.50231    
    210000   4945.2029      415.72755      4529.4754      306.52302     -1548.0623      0.40101743     18421.214      0              0              0              0              0             -178.0072     
    210250   4941.3238      420.24189      4521.0819      309.85153     -2229.6157      0.40101743     18421.214      0              0              0              0              0             -182.68238    
    210500   4951.5654      427.38612      4524.1793      315.11909     -3006.6122      0.40101743     18421.214      0              0              0              0              0             -188.94604    
    210750   4967.2897      422.99777      4544.292       311.88348     -954.12774      0.40101743     18421.214      0              0              0              0              0             -186.12172    
    211000   4913.1831      412.25372      4500.9293      303.96171     -1265.3475      0.40101743     18421.214      0              0              0              0              0             -174.21531    
    211250   4940.0521      403.08505      4536.967       297.2015      -3299.2704      0.40101743     18421.214      0              0              0              0              0             -183.02382    
    211500   4944.5567      397.55854      4546.9982      293.12671     -2666.27        0.40101743     18421.214      0              0              0              0              0             -190.49479    
    211750   4949.564       420.08008      4529.4839      309.73222     -2239.4508      0.40101743     18421.214      0              0              0              0              0             -189.92357    
    212000   4939.6212      414.57739      4525.0438      305.67499     -1959.9574      0.40101743     18421.214      0              0              0              0              0             -170.89685    
    212250   4988.2526      419.25212      4569.0005      309.12175     -2360.6611      0.40101743     18421.214      0              0              0              0              0             -173.55969    
    212500   4944.0787      426.70112      4517.3775      314.61403     -2928.3152      0.40101743     18421.214      0              0              0              0              0             -180.79471    
    212750   4949.0975      415.51091      4533.5866      306.3633      -2069.903       0.40101743     18421.214      0              0              0              0              0             -172.07497    
    213000   4932.2777      402.50101      4529.7767      296.77088     -2527.8973      0.40101743     18421.214      0              0              0              0              0             -171.45483    
    213250   4924.4577      404.31029      4520.1474      298.10489     -3073.9991      0.40101743     18421.214      0              0              0              0              0             -173.87455    
    213500   4938.1589      405.87368      4532.2852      299.2576      -2479.5314      0.40101743     18421.214      0              0              0              0              0             -182.28227    
    213750   4942.3161      419.06052      4523.2556      308.98048     -906.49462      0.40101743     18421.214      0              0              0              0              0             -182.88254    
    214000   4960.2204      424.50335      4535.717       312.99358     -1696.9589      0.40101743     18421.214      0              0              0              0              0             -178.84679    
    214250   4925.8834      407.61861      4518.2648      300.54417     -2232.0161      0.40101743     18421.214      0              0              0              0              0             -171.1826     
    214500   4982.4867      435.72013      4546.7666      321.2639      -2068.7427      0.40101743     18421.214      0              0              0              0              0             -183.81969    
    214750   4955.9226      434.06823      4521.8544      320.04592     -2770.6886      0.40101743     18421.214      0              0              0              0              0             -178.11563    
    215000   4924.9385      407.73746      4517.201       300.6318      -2331.9163      0.40101743     18421.214      0              0              0              0              0             -166.98751    
    215250   4972.2179      402.72607      4569.4918      296.93682     -2956.3226      0.40101743     18421.214      0              0              0              0              0             -153.82959    
    215500   4939.9169      401.12438      4538.7926      295.75586     -2220.9386      0.40101743     18421.214      0              0              0              0              0             -148.822      
    215750   4964.2503      423.59686      4540.6534      312.3252      -1683.1102      0.40101743     18421.214      0              0              0              0              0             -162.2422     
    216000   4938.9167      409.058        4529.8587      301.60546     -1929.5151      0.40101743     18421.214      0              0              0              0              0             -169.10142    
    216250   4959.1377      412.57095      4546.5667      304.19561     -2632.0337      0.40101743     18421.214      0              0              0              0              0             -181.27719    
    216500   4930.5544      387.50911      4543.0453      285.71709     -3070.7148      0.40101743     18421.214      0              0              0              0              0             -181.042      
    216750   4936.2775      402.79785      4533.4796      296.98974     -3457.2432      0.40101743     18421.214      0              0              0              0              0             -176.93706    
    217000   4931.2401      390.14032      4541.0998      287.65713     -3040.9164      0.40101743     18421.214      0              0              0              0              0             -186.71312    
    217250   4942.4608      398.99408      4543.4668      294.18515     -2477.2774      0.40101743     18421.214      0              0              0              0              0             -181.19207    
    217500   4932.9673      402.38016      4530.5871      296.68177     -3053.2356      0.40101743     18421.214      0              0              0              0              0             -177.18772    
    217750   4987.9174      421.425        4566.4924      310.72385     -2717.7172      0.40101743     18421.214      0              0              0              0              0             -179.65718    
    218000   4948.6672      430.49339      4518.1738      317.41014     -1915.3586      0.40101743     18421.214      0              0              0              0              0             -190.52225    
    218250   4937.0861      389.96722      4547.1189      287.52949     -3343.8677      0.40101743     18421.214      0              0              0              0              0             -191.27826    
    218500   4949.2423      399.6445       4549.5978      294.66472     -2898.1547      0.40101743     18421.214      0              0              0              0              0             -186.49373    
    218750   4962.5791      412.49997      4550.0792      304.14328     -2610.836       0.40101743     18421.214      0              0              0              0              0             -184.53624    
    219000   4937.171       412.97211      4524.1989      304.4914      -3160.282       0.40101743     18421.214      0              0              0              0              0             -187.33281    
    219250   4938.0176      399.9077       4538.1099      294.85879     -1440.1115      0.40101743     18421.214      0              0              0              0              0             -186.36687    
    219500   4975.887       441.30419      4534.5828      325.38112     -2382.2248      0.40101743     18421.214      0              0              0              0              0             -182.94907    
    219750   4956.785       421.49986      4535.2851      310.77905     -2155.8686      0.40101743     18421.214      0              0              0              0              0             -179.67791    
    220000   4967.0476      412.65199      4554.3956      304.25537     -2260.7116      0.40101743     18421.214      0              0              0              0              0             -175.07198    
    220250   4963.1984      409.52529      4553.6731      301.95        -2828.5371      0.40101743     18421.214      0              0              0              0              0             -181.44665    
    220500   4928.024       409.95985      4518.0642      302.27041     -3411.5154      0.40101743     18421.214      0              0              0              0              0             -181.28919    
    220750   4930.3666      405.84974      4524.5168      299.23995     -3020.2132      0.40101743     18421.214      0              0              0              0              0             -180.83857    
    221000   4950.8219      427.79615      4523.0258      315.42141     -1375.2006      0.40101743     18421.214      0              0              0              0              0             -181.46943    
    221250   4953.2483      404.86068      4548.3876      298.5107      -2342.8327      0.40101743     18421.214      0              0              0              0              0             -195.72677    
    221500   4960.3083      419.64449      4540.6638      309.41105     -3396.2794      0.40101743     18421.214      0              0              0              0              0             -192.53208    
    221750   4973.066       432.437        4540.629       318.84319     -2286.6842      0.40101743     18421.214      0              0              0              0              0             -191.10091    
    222000   4983.8357      431.32794      4552.5078      318.02547     -2948.6128      0.40101743     18421.214      0              0              0              0              0             -184.95484    
    222250   4974.2944      402.10148      4572.1929      296.47629     -2985.5507      0.40101743     18421.214      0              0              0              0              0             -181.07095    
    222500   4920.6446      383.6465       4536.9981      282.86912     -2287.0732      0.40101743     18421.214      0              0              0              0              0             -184.26417    
    222750   4954.4353      403.23702      4551.1982      297.31354     -2359.3884      0.40101743     18421.214      0              0              0              0              0             -189.85374    
    223000   4911.4907      395.60328      4515.8875      291.68506     -2498.3724      0.40101743     18421.214      0              0              0              0              0             -194.58891    
    223250   4996.3241      421.36519      4574.9589      310.67976     -2431.231       0.40101743     18421.214      0              0              0              0              0             -192.73935    
    223500   4930.0029      383.58968      4546.4132      282.82722     -1322.2887      0.40101743     18421.214      0              0              0              0              0             -188.55053    
    223750   4942.5271      410.57939      4531.9477      302.7272      -2392.1799      0.40101743     18421.214      0              0              0              0              0             -191.27098    
    224000   4973.3844      420.62931      4552.7551      310.13718     -1351.5585      0.40101743     18421.214      0              0              0              0              0             -191.19774    
    224250   4908.927       380.47935      4528.4476      280.53393     -2127.7164      0.40101743     18421.214      0              0              0              0              0             -194.27785    
    224500   4969.592       413.29481      4556.2972      304.72933     -3856.7055      0.40101743     18421.214      0              0              0              0              0             -192.94796    
    224750   4931.7127      393.30923      4538.4035      289.99362     -2623.9352      0.40101743     18421.214      0              0              0              0              0             -189.42226    
    225000   4947.1105      399.1191       4547.9914      294.27734     -2408.8602      0.40101743     18421.214      0              0              0              0              0             -177.44287    
    225250   4941.2797      392.52952      4548.7502      289.41872     -2711.7965      0.40101743     18421.214      0              0              0              0              0             -172.56863    
    225500   4951.3381      404.75054      4546.5875      298.42949     -2308.9787      0.40101743     18421.214      0              0              0              0              0             -173.105      
    225750   4975.3819      432.54963      4542.8322      318.92624     -2554.0617      0.40101743     18421.214      0              0              0              0              0             -180.22789    
    226000   4960.8438      404.99654      4555.8472      298.61087     -2327.4491      0.40101743     18421.214      0              0              0              0              0             -183.93979    
    226250   4965.221       429.45294      4535.7681      316.64299     -1344.9045      0.40101743     18421.214      0              0              0              0              0             -192.63319    
    226500   4930.5212      405.9375       4524.5837      299.30466     -2490.7191      0.40101743     18421.214      0              0              0              0              0             -194.48244    
    226750   4947.9702      382.65639      4565.3138      282.13909     -3039.8219      0.40101743     18421.214      0              0              0              0              0             -188.7745     
    227000   4991.9312      442.17575      4549.7554      326.02374     -1578.7217      0.40101743     18421.214      0              0              0              0              0             -192.75815    
    227250   4952.866       413.88907      4538.9769      305.16749     -4159.7494      0.40101743     18421.214      0              0              0              0              0             -196.0491     
    227500   4914.2082      382.47145      4531.7368      282.00273     -2988.7309      0.40101743     18421.214      0              0              0              0              0             -191.79835    
    227750   4939.6053      404.66953      4534.9357      298.36976     -2010.8509      0.40101743     18421.214      0              0              0              0              0             -191.51184    
    228000   4907.9375      400.82192      4507.1156      295.53286     -2369.5345      0.40101743     18421.214      0              0              0              0              0             -187.37942    
    228250   4890.9601      366.066        4524.8941      269.90672     -1806.3216      0.40101743     18421.214      0              0              0              0              0             -196.16196    
    228500   4950.4682      410.31165      4540.1566      302.52979     -2381.1004      0.40101743     18421.214      0              0              0              0              0             -197.96428    
    228750   4973.4793      432.00884      4541.4704      318.5275      -2561.3336      0.40101743     18421.214      0              0              0              0              0             -197.25002    
    229000   4998.4183      431.46042      4566.9579      318.12314     -3017.6162      0.40101743     18421.214      0              0              0              0              0             -198.81172    
    229250   4947.9693      422.32235      4525.647       311.38548     -1719.0454      0.40101743     18421.214      0              0              0              0              0             -196.53823    
    229500   4961.796       428.52202      4533.274       315.95661     -2353.6359      0.40101743     18421.214      0              0              0              0              0             -189.07431    
    229750   4966.3141      423.67678      4542.6373      312.38413     -2701.7219      0.40101743     18421.214      0              0              0              0              0             -188.92992    
    230000   4931.2836      408.45625      4522.8274      301.16177     -3022.0701      0.40101743     18421.214      0              0              0              0              0             -195.35178    
    230250   4936.6003      411.71326      4524.8871      303.56323     -2267.0796      0.40101743     18421.214      0              0              0              0              0             -194.8194     
    230500   4935.4933      410.55275      4524.9406      302.70756     -1597.4457      0.40101743     18421.214      0              0              0              0              0             -195.59022    
    230750   4966.2849      428.16063      4538.1243      315.69015     -2341.6377      0.40101743     18421.214      0              0              0              0              0             -193.50933    
    231000   4950.8914      399.08559      4551.8058      294.25263     -2371.3242      0.40101743     18421.214      0              0              0              0              0             -194.09516    
    231250   4944.7494      414.39141      4530.358       305.53787     -2425.9111      0.40101743     18421.214      0              0              0              0              0             -192.94541    
    231500   4936.6781      416.30198      4520.3762      306.94656     -2124.9754      0.40101743     18421.214      0              0              0              0              0             -191.70051    
    231750   4930.4094      398.90019      4531.5092      294.11593     -2542.1527      0.40101743     18421.214      0              0              0              0              0             -188.70843    
    232000   4947.0536      391.66795      4555.3856      288.78347     -2741.38        0.40101743     18421.214      0              0              0              0              0             -185.31949    
    232250   4940.3786      398.36383      4542.0147      293.72046     -3465.4456      0.40101743     18421.214      0              0              0              0              0             -184.92342    
    232500   5000.6762      448.41723      4552.2589      330.62569     -2732.1571      0.40101743     18421.214      0              0              0              0              0             -187.74469    
    232750   4941.8613      409.62279      4532.2385      302.02189     -1882.439       0.40101743     18421.214      0              0              0              0              0             -193.02858    
    233000   4920.3547      411.16053      4509.1942      303.15568     -3148.5299      0.40101743     18421.214      0              0              0              0              0             -189.03155    
    233250   4943.3709      413.85989      4529.511       305.14597     -3392.2851      0.40101743     18421.214      0              0              0              0              0             -190.94869    
    233500   4976.296       423.33579      4552.9602      312.13271     -3539.0664      0.40101743     18421.214      0              0              0              0              0             -185.36017    
    233750   4917.731       382.08774      4535.6433      281.71982     -2840.6996      0.40101743     18421.214      0              0              0              0              0             -174.02204    
    234000   4948.38        431.29402      4517.086       318.00046     -1946.1315      0.40101743     18421.214      0              0              0              0              0             -171.54101    
    234250   4951.9603      429.28517      4522.6752      316.51929     -3867.5435      0.40101743     18421.214      0              0              0              0              0             -179.46584    
    234500   4964.4489      421.3075       4543.1414      310.63722     -1655.2402      0.40101743     18421.214      0              0              0              0              0             -184.21244    
    234750   4923.1066      398.23645      4524.8702      293.62654     -2544.5823      0.40101743     18421.214      0              0              0              0              0             -184.59918    
    235000   4945.3077      419.3225       4525.9852      309.17365     -2072.305       0.40101743     18421.214      0              0              0              0              0             -192.20508    
    235250   4934.1849      410.40865      4523.7763      302.60131     -1926.7216      0.40101743     18421.214      0              0              0              0              0             -188.17958    
    235500   4952.7747      406.69498      4546.0798      299.86316     -1916.8235      0.40101743     18421.214      0              0              0              0              0             -191.50002    
    235750   4926.4811      395.80832      4530.6728      291.83624     -4290.2932      0.40101743     18421.214      0              0              0              0              0             -182.3648     
    236000   4933.5174      402.01243      4531.5049      296.41063     -3431.8894      0.40101743     18421.214      0              0              0              0              0             -175.1801     
    236250   4949.7619      418.30278      4531.4591      308.42179     -1617.9117      0.40101743     18421.214      0              0              0              0              0             -159.24314    
    236500   4939.2532      401.23217      4538.021       295.83534     -2854.0037      0.40101743     18421.214      0              0              0              0              0             -167.34418    
    236750   4914.4503      406.20221      4508.2481      299.49983     -3049.4032      0.40101743     18421.214      0              0              0              0              0             -166.55846    
    237000   4914.9249      387.47309      4527.4518      285.69053     -3037.1354      0.40101743     18421.214      0              0              0              0              0             -177.0756     
    237250   4967.1234      424.82169      4542.3017      313.22829     -818.50009      0.40101743     18421.214      0              0              0              0              0             -172.481      
    237500   4934.4811      406.37457      4528.1065      299.62692     -2188.7302      0.40101743     18421.214      0              0              0              0              0             -176.49778    
    237750   4921.5474      405.37518      4516.1723      298.89005     -1971.5221      0.40101743     18421.214      0              0              0              0              0             -172.9361     
    238000   4925.3984      404.2225       4521.1759      298.04016     -2188.6969      0.40101743     18421.214      0              0              0              0              0             -169.12287    
    238250   4901.0926      399.90805      4501.1845      294.85904     -2265.5982      0.40101743     18421.214      0              0              0              0              0             -173.9949     
    238500   4943.4056      415.90177      4527.5038      306.65148     -1651.3955      0.40101743     18421.214      0              0              0              0              0             -170.88305    
    238750   4931.964       413.96094      4518.0031      305.22048     -3730.5507      0.40101743     18421.214      0              0              0              0              0             -187.98044    
    239000   4942.8465      410.72888      4532.1176      302.83742     -3905.1946      0.40101743     18421.214      0              0              0              0              0             -183.63835    
    239250   4947.8593      418.99748      4528.8619      308.934       -2588.8961      0.40101743     18421.214      0              0              0              0              0             -180.39763    
    239500   4954.0734      413.37405      4540.6994      304.78775     -1773.3846      0.40101743     18421.214      0              0              0              0              0             -190.44639    
    239750   4941.8001      422.89004      4518.9101      311.80406     -2747.2447      0.40101743     18421.214      0              0              0              0              0             -190.43402    
    240000   4946.3744      412.74372      4533.6307      304.323       -1693.1991      0.40101743     18421.214      0              0              0              0              0             -188.77858    
    240250   4945.6578      401.70535      4543.9524      296.18422     -1980.2651      0.40101743     18421.214      0              0              0              0              0             -185.599      
    240500   4969.4254      426.40597      4543.0195      314.39641     -2938.772       0.40101743     18421.214      0              0              0              0              0             -186.27782    
    240750   4922.9547      412.73921      4510.2155      304.31968     -2909.0085      0.40101743     18421.214      0              0              0              0              0             -191.68416    
    241000   4947.1523      432.73412      4514.4182      319.06226     -3679.1342      0.40101743     18421.214      0              0              0              0              0             -188.09032    
    241250   4954.0591      420.39029      4533.6689      309.96094     -3470.9133      0.40101743     18421.214      0              0              0              0              0             -188.92141    
    241500   4971.4953      435.8193       4535.676       321.33702     -3022.6196      0.40101743     18421.214      0              0              0              0              0             -185.80691    
    241750   4936.5307      404.20735      4532.3234      298.02898     -3246.058       0.40101743     18421.214      0              0              0              0              0             -179.44126    
    242000   4933.7347      409.65822      4524.0764      302.04801     -1930.6628      0.40101743     18421.214      0              0              0              0              0             -179.54167    
    242250   4954.2689      419.9556       4534.3133      309.64045     -2809.0743      0.40101743     18421.214      0              0              0              0              0             -177.49177    
    242500   4959.9825      409.96313      4550.0193      302.27282     -2790.4874      0.40101743     18421.214      0              0              0              0              0             -176.03736    
    242750   4964.6827      429.56983      4535.1129      316.72918     -2700.6974      0.40101743     18421.214      0              0              0              0              0             -179.70996    
    243000   4974.3531      446.07465      4528.2785      328.89846     -1982.4662      0.40101743     18421.214      0              0              0              0              0             -185.8457     
    243250   4946.9108      414.47097      4532.4398      305.59653     -1708.5641      0.40101743     18421.214      0              0              0              0              0             -190.47508    
    243500   4939.9043      406.6142       4533.2901      299.8036      -1871.86        0.40101743     18421.214      0              0              0              0              0             -189.12391    
    243750   4930.1487      398.33272      4531.8159      293.69753     -1970.7219      0.40101743     18421.214      0              0              0              0              0             -192.74963    
    244000   4960.3536      420.57512      4539.7785      310.09722     -1683.5728      0.40101743     18421.214      0              0              0              0              0             -190.38707    
    244250   4948.4686      412.03268      4536.4359      303.79874     -2326.7164      0.40101743     18421.214      0              0              0              0              0             -191.8024     
    244500   4974.0546      414.45656      4559.5981      305.58591     -1585.4736      0.40101743     18421.214      0              0              0              0              0             -191.31743    
    244750   4937.0741      408.58111      4528.493       301.25383     -3318.7222      0.40101743     18421.214      0              0              0              0              0             -190.72948    
    245000   4996.7066      427.2588       4569.4478      315.02522     -3206.2503      0.40101743     18421.214      0              0              0              0              0             -191.11727    
    245250   4938.5976      401.57683      4537.0208      296.08946     -1974.5702      0.40101743     18421.214      0              0              0              0              0             -191.33309    
    245500   4962.092       426.25658      4535.8354      314.28626     -1848.4477      0.40101743     18421.214      0              0              0              0              0             -189.38868    
    245750   4959.2904      422.55638      4536.734       311.55804     -3005.1131      0.40101743     18421.214      0              0              0              0              0             -182.83022    
    246000   4959.0408      419.17799      4539.8628      309.0671      -2157.9216      0.40101743     18421.214      0              0              0              0              0             -182.35421    
    246250   4986.4088      410.98937      4575.4194      303.02949     -2043.9899      0.40101743     18421.214      0              0              0              0              0             -183.90642    
    246500   4966.1291      427.68196      4538.4471      315.33722     -2767.4348      0.40101743     18421.214      0              0              0              0              0             -191.28758    
    246750   4951.6534      401.43092      4550.2224      295.98188     -1997.2238      0.40101743     18421.214      0              0              0              0              0             -182.16245    
    247000   4947.0279      402.18113      4544.8467      296.53502     -2732.8518      0.40101743     18421.214      0              0              0              0              0             -177.26452    
    247250   4929.6733      404.23932      4525.4339      298.05256     -2510.1923      0.40101743     18421.214      0              0              0              0              0             -184.52297    
    247500   4955.3348      414.22932      4541.1055      305.41835     -1874.9173      0.40101743     18421.214      0              0              0              0              0             -188.44324    
    247750   4947.6508      395.5408       4552.11        291.639       -1769.9985      0.40101743     18421.214      0              0              0              0              0             -190.56687    
    248000   4964.6964      418.55941      4546.137       308.61101     -3167.8172      0.40101743     18421.214      0              0              0              0              0             -187.02531    
    248250   4947.8089      408.00745      4539.8015      300.83086     -2238.9862      0.40101743     18421.214      0              0              0              0              0             -183.42022    
    248500   4968.3387      418.14124      4550.1975      308.30268     -3419.602       0.40101743     18421.214      0              0              0              0              0             -190.18686    
    248750   4952.1415      420.49953      4531.642       310.04149     -2601.1601      0.40101743     18421.214      0              0              0              0              0             -185.43864    
    249000   4958.0345      424.93154      4533.103       313.30929     -2359.3977      0.40101743     18421.214      0              0              0              0              0             -185.99011    
    249250   4961.0369      410.80272      4550.2341      302.89187     -2776.8533      0.40101743     18421.214      0              0              0              0              0             -187.14481    
    249500   4951.5359      392.64254      4558.8934      289.50206     -2123.9187      0.40101743     18421.214      0              0              0              0              0             -184.48659    
    249750   4950.442       419.44533      4530.9967      309.26421     -3441.6525      0.40101743     18421.214      0              0              0              0              0             -186.64879    
    250000   4957.1231      410.77288      4546.3502      302.86987     -2161.6022      0.40101743     18421.214      0              0              0              0              0             -185.65433    
    250250   4930.6853      397.96672      4532.7186      293.42766     -2490.297       0.40101743     18421.214      0              0              0              0              0             -186.03222    
    250500   4947.2406      404.19461      4543.046       298.01959     -2694.4018      0.40101743     18421.214      0              0              0              0              0             -192.81114    
    250750   4938.031       391.52321      4546.5078      288.67675     -1839.0553      0.40101743     18421.214      0              0              0              0              0             -202.06554    
    251000   4941.3197      417.23697      4524.0828      307.63595     -1905.9834      0.40101743     18421.214      0              0              0              0              0             -193.35298    
    251250   4986.5895      419.2682       4567.3213      309.13361     -2898.818       0.40101743     18421.214      0              0              0              0              0             -195.81255    
    251500   4947.0393      396.87414      4550.1651      292.62208     -2622.7457      0.40101743     18421.214      0              0              0              0              0             -192.76315    
    251750   4951.1466      418.27216      4532.8744      308.39921     -2939.9842      0.40101743     18421.214      0              0              0              0              0             -191.13974    
    252000   4908.4247      381.28742      4527.1373      281.12973     -3524.9244      0.40101743     18421.214      0              0              0              0              0             -185.41768    
    252250   4940.6935      411.10639      4529.5871      303.11577     -2041.0592      0.40101743     18421.214      0              0              0              0              0             -186.08915    
    252500   4946.8525      404.3675       4542.485       298.14707     -3855.8117      0.40101743     18421.214      0              0              0              0              0             -185.54129    
    252750   4942.3168      412.24793      4530.0688      303.95745     -1290.6952      0.40101743     18421.214      0              0              0              0              0             -187.39688    
    253000   4972.2016      448.59075      4523.6109      330.75363     -3963.6867      0.40101743     18421.214      0              0              0              0              0             -178.07528    
    253250   4947.078       403.95618      4543.1218      297.84379     -2129.7963      0.40101743     18421.214      0              0              0              0              0             -175.7155     
    253500   4950.0244      443.02132      4507.0031      326.64719     -3364.6117      0.40101743     18421.214      0              0              0              0              0             -188.21129    
    253750   4943.0732      408.04167      4535.0315      300.8561      -1255.5535      0.40101743     18421.214      0              0              0              0              0             -183.20054    
    254000   4953.7812      418.14316      4535.638       308.3041      -2179.2891      0.40101743     18421.214      0              0              0              0              0             -182.74995    
    254250   4948.9247      417.67894      4531.2458      307.96182     -1198.7472      0.40101743     18421.214      0              0              0              0              0             -183.74992    
    254500   4965.8825      412.17143      4553.7111      303.90104     -3167.2687      0.40101743     18421.214      0              0              0              0              0             -194.37538    
    254750   4971.8013      433.82129      4537.98        319.86386     -3773.4587      0.40101743     18421.214      0              0              0              0              0             -184.458      
    255000   4959.736       415.59978      4544.1363      306.42882     -1661.6772      0.40101743     18421.214      0              0              0              0              0             -172.40349    
    255250   4930.2247      401.46993      4528.7547      296.01064     -3069.6734      0.40101743     18421.214      0              0              0              0              0             -174.19898    
    255500   4953.5491      410.5796       4542.9695      302.72735     -1820.674       0.40101743     18421.214      0              0              0              0              0             -180.12255    
    255750   4931.8637      405.64326      4526.2205      299.08771     -3333.9125      0.40101743     18421.214      0              0              0              0              0             -189.30279    
    256000   4947.1076      403.28491      4543.8227      297.34886     -2664.9848      0.40101743     18421.214      0              0              0              0              0             -180.2352     
    256250   4928.4441      407.0974       4521.3467      300.15987     -2277.858       0.40101743     18421.214      0              0              0              0              0             -168.72859    
    256500   4943.0396      422.54568      4520.4939      311.55015     -1720.315       0.40101743     18421.214      0              0              0              0              0             -174.231      
    256750   4945.6654      389.67107      4555.9943      287.31114     -3326.955       0.40101743     18421.214      0              0              0              0              0             -181.62638    
    257000   4943.8667      409.77908      4534.0876      302.13712     -2793.2919      0.40101743     18421.214      0              0              0              0              0             -186.5131     
    257250   4966.9996      419.08377      4547.9159      308.99762     -3032.1628      0.40101743     18421.214      0              0              0              0              0             -187.84727    
    257500   4964.2738      405.4122       4558.8616      298.91734     -2969.8375      0.40101743     18421.214      0              0              0              0              0             -187.45281    
    257750   4958.3737      420.00074      4538.373       309.67372     -3154.0237      0.40101743     18421.214      0              0              0              0              0             -190.31258    
    258000   4959.2539      405.83873      4553.4152      299.23183     -2578.0496      0.40101743     18421.214      0              0              0              0              0             -196.11244    
    258250   4924.124       377.53873      4546.5853      278.36576     -1687.726       0.40101743     18421.214      0              0              0              0              0             -184.45751    
    258500   4948.0104      407.93663      4540.0737      300.77865     -1471.6532      0.40101743     18421.214      0              0              0              0              0             -188.18704    
    258750   4955.5485      392.91053      4562.638       289.69965     -2285.0335      0.40101743     18421.214      0              0              0              0              0             -188.51308    
    259000   4926.4634      394.58825      4531.8752      290.93666     -2289.851       0.40101743     18421.214      0              0              0              0              0             -184.05817    
    259250   4958.8808      416.91883      4541.962       307.40138     -3958.5618      0.40101743     18421.214      0              0              0              0              0             -182.67561    
    259500   4986.7155      415.01174      4571.7037      305.99525     -2839.2251      0.40101743     18421.214      0              0              0              0              0             -183.41292    
    259750   4936.992       391.93811      4545.0539      288.98267     -3622.6381      0.40101743     18421.214      0              0              0              0              0             -181.67336    
    260000   4944.8525      410.35062      4534.5019      302.55853     -1729.2268      0.40101743     18421.214      0              0              0              0              0             -172.30799    
    260250   4945.4783      421.49668      4523.9816      310.77671     -2426.3934      0.40101743     18421.214      0              0              0              0              0             -180.6204     
    260500   4947.5036      409.61562      4537.8879      302.0166      -2418.2654      0.40101743     18421.214      0              0              0              0              0             -182.30049    
    260750   4933.9583      396.7878       4537.1705      292.55843     -3602.2114      0.40101743     18421.214      0              0              0              0              0             -188.46613    
    261000   4925.9585      398.67143      4527.2871      293.94726     -3211.7485      0.40101743     18421.214      0              0              0              0              0             -185.60047    
    261250   4952.5879      436.83692      4515.751       322.08733     -2892.0505      0.40101743     18421.214      0              0              0              0              0             -186.95838    
    261500   4963.2318      417.55306      4545.6787      307.86901     -3226.837       0.40101743     18421.214      0              0              0              0              0             -180.33586    
    261750   4997.4216      437.28756      4560.134       322.41959     -3227.1255      0.40101743     18421.214      0              0              0              0              0             -169.06988    
    262000   4971.3059      425.20568      4546.1002      313.51142     -3014.6417      0.40101743     18421.214      0              0              0              0              0             -171.02985    
    262250   4958.4462      401.93905      4556.5072      296.35653     -2315.1145      0.40101743     18421.214      0              0              0              0              0             -184.61797    
    262500   4934.7119      397.55203      4537.1598      293.12191     -1345.8422      0.40101743     18421.214      0              0              0              0              0             -188.28628    
    262750   4946.9064      417.0458       4529.8606      307.495       -1287.3452      0.40101743     18421.214      0              0              0              0              0             -175.65733    
    263000   4956.6728      427.49333      4529.1795      315.19814     -3272.4796      0.40101743     18421.214      0              0              0              0              0             -166.624      
    263250   4975.7305      416.78312      4558.9473      307.30132     -885.83901      0.40101743     18421.214      0              0              0              0              0             -166.24674    
    263500   4930.4339      406.34931      4524.0846      299.60829     -2436.5739      0.40101743     18421.214      0              0              0              0              0             -170.76899    
    263750   4949.6091      394.72863      4554.8805      291.04017     -2687.6541      0.40101743     18421.214      0              0              0              0              0             -178.16899    
    264000   5009.3815      450.72417      4558.6573      332.32663     -2344.0784      0.40101743     18421.214      0              0              0              0              0             -187.31658    
    264250   4940.5204      406.93557      4533.5848      300.04055     -2573.1884      0.40101743     18421.214      0              0              0              0              0             -184.77477    
    264500   4961.9518      418.36079      4543.591       308.46456     -2763.3697      0.40101743     18421.214      0              0              0              0              0             -180.76844    
    264750   4948.2571      405.30665      4542.9505      298.83952     -2605.2263      0.40101743     18421.214      0              0              0              0              0             -191.17235    
    265000   4947.8706      420.30722      4527.5634      309.8997      -1532.9477      0.40101743     18421.214      0              0              0              0              0             -191.88679    
    265250   4974.2477      415.87194      4558.3757      306.62949     -2831.7993      0.40101743     18421.214      0              0              0              0              0             -196.58915    
    265500   4941.9275      417.62881      4524.2987      307.92486     -3257.8334      0.40101743     18421.214      0              0              0              0              0             -199.35406    
    265750   4968.067       419.90375      4548.1633      309.60221     -3118.2704      0.40101743     18421.214      0              0              0              0              0             -192.36515    
    266000   4937.9884      415.49622      4522.4922      306.35247     -2280.8528      0.40101743     18421.214      0              0              0              0              0             -181.76607    
    266250   4986.9484      437.40218      4549.5462      322.5041      -2624.6388      0.40101743     18421.214      0              0              0              0              0             -182.97536    
    266500   4932.8969      411.16047      4521.7364      303.15564     -3145.2486      0.40101743     18421.214      0              0              0              0              0             -171.92963    
    266750   4916.7266      391.69868      4525.0279      288.80613     -2313.7211      0.40101743     18421.214      0              0              0              0              0             -171.26974    
    267000   4966.0703      430.30239      4535.7679      317.2693      -2239.0091      0.40101743     18421.214      0              0              0              0              0             -178.1071     
    267250   4961.3709      430.42255      4530.9484      317.35791     -2118.6713      0.40101743     18421.214      0              0              0              0              0             -179.89478    
    267500   4982.4191      413.99014      4568.429       305.242       -1868.4588      0.40101743     18421.214      0              0              0              0              0             -181.82919    
    267750   4964.6559      415.43719      4549.2187      306.30894     -3577.8342      0.40101743     18421.214      0              0              0              0              0             -178.92184    
    268000   4961.1255      416.07784      4545.0476      306.7813      -2139.4076      0.40101743     18421.214      0              0              0              0              0             -178.22584    
    268250   4915.3062      376.6227       4538.6835      277.69035     -1562.4587      0.40101743     18421.214      0              0              0              0              0             -176.71718    
    268500   4949.8527      404.13311      4545.7196      297.97425     -2504.1432      0.40101743     18421.214      0              0              0              0              0             -173.40803    
    268750   4996.0465      431.03289      4565.0136      317.80792     -2221.4867      0.40101743     18421.214      0              0              0              0              0             -173.30436    
    269000   4965.3378      399.047        4566.2908      294.22417     -1643.4898      0.40101743     18421.214      0              0              0              0              0             -177.21258    
    269250   4958.1013      435.72848      4522.3728      321.27006     -2417.6052      0.40101743     18421.214      0              0              0              0              0             -186.38917    
    269500   4965.4496      417.75387      4547.6957      308.01707     -3899.4366      0.40101743     18421.214      0              0              0              0              0             -190.59009    
    269750   4947.2379      398.41367      4548.8242      293.75721     -2170.3671      0.40101743     18421.214      0              0              0              0              0             -189.69595    
    270000   4922.3239      389.86881      4532.4551      287.45693     -2231.5495      0.40101743     18421.214      0              0              0              0              0             -189.11547    
    270250   4931.2314      405.25756      4525.9738      298.80333     -2181.9696      0.40101743     18421.214      0              0              0              0              0             -189.87781    
    270500   4964.0804      409.1319       4554.9485      301.65995     -2392.8305      0.40101743     18421.214      0              0              0              0              0             -188.77355    
    270750   4938.2393      394.06252      4544.1768      290.54903     -2719.1958      0.40101743     18421.214      0              0              0              0              0             -191.59667    
    271000   4910.085       387.98398      4522.1011      286.06722     -3398.363       0.40101743     18421.214      0              0              0              0              0             -188.69518    
    271250   4964.7896      411.24697      4553.5426      303.21942     -2392.2916      0.40101743     18421.214      0              0              0              0              0             -194.08277    
    271500   4935.0002      397.46703      4537.5332      293.05924     -2580.0664      0.40101743     18421.214      0              0              0              0              0             -194.55424    
    271750   4958.9774      432.9914       4525.986       319.25196     -2872.9557      0.40101743     18421.214      0              0              0              0              0             -188.27932    
    272000   4920.947       386.6784       4534.2686      285.10459     -1632.0362      0.40101743     18421.214      0              0              0              0              0             -184.1905     
    272250   4901.3537      394.12651      4507.2272      290.59621     -2835.9265      0.40101743     18421.214      0              0              0              0              0             -183.76403    
    272500   4951.7506      393.88962      4557.861       290.42155     -2583.1014      0.40101743     18421.214      0              0              0              0              0             -183.8325     
    272750   4936.019       404.1835       4531.8355      298.01141     -2352.6335      0.40101743     18421.214      0              0              0              0              0             -185.02971    
    273000   4950.5316      403.47091      4547.0607      297.486       -2506.9436      0.40101743     18421.214      0              0              0              0              0             -190.83637    
    273250   4924.3918      397.56586      4526.8259      293.1321      -1924.164       0.40101743     18421.214      0              0              0              0              0             -182.22777    
    273500   4966.4744      426.81361      4539.6607      314.69697     -2183.6528      0.40101743     18421.214      0              0              0              0              0             -172.17075    
    273750   4938.7901      393.86123      4544.9289      290.40062     -4249.217       0.40101743     18421.214      0              0              0              0              0             -170.50993    
    274000   4941.4084      425.36121      4516.0472      313.62609     -2084.6719      0.40101743     18421.214      0              0              0              0              0             -169.98098    
    274250   4926.7345      403.89756      4522.8369      297.80057     -1390.0589      0.40101743     18421.214      0              0              0              0              0             -171.26959    
    274500   4974.806       441.80198      4533.004       325.74815     -1536.1566      0.40101743     18421.214      0              0              0              0              0             -172.17097    
    274750   4926.7795      411.13119      4515.6483      303.13405     -1894.369       0.40101743     18421.214      0              0              0              0              0             -174.11464    
    275000   4929.6076      406.92485      4522.6828      300.03265     -1161.5997      0.40101743     18421.214      0              0              0              0              0             -176.7826     
    275250   4977.7453      423.11746      4554.6278      311.97173     -2156.1651      0.40101743     18421.214      0              0              0              0              0             -184.76576    
    275500   4959.708       404.30721      4555.4007      298.10262     -3325.1184      0.40101743     18421.214      0              0              0              0              0             -184.80347    
    275750   4968.0604      403.1778       4564.8826      297.26988     -2671.4109      0.40101743     18421.214      0              0              0              0              0             -177.50076    
    276000   4964.7834      412.11326      4552.6701      303.85815     -3727.6611      0.40101743     18421.214      0              0              0              0              0             -178.54627    
    276250   4987.8441      447.64172      4540.2023      330.05389     -2188.3267      0.40101743     18421.214      0              0              0              0              0             -188.29968    
    276500   4969.9648      437.96227      4532.0025      322.91707     -1888.2372      0.40101743     18421.214      0              0              0              0              0             -186.53961    
    276750   4970.2867      416.58817      4553.6985      307.15758     -2836.3252      0.40101743     18421.214      0              0              0              0              0             -181.23433    
    277000   4929.4239      411.92305      4517.5008      303.71791     -2585.8377      0.40101743     18421.214      0              0              0              0              0             -179.79855    
    277250   4964.5164      431.93957      4532.5768      318.47643     -1135.6411      0.40101743     18421.214      0              0              0              0              0             -183.85608    
    277500   4923.9186      397.11783      4526.8008      292.80176     -4073.3281      0.40101743     18421.214      0              0              0              0              0             -178.68563    
    277750   4941.5857      401.31195      4540.2737      295.89416     -3141.771       0.40101743     18421.214      0              0              0              0              0             -178.71749    
    278000   4930.6851      407.11681      4523.5683      300.17418     -2543.4555      0.40101743     18421.214      0              0              0              0              0             -185.52079    
    278250   4953.7034      422.30099      4531.4024      311.36974     -3433.8638      0.40101743     18421.214      0              0              0              0              0             -191.96107    
    278500   4940.6894      416.14621      4524.5432      306.83171     -1677.7477      0.40101743     18421.214      0              0              0              0              0             -188.88926    
    278750   4949.0331      413.17763      4535.8555      304.64293     -1114.5772      0.40101743     18421.214      0              0              0              0              0             -179.71662    
    279000   4945.3315      396.73861      4548.5929      292.52216     -2856.7311      0.40101743     18421.214      0              0              0              0              0             -180.36768    
    279250   4940.1146      401.32782      4538.7867      295.90586     -2452.1907      0.40101743     18421.214      0              0              0              0              0             -183.7062     
    279500   4950.4748      434.05421      4516.4206      320.03559     -2353.169       0.40101743     18421.214      0              0              0              0              0             -181.82974    
    279750   4980.2466      418.09179      4562.1548      308.26622     -3288.4145      0.40101743     18421.214      0              0              0              0              0             -181.65342    
    280000   4970.5292      428.59475      4541.9345      316.01024     -2138.8565      0.40101743     18421.214      0              0              0              0              0             -183.76339    
    280250   4943.7711      412.01611      4531.755       303.78652     -3118.7712      0.40101743     18421.214      0              0              0              0              0             -187.14254    
    280500   4940.6472      406.11527      4534.5319      299.43573     -2651.0703      0.40101743     18421.214      0              0              0              0              0             -186.97622    
    280750   4901.7974      388.59935      4513.198       286.52095     -2792.0168      0.40101743     18421.214      0              0              0              0              0             -184.69981    
    281000   4988.5061      431.68546      4556.8207      318.28906     -2227.2482      0.40101743     18421.214      0              0              0              0              0             -188.44403    
    281250   4962.8691      423.47498      4539.3941      312.23534     -2491.3216      0.40101743     18421.214      0              0              0              0              0             -188.31078    
    281500   4963.5281      427.53659      4535.9915      315.23004     -2298.9968      0.40101743     18421.214      0              0              0              0              0             -174.36491    
    281750   4961.496       416.21886      4545.2771      306.88528     -695.25271      0.40101743     18421.214      0              0              0              0              0             -178.91768    
    282000   4971.9278      429.44323      4542.4846      316.63583     -2804.1858      0.40101743     18421.214      0              0              0              0              0             -185.1494     
    282250   4981.415       429.84212      4551.5729      316.92994     -3713.2587      0.40101743     18421.214      0              0              0              0              0             -189.00575    
    282500   4970.2105      426.99838      4543.2122      314.8332      -2714.6765      0.40101743     18421.214      0              0              0              0              0             -191.43616    
    282750   4967.6705      397.87736      4569.7932      293.36178     -2439.7832      0.40101743     18421.214      0              0              0              0              0             -196.79937    
    283000   4951.5816      393.86848      4557.7131      290.40596     -2011.2943      0.40101743     18421.214      0              0              0              0              0             -192.76565    
    283250   4908.8651      394.5543       4514.3108      290.91163     -1583.1371      0.40101743     18421.214      0              0              0              0              0             -191.22569    
    283500   4937.7058      401.97336      4535.7324      296.38183     -2401.646       0.40101743     18421.214      0              0              0              0              0             -187.63659    
    283750   4923.3772      397.72326      4525.654       293.24816     -3289.8048      0.40101743     18421.214      0              0              0              0              0             -188.27843    
    284000   4959.8105      413.71402      4546.0964      305.03842     -2435.7621      0.40101743     18421.214      0              0              0              0              0             -189.38648    
    284250   4939.1863      428.00082      4511.1855      315.57232     -2133.3588      0.40101743     18421.214      0              0              0              0              0             -189.2568     
    284500   4937.5869      417.68043      4519.9064      307.96292     -2956.5154      0.40101743     18421.214      0              0              0              0              0             -189.90197    
    284750   4926.8137      396.78719      4530.0265      292.55798     -2984.6795      0.40101743     18421.214      0              0              0              0              0             -185.85149    
    285000   4979.4232      414.3097       4565.1135      305.47762     -2459.2081      0.40101743     18421.214      0              0              0              0              0             -188.12399    
    285250   4973.938       425.5759       4548.3621      313.78439     -1859.2694      0.40101743     18421.214      0              0              0              0              0             -187.18465    
    285500   4961.575       407.63462      4553.9404      300.55597     -1903.342       0.40101743     18421.214      0              0              0              0              0             -180.68901    
    285750   4936.0009      416.10634      4519.8945      306.80232     -3485.1332      0.40101743     18421.214      0              0              0              0              0             -174.14888    
    286000   4881.2468      370.03912      4511.2077      272.83617     -2670.8664      0.40101743     18421.214      0              0              0              0              0             -188.30318    
    286250   4957.1153      400.97122      4556.144       295.64293     -3325.265       0.40101743     18421.214      0              0              0              0              0             -190.52534    
    286500   4953.9216      410.2454       4543.6762      302.48095     -2550.2047      0.40101743     18421.214      0              0              0              0              0             -186.61382    
    286750   4914.5407      385.12776      4529.413       283.96128     -2599.6522      0.40101743     18421.214      0              0              0              0              0             -179.94632    
    287000   4949.4478      417.60653      4531.8412      307.90843     -2566.2568      0.40101743     18421.214      0              0              0              0              0             -176.08745    
    287250   4935.3263      405.50418      4529.8221      298.98516     -2459.7675      0.40101743     18421.214      0              0              0              0              0             -179.33398    
    287500   4922.4613      401.81677      4520.6445      296.26637     -3242.2171      0.40101743     18421.214      0              0              0              0              0             -186.94536    
    287750   4955.112       448.06431      4507.0477      330.36547     -2433.1711      0.40101743     18421.214      0              0              0              0              0             -183.83041    
    288000   4926.634       398.91033      4527.7237      294.1234      -2622.5784      0.40101743     18421.214      0              0              0              0              0             -183.58487    
    288250   4971.9583      429.28921      4542.6691      316.52227     -2044.4203      0.40101743     18421.214      0              0              0              0              0             -175.93542    
    288500   4957.3305      403.30239      4554.0281      297.36174     -3230.6787      0.40101743     18421.214      0              0              0              0              0             -179.39613    
    288750   4938.8151      408.82877      4529.9864      301.43644     -1382.3346      0.40101743     18421.214      0              0              0              0              0             -179.68014    
    289000   4966.0792      405.05508      4561.0241      298.65403     -2468.867       0.40101743     18421.214      0              0              0              0              0             -181.51013    
    289250   4948.2358      409.29519      4538.9406      301.78034     -3442.6545      0.40101743     18421.214      0              0              0              0              0             -183.34944    
    289500   4951.4355      401.91523      4549.5202      296.33897     -2880.4922      0.40101743     18421.214      0              0              0              0              0             -177.28377    
    289750   4954.3176      409.94918      4544.3684      302.26254     -2436.7512      0.40101743     18421.214      0              0              0              0              0             -183.21556    
    290000   4958.3725      407.12659      4551.2459      300.1814      -3222.979       0.40101743     18421.214      0              0              0              0              0             -188.78329    
    290250   4918.4625      399.6818       4518.7807      294.69222     -3427.7026      0.40101743     18421.214      0              0              0              0              0             -186.87897    
    290500   4970.1052      418.06272      4552.0425      308.24479     -3081.8029      0.40101743     18421.214      0              0              0              0              0             -185.21402    
    290750   4989.847       438.96915      4550.8778      323.65946     -2793.1554      0.40101743     18421.214      0              0              0              0              0             -187.23591    
    291000   4911.2539      372.70217      4538.5518      274.79968     -2244.9943      0.40101743     18421.214      0              0              0              0              0             -179.34493    
    291250   4944.9273      404.12535      4540.8019      297.96853     -3135.9391      0.40101743     18421.214      0              0              0              0              0             -182.5604     
    291500   4910.5353      400.71111      4509.8242      295.45115     -1612.4611      0.40101743     18421.214      0              0              0              0              0             -185.76645    
    291750   4968.2377      416.89927      4551.3384      307.38696     -3411.0884      0.40101743     18421.214      0              0              0              0              0             -187.01662    
    292000   4944.3642      406.45816      4537.9061      299.68855     -2506.7152      0.40101743     18421.214      0              0              0              0              0             -181.38044    
    292250   4940.5045      403.50355      4537.0009      297.51007     -2235.3493      0.40101743     18421.214      0              0              0              0              0             -189.81819    
    292500   4952.9794      412.24767      4540.7317      303.95725     -3188.4544      0.40101743     18421.214      0              0              0              0              0             -193.00605    
    292750   4915.9217      394.36742      4521.5543      290.77384     -2043.3577      0.40101743     18421.214      0              0              0              0              0             -187.94952    
    293000   4999.233       433.28861      4565.9444      319.4711      -2401.8537      0.40101743     18421.214      0              0              0              0              0             -190.17126    
    293250   4953.5526      427.64546      4525.9071      315.31031     -2376.2302      0.40101743     18421.214      0              0              0              0              0             -179.69613    
    293500   4956.6936      414.56378      4542.1298      305.66496     -3272.2288      0.40101743     18421.214      0              0              0              0              0             -188.82412    
    293750   4945.1296      398.69469      4546.4349      293.96441     -3294.4987      0.40101743     18421.214      0              0              0              0              0             -191.31161    
    294000   4934.4793      394.14297      4540.3363      290.60835     -2547.2577      0.40101743     18421.214      0              0              0              0              0             -183.75175    
    294250   4939.2158      413.52811      4525.6877      304.90134     -2427.1289      0.40101743     18421.214      0              0              0              0              0             -194.90753    
    294500   4942.6194      406.11771      4536.5017      299.43753     -3507.3224      0.40101743     18421.214      0              0              0              0              0             -185.53015    
    294750   4932.8767      422.06403      4510.8126      311.19502     -1439.3383      0.40101743     18421.214      0              0              0              0              0             -167.35171    
    295000   4943.4033      420.51034      4522.893       310.04946     -2214.5742      0.40101743     18421.214      0              0              0              0              0             -159.14916    
    295250   4963.4443      419.06434      4544.38        308.9833      -1808.32        0.40101743     18421.214      0              0              0              0              0             -163.0601     
    295500   4941.467       407.10115      4534.3658      300.16264     -1043.7011      0.40101743     18421.214      0              0              0              0              0             -167.63394    
    295750   4954.9494      407.31884      4547.6306      300.32314     -3624.7811      0.40101743     18421.214      0              0              0              0              0             -171.2571     
    296000   4920.6877      402.1559       4518.5318      296.51642     -2593.4423      0.40101743     18421.214      0              0              0              0              0             -181.20849    
    296250   4938.7385      407.16489      4531.5736      300.20964     -2721.2217      0.40101743     18421.214      0              0              0              0              0             -181.79602    
    296500   4918.9848      388.18429      4530.8005      286.21491     -1423.5081      0.40101743     18421.214      0              0              0              0              0             -185.88573    
    296750   4957.9213      404.995        4552.9263      298.60973     -2695.1634      0.40101743     18421.214      0              0              0              0              0             -183.77512    
    297000   4951.8859      413.03884      4538.847       304.5406      -3887.452       0.40101743     18421.214      0              0              0              0              0             -180.41986    
    297250   4950.9658      417.67774      4533.2881      307.96094     -3824.678       0.40101743     18421.214      0              0              0              0              0             -177.87815    
    297500   4933.8388      393.57984      4540.259       290.19314     -3384.128       0.40101743     18421.214      0              0              0              0              0             -180.43657    
    297750   4973.4269      429.01928      4544.4076      316.32325     -3525.2887      0.40101743     18421.214      0              0              0              0              0             -180.38412    
    298000   4991.3315      423.20552      4568.126       312.03667     -2616.0157      0.40101743     18421.214      0              0              0              0              0             -184.7893     
    298250   4958.6793      422.65343      4536.0259      311.62959     -2660.7985      0.40101743     18421.214      0              0              0              0              0             -179.38267    
    298500   4946.2565      422.71447      4523.542       311.6746      -2235.5668      0.40101743     18421.214      0              0              0              0              0             -175.82826    
    298750   4961.8656      412.57304      4549.2926      304.19715     -2169.7191      0.40101743     18421.214      0              0              0              0              0             -172.93824    
    299000   4904.0127      387.21842      4516.7942      285.50276     -2578.8464      0.40101743     18421.214      0              0              0              0              0             -174.72553    
    299250   4970.2956      410.99382      4559.3017      303.03277     -3363.2014      0.40101743     18421.214      0              0              0              0              0             -177.14109    
    299500   4987.9804      422.92723      4565.0531      311.83148     -1449.3536      0.40101743     18421.214      0              0              0              0              0             -175.82761    
    299750   4939.9796      385.15891      4554.8207      283.98425     -2548.7572      0.40101743     18421.214      0              0              0              0              0             -188.13771    
    300000   4961.4099      423.97234      4537.4375      312.60205     -1911.6762      0.40101743     18421.214      0              0              0              0              0             -187.82989    
    300250   4935.2425      396.91043      4538.3321      292.64884     -2936.4311      0.40101743     18421.214      0              0              0              0              0             -183.7202     
    300500   4938.229       412.56083      4525.6681      304.18815     -2789.5418      0.40101743     18421.214      0              0              0              0              0             -186.101      
    300750   4944.3401      398.21038      4546.1298      293.60732     -3374.5593      0.40101743     18421.214      0              0              0              0              0             -189.39799    
    301000   4951.2688      400.37127      4550.8975      295.20058     -3134.0903      0.40101743     18421.214      0              0              0              0              0             -183.21687    
    301250   4957.2183      420.08934      4537.1289      309.73905     -2551.0943      0.40101743     18421.214      0              0              0              0              0             -177.98325    
    301500   4943.5039      381.2923       4562.2116      281.13333     -2831.7229      0.40101743     18421.214      0              0              0              0              0             -172.87323    
    301750   4954.1139      423.03087      4531.083       311.90789     -2522.6605      0.40101743     18421.214      0              0              0              0              0             -170.90415    
    302000   4926.1699      399.30088      4526.869       294.41136     -3247.8904      0.40101743     18421.214      0              0              0              0              0             -178.14935    
    302250   4969.3462      420.2977       4549.0485      309.89268     -2332.1004      0.40101743     18421.214      0              0              0              0              0             -177.36535    
    302500   4962.8436      412.13321      4550.7104      303.87286     -2279.6669      0.40101743     18421.214      0              0              0              0              0             -171.78877    
    302750   4953.0997      410.73893      4542.3608      302.84483     -3483.2674      0.40101743     18421.214      0              0              0              0              0             -181.79903    
    303000   4936.7622      411.28995      4525.4723      303.25111     -2486.3814      0.40101743     18421.214      0              0              0              0              0             -182.15229    
    303250   4943.2119      412.61365      4530.5983      304.2271      -1471.9251      0.40101743     18421.214      0              0              0              0              0             -179.79695    
    303500   4932.5727      410.05879      4522.5139      302.34336     -3035.762       0.40101743     18421.214      0              0              0              0              0             -178.95617    
    303750   4942.6775      404.51498      4538.1625      298.25581     -2077.4001      0.40101743     18421.214      0              0              0              0              0             -169.43749    
    304000   4927.2388      403.88852      4523.3503      297.79391     -2246.8096      0.40101743     18421.214      0              0              0              0              0             -173.05701    
    304250   4922.8796      395.24895      4527.6307      291.42381     -2079.5228      0.40101743     18421.214      0              0              0              0              0             -178.08887    
    304500   4938.7574      405.1624       4533.595       298.73316     -3245.6294      0.40101743     18421.214      0              0              0              0              0             -177.01502    
    304750   4964.3699      428.49401      4535.8759      315.93596     -2237.7461      0.40101743     18421.214      0              0              0              0              0             -175.91124    
    305000   4933.2735      395.54947      4537.724       291.64539     -2073.9536      0.40101743     18421.214      0              0              0              0              0             -165.34068    
    305250   4974.9694      423.04116      4551.9282      311.91548     -1515.7295      0.40101743     18421.214      0              0              0              0              0             -168.96747    
    305500   4944.0324      410.71546      4533.317       302.82753     -3074.9833      0.40101743     18421.214      0              0              0              0              0             -163.00216    
    305750   4947.7552      404.26365      4543.4915      298.0705      -2665.87        0.40101743     18421.214      0              0              0              0              0             -174.6671     
    306000   4943.9848      407.62294      4536.3618      300.54736     -2190.7774      0.40101743     18421.214      0              0              0              0              0             -177.86469    
    306250   4968.7929      418.66116      4550.1317      308.68603     -3395.6513      0.40101743     18421.214      0              0              0              0              0             -168.76883    
    306500   4941.2671      416.75459      4524.5125      307.28028     -2582.4525      0.40101743     18421.214      0              0              0              0              0             -181.8467     
    306750   4962.0661      420.26944      4541.7967      309.87184     -2703.9445      0.40101743     18421.214      0              0              0              0              0             -174.92724    
    307000   4957.308       416.35883      4540.9491      306.98848     -3063.3441      0.40101743     18421.214      0              0              0              0              0             -163.47482    
    307250   4958.6788      412.28757      4546.3912      303.98667     -2424.7356      0.40101743     18421.214      0              0              0              0              0             -168.88314    
    307500   4959.4897      406.69093      4552.7988      299.86017     -2762.922       0.40101743     18421.214      0              0              0              0              0             -175.66344    
    307750   4924.3383      398.52371      4525.8146      293.83834     -3058.0333      0.40101743     18421.214      0              0              0              0              0             -159.76314    
    308000   4952.7518      396.34515      4556.4067      292.23205     -3125.6677      0.40101743     18421.214      0              0              0              0              0             -146.93148    
    308250   4943.8748      393.86008      4550.0148      290.39977     -3268.3282      0.40101743     18421.214      0              0              0              0              0             -144.69191    
    308500   4928.4438      403.30502      4525.1388      297.36369     -2873.666       0.40101743     18421.214      0              0              0              0              0             -140.88134    
    308750   4927.1724      412.44053      4514.7319      304.09945     -2957.234       0.40101743     18421.214      0              0              0              0              0             -154.68761    
    309000   4941.5686      381.68872      4559.8799      281.42562     -2195.0174      0.40101743     18421.214      0              0              0              0              0             -155.30385    
    309250   4943.1235      415.73312      4527.3903      306.52713     -1354.6634      0.40101743     18421.214      0              0              0              0              0             -157.47523    
    309500   4956.8202      412.77034      4544.0498      304.34263     -2145.7532      0.40101743     18421.214      0              0              0              0              0             -163.4206     
    309750   4971.1423      413.96722      4557.1751      305.22511     -3395.5672      0.40101743     18421.214      0              0              0              0              0             -172.54884    
    310000   4980.3         430.8267       4549.4733      317.65589     -3167.6113      0.40101743     18421.214      0              0              0              0              0             -189.7466     
    310250   4924.4288      414.67778      4509.751       305.74901     -2196.5121      0.40101743     18421.214      0              0              0              0              0             -196.13079    
    310500   4911.307       388.68683      4522.6201      286.58544     -2098.5419      0.40101743     18421.214      0              0              0              0              0             -195.87503    
    310750   4944.933       405.91343      4539.0195      299.28691     -2347.1718      0.40101743     18421.214      0              0              0              0              0             -192.63465    
    311000   4934.6568      383.35397      4551.3028      282.65343     -1979.484       0.40101743     18421.214      0              0              0              0              0             -188.40255    
    311250   4926.99        394.55695      4532.4331      290.91358     -3054.5066      0.40101743     18421.214      0              0              0              0              0             -181.77095    
    311500   4935.3331      417.98916      4517.344       308.19055     -2760.4339      0.40101743     18421.214      0              0              0              0              0             -187.2011     
    311750   4920.9108      392.65713      4528.2537      289.51281     -2361.7455      0.40101743     18421.214      0              0              0              0              0             -186.58404    
    312000   4963.1741      417.22943      4545.9446      307.63039     -3298.686       0.40101743     18421.214      0              0              0              0              0             -185.61397    
    312250   4976.2906      425.84577      4550.4448      313.98337     -2313.3827      0.40101743     18421.214      0              0              0              0              0             -195.6785     
    312500   4942.2456      410.45693      4531.7886      302.63691     -1843.7774      0.40101743     18421.214      0              0              0              0              0             -193.73225    
    312750   4933.5212      399.00323      4534.5179      294.1919      -3339.7667      0.40101743     18421.214      0              0              0              0              0             -196.12742    
    313000   4977.8496      437.99974      4539.8499      322.94469     -3089.2049      0.40101743     18421.214      0              0              0              0              0             -199.31883    
    313250   4929.1171      405.93567      4523.1814      299.30331     -3040.9465      0.40101743     18421.214      0              0              0              0              0             -197.24655    
    313500   4974.5588      429.81497      4544.7438      316.90993     -1038.5109      0.40101743     18421.214      0              0              0              0              0             -191.07851    
    313750   4959.7044      417.58054      4542.1238      307.88927     -3923.6655      0.40101743     18421.214      0              0              0              0              0             -185.9717     
    314000   4958.8767      428.36857      4530.5081      315.84347     -1981.308       0.40101743     18421.214      0              0              0              0              0             -191.73871    
    314250   4954.7013      402.73248      4551.9688      296.94154     -2548.0565      0.40101743     18421.214      0              0              0              0              0             -191.21853    
    314500   4967.918       406.71752      4561.2005      299.87978     -3541.3011      0.40101743     18421.214      0              0              0              0              0             -187.80197    
    314750   4929.053       388.31234      4540.7407      286.30932     -1975.2302      0.40101743     18421.214      0              0              0              0              0             -193.11279    
    315000   4958.1534      407.29687      4550.8565      300.30694     -2629.6609      0.40101743     18421.214      0              0              0              0              0             -187.92194    
    315250   4945.5039      401.96177      4543.5421      296.37328     -2230.9256      0.40101743     18421.214      0              0              0              0              0             -182.76799    
    315500   4947.3988      416.01788      4531.381       306.73709     -1413.3665      0.40101743     18421.214      0              0              0              0              0             -186.62055    
    315750   4955.3693      413.22721      4542.1421      304.67948     -3177.3188      0.40101743     18421.214      0              0              0              0              0             -186.52456    
    316000   4947.6402      429.30721      4518.333       316.53554     -1952.3428      0.40101743     18421.214      0              0              0              0              0             -168.574      
    316250   4918.7328      402.33835      4516.3945      296.65094     -2624.0496      0.40101743     18421.214      0              0              0              0              0             -172.17056    
    316500   4976.5422      433.98474      4542.5575      319.98437     -2433.602       0.40101743     18421.214      0              0              0              0              0             -184.2362     
    316750   4975.732       439.32721      4536.4048      323.92346     -2499.3817      0.40101743     18421.214      0              0              0              0              0             -186.9527     
    317000   4910.108       379.54636      4530.5617      279.84602     -3621.5888      0.40101743     18421.214      0              0              0              0              0             -191.8307     
    317250   4924.7463      411.29169      4513.4546      303.25239     -2495.7841      0.40101743     18421.214      0              0              0              0              0             -191.81447    
    317500   4972.2785      414.5053       4557.7732      305.62184     -2609.6492      0.40101743     18421.214      0              0              0              0              0             -191.1095     
    317750   4953.1286      403.03288      4550.0958      297.16303     -3075.7602      0.40101743     18421.214      0              0              0              0              0             -194.57415    
    318000   4970.7183      414.24795      4556.4704      305.4321      -2066.3965      0.40101743     18421.214      0              0              0              0              0             -196.48786    
    318250   4940.3302      402.24052      4538.0897      296.57881     -1695.8479      0.40101743     18421.214      0              0              0              0              0             -184.92144    
    318500   4958.6593      404.50741      4554.1519      298.25022     -1855.7179      0.40101743     18421.214      0              0              0              0              0             -191.35935    
    318750   4998.3434      441.41641      4556.927       325.46386     -2808.4992      0.40101743     18421.214      0              0              0              0              0             -179.29326    
    319000   4951.338       426.91628      4524.4217      314.77267     -3438.1162      0.40101743     18421.214      0              0              0              0              0             -185.29889    
    319250   4961.4358      412.44924      4548.9865      304.10588     -2065.3665      0.40101743     18421.214      0              0              0              0              0             -192.27404    
    319500   4945.1275      413.14363      4531.9839      304.61786     -2466.4333      0.40101743     18421.214      0              0              0              0              0             -184.16284    
    319750   4959.6746      413.34881      4546.3258      304.76914     -2563.7439      0.40101743     18421.214      0              0              0              0              0             -188.48241    
    320000   4967.0945      423.35378      4543.7408      312.14598     -1827.8884      0.40101743     18421.214      0              0              0              0              0             -187.85756    
    320250   4956.6334      400.54905      4556.0843      295.33166     -3292.1888      0.40101743     18421.214      0              0              0              0              0             -189.77305    
    320500   4926.1993      404.09242      4522.1069      297.94425     -3460.0763      0.40101743     18421.214      0              0              0              0              0             -194.23438    
    320750   4927.5643      386.51459      4541.0497      284.98382     -2981.0274      0.40101743     18421.214      0              0              0              0              0             -193.96249    
    321000   4948.9716      394.87381      4554.0978      291.14721     -2937.6002      0.40101743     18421.214      0              0              0              0              0             -190.46167    
    321250   4966.6276      422.97854      4543.6491      311.86931     -2933.3473      0.40101743     18421.214      0              0              0              0              0             -193.65599    
    321500   4958.4764      400.08364      4558.3928      294.98851     -2859.7355      0.40101743     18421.214      0              0              0              0              0             -180.68418    
    321750   4959.7285      436.93179      4522.7967      322.15728     -1980.0667      0.40101743     18421.214      0              0              0              0              0             -183.21652    
    322000   4930.3886      397.13621      4533.2523      292.81532     -1879.9148      0.40101743     18421.214      0              0              0              0              0             -176.74585    
    322250   4960.6391      420.9355       4539.7036      310.36294     -1902.5853      0.40101743     18421.214      0              0              0              0              0             -179.33742    
    322500   4929.8981      402.63119      4527.2669      296.86686     -3183.4584      0.40101743     18421.214      0              0              0              0              0             -175.3542     
    322750   4964.6436      414.02139      4550.6222      305.26505     -1952.0716      0.40101743     18421.214      0              0              0              0              0             -177.75712    
    323000   4941.1469      383.4375       4557.7094      282.71502     -1923.1697      0.40101743     18421.214      0              0              0              0              0             -181.80879    
    323250   4953.4304      406.62161      4546.8087      299.80906     -3002.9609      0.40101743     18421.214      0              0              0              0              0             -176.10576    
    323500   4940.8477      418.59138      4522.2563      308.63458     -2068.5332      0.40101743     18421.214      0              0              0              0              0             -177.34625    
    323750   4938.1374      409.06451      4529.0729      301.61025     -1612.0007      0.40101743     18421.214      0              0              0              0              0             -179.42521    
    324000   4969.605       458.45406      4511.151       338.02602     -2129.6355      0.40101743     18421.214      0              0              0              0              0             -164.69028    
    324250   4962.8689      404.86782      4558.0011      298.51596     -2204.1235      0.40101743     18421.214      0              0              0              0              0             -165.53507    
    324500   4948.6014      419.95936      4528.642       309.64321     -2124.7466      0.40101743     18421.214      0              0              0              0              0             -162.45299    
    324750   4931.3228      408.72965      4522.5931      301.36336     -2949.0361      0.40101743     18421.214      0              0              0              0              0             -166.13668    
    325000   4934.0372      393.90771      4540.1295      290.43489     -2657.8786      0.40101743     18421.214      0              0              0              0              0             -168.23712    
    325250   4929.2912      400.50884      4528.7824      295.30201     -2090.6526      0.40101743     18421.214      0              0              0              0              0             -178.43764    
    325500   4964.3557      433.82568      4530.5301      319.86709     -2119.7047      0.40101743     18421.214      0              0              0              0              0             -178.50473    
    325750   4951.0416      411.50327      4539.5383      303.40839     -2033.2086      0.40101743     18421.214      0              0              0              0              0             -182.84719    
    326000   4958.6348      421.86716      4536.7677      311.04987     -2835.5378      0.40101743     18421.214      0              0              0              0              0             -183.69174    
    326250   4947.2667      390.19578      4557.0709      287.69801     -3267.1165      0.40101743     18421.214      0              0              0              0              0             -191.97933    
    326500   4949.1481      412.24076      4536.9074      303.95216     -2176.5805      0.40101743     18421.214      0              0              0              0              0             -188.93876    
    326750   4954.7336      404.05455      4550.6791      297.91633     -2332.1934      0.40101743     18421.214      0              0              0              0              0             -194.96374    
    327000   4952.6901      413.92451      4538.7656      305.19362     -2931.6821      0.40101743     18421.214      0              0              0              0              0             -198.20316    
    327250   4947.7863      393.95374      4553.8325      290.46883     -2529.8093      0.40101743     18421.214      0              0              0              0              0             -188.53118    
    327500   4924.0289      390.9816       4533.0473      288.27742     -1796.5202      0.40101743     18421.214      0              0              0              0              0             -183.76003    
    327750   4915.2914      379.17567      4536.1157      279.5727      -1908.374       0.40101743     18421.214      0              0              0              0              0             -179.37155    
    328000   5030.0388      422.80124      4607.2375      311.73858     -3443.7525      0.40101743     18421.214      0              0              0              0              0             -176.31755    
    328250   4968.6349      409.95942      4558.6755      302.27009     -2357.4181      0.40101743     18421.214      0              0              0              0              0             -175.44715    
    328500   4956.1432      420.18567      4535.9575      309.81008     -3224.5038      0.40101743     18421.214      0              0              0              0              0             -176.48152    
    328750   4957.7388      393.78603      4563.9528      290.34517     -3004.9406      0.40101743     18421.214      0              0              0              0              0             -184.36121    
    329000   4923.6993      394.73816      4528.9611      291.04719     -2779.7517      0.40101743     18421.214      0              0              0              0              0             -182.58451    
    329250   4940.9792      409.07135      4531.9079      301.61529     -2357.5375      0.40101743     18421.214      0              0              0              0              0             -181.10587    
    329500   4912.104       376.04237      4536.0616      277.26247     -5279.0453      0.40101743     18421.214      0              0              0              0              0             -179.38933    
    329750   4960.6727      435.55636      4525.1164      321.14315     -2690.4174      0.40101743     18421.214      0              0              0              0              0             -180.37822    
    330000   4944.4624      405.90929      4538.5531      299.28385     -2612.9339      0.40101743     18421.214      0              0              0              0              0             -190.36368    
    330250   4935.8835      401.15444      4534.729       295.77802     -1982.4481      0.40101743     18421.214      0              0              0              0              0             -184.77986    
    330500   4973.6096      407.94456      4565.665       300.7845      -3187.8833      0.40101743     18421.214      0              0              0              0              0             -188.12467    
    330750   4954.7318      425.5265       4529.2053      313.74796     -2913.1331      0.40101743     18421.214      0              0              0              0              0             -190.15245    
    331000   4984.702       419.18747      4565.5145      309.07409     -3307.9342      0.40101743     18421.214      0              0              0              0              0             -187.94883    
    331250   4924.965       399.83905      4525.126       294.80817     -3850.549       0.40101743     18421.214      0              0              0              0              0             -181.46325    
    331500   4948.9005      405.87446      4543.026       299.25817     -2340.2569      0.40101743     18421.214      0              0              0              0              0             -176.7677     
    331750   4931.5071      404.5028       4527.0043      298.24682     -2720.4126      0.40101743     18421.214      0              0              0              0              0             -175.42404    
    332000   4929.1638      379.78562      4549.3782      280.02243     -2635.7202      0.40101743     18421.214      0              0              0              0              0             -178.76755    
    332250   4940.645       395.16124      4545.4838      291.35914     -3375.9543      0.40101743     18421.214      0              0              0              0              0             -188.27934    
    332500   4927.2934      392.70856      4534.5848      289.55073     -1308.6294      0.40101743     18421.214      0              0              0              0              0             -188.49235    
    332750   4903.9982      394.15023      4509.848       290.6137      -2540.1188      0.40101743     18421.214      0              0              0              0              0             -190.36183    
    333000   4929.7783      426.0532       4503.7251      314.13631     -2285.9267      0.40101743     18421.214      0              0              0              0              0             -187.46509    
    333250   4919.1515      405.19007      4513.9614      298.75356     -2390.7352      0.40101743     18421.214      0              0              0              0              0             -187.90842    
    333500   4975.6642      442.41443      4533.2498      326.19972     -3133.8582      0.40101743     18421.214      0              0              0              0              0             -186.55523    
    333750   4948.703       398.22828      4550.4747      293.62052     -3584.8122      0.40101743     18421.214      0              0              0              0              0             -184.1062     
    334000   4931.5198      404.70705      4526.8127      298.39743     -2166.6627      0.40101743     18421.214      0              0              0              0              0             -183.71654    
    334250   4941.2155      410.14673      4531.0688      302.4082      -2503.2485      0.40101743     18421.214      0              0              0              0              0             -178.23741    
    334500   4931.5006      401.67265      4529.8279      296.16011     -2487.888       0.40101743     18421.214      0              0              0              0              0             -181.04498    
    334750   4959.0097      404.33524      4554.6745      298.12328     -2320.1612      0.40101743     18421.214      0              0              0              0              0             -190.74218    
    335000   4936.0466      381.70291      4554.3437      281.43608     -3346.5319      0.40101743     18421.214      0              0              0              0              0             -197.34849    
    335250   4955.5514      423.14126      4532.4102      311.98928     -1282.7399      0.40101743     18421.214      0              0              0              0              0             -188.06909    
    335500   4964.2105      415.08991      4549.1206      306.05288     -2413.7529      0.40101743     18421.214      0              0              0              0              0             -180.17806    
    335750   4911.5043      387.82536      4523.6789      285.95027     -2617.7672      0.40101743     18421.214      0              0              0              0              0             -186.94902    
    336000   4964.1688      422.40103      4541.7678      311.4435      -2941.4858      0.40101743     18421.214      0              0              0              0              0             -191.09067    
    336250   4912.6751      383.97031      4528.7047      283.10787     -1911.8903      0.40101743     18421.214      0              0              0              0              0             -182.98809    
    336500   4955.4843      429.4029       4526.0814      316.60609     -2129.9901      0.40101743     18421.214      0              0              0              0              0             -188.57917    
    336750   4902.1581      392.89888      4509.2592      289.69106     -1346.6641      0.40101743     18421.214      0              0              0              0              0             -193.47559    
    337000   4946.3643      416.10925      4530.2551      306.80446     -2932.9079      0.40101743     18421.214      0              0              0              0              0             -195.96138    
    337250   4952.6358      426.02511      4526.6107      314.11559     -2609.9128      0.40101743     18421.214      0              0              0              0              0             -189.62731    
    337500   4936.1643      413.58363      4522.5807      304.94228     -2623.7793      0.40101743     18421.214      0              0              0              0              0             -193.40748    
    337750   4926.66        395.26305      4531.397       291.4342      -2044.8904      0.40101743     18421.214      0              0              0              0              0             -185.76268    
    338000   4948.6614      402.03075      4546.6307      296.42414     -3067.8711      0.40101743     18421.214      0              0              0              0              0             -190.89398    
    338250   4904.29        391.55871      4512.7313      288.70293     -3675.4642      0.40101743     18421.214      0              0              0              0              0             -199.08996    
    338500   4956.037       422.62341      4533.4136      311.60746     -1703.3295      0.40101743     18421.214      0              0              0              0              0             -193.95428    
    338750   4966.0899      417.58246      4548.5074      307.89069     -3424.0804      0.40101743     18421.214      0              0              0              0              0             -196.49222    
    339000   4962.7982      421.04055      4541.7576      310.44039     -1307.9226      0.40101743     18421.214      0              0              0              0              0             -194.44546    
    339250   4967.6396      416.49894      4551.1407      307.09179     -1857.9838      0.40101743     18421.214      0              0              0              0              0             -193.55507    
    339500   4977.5384      414.97283      4562.5656      305.96656     -3098.3506      0.40101743     18421.214      0              0              0              0              0             -198.02883    
    339750   4934.6319      406.04775      4528.5842      299.38594     -2969.1174      0.40101743     18421.214      0              0              0              0              0             -194.34478    
    340000   4934.8236      406.63423      4528.1894      299.81837     -1854.2122      0.40101743     18421.214      0              0              0              0              0             -186.26521    
    340250   4984.4635      411.87299      4572.5905      303.68099     -1447.2087      0.40101743     18421.214      0              0              0              0              0             -186.60786    
    340500   4956.7535      424.72041      4532.0331      313.15362     -2648.9871      0.40101743     18421.214      0              0              0              0              0             -190.10613    
    340750   4985.8889      433.20055      4552.6884      319.40617     -3413.6292      0.40101743     18421.214      0              0              0              0              0             -194.00056    
    341000   4959.6557      433.18909      4526.4666      319.39772     -1773.7186      0.40101743     18421.214      0              0              0              0              0             -187.65731    
    341250   4938.5993      402.83751      4535.7618      297.01898     -3299.9186      0.40101743     18421.214      0              0              0              0              0             -187.88503    
    341500   4974.4902      435.54137      4538.9488      321.13209     -2073.3887      0.40101743     18421.214      0              0              0              0              0             -180.98018    
    341750   4953.4197      427.37683      4526.0429      315.11224     -2493.1092      0.40101743     18421.214      0              0              0              0              0             -192.32092    
    342000   4927.3276      399.53233      4527.7953      294.58201     -2419.1692      0.40101743     18421.214      0              0              0              0              0             -195.14316    
    342250   4964.3788      398.92649      4565.4523      294.13532     -3285.8543      0.40101743     18421.214      0              0              0              0              0             -197.69874    
    342500   4964.3301      417.4032       4546.9269      307.75851     -2248.7239      0.40101743     18421.214      0              0              0              0              0             -196.2604     
    342750   4946.9096      391.44436      4555.4652      288.61861     -2702.0894      0.40101743     18421.214      0              0              0              0              0             -195.55586    
    343000   4938.3571      415.79838      4522.5587      306.57525     -2142.1622      0.40101743     18421.214      0              0              0              0              0             -193.23173    
    343250   4963.7236      419.91734      4543.8063      309.61223     -3627.9403      0.40101743     18421.214      0              0              0              0              0             -186.50775    
    343500   4949.674       408.00236      4541.6717      300.82711     -1673.3091      0.40101743     18421.214      0              0              0              0              0             -173.95712    
    343750   4989.3055      433.54364      4555.7619      319.65914     -1973.2253      0.40101743     18421.214      0              0              0              0              0             -169.50116    
    344000   4926.1682      407.37479      4518.7935      300.3644      -2979.9245      0.40101743     18421.214      0              0              0              0              0             -170.00656    
    344250   4928.6558      401.46218      4527.1937      296.00493     -2204.1671      0.40101743     18421.214      0              0              0              0              0             -175.04516    
    344500   4964.1628      415.47552      4548.6873      306.3372      -1841.8139      0.40101743     18421.214      0              0              0              0              0             -181.95257    
    344750   4934.9857      418.06382      4516.9219      308.2456      -3345.1861      0.40101743     18421.214      0              0              0              0              0             -190.24246    
    345000   4958.1995      417.09033      4541.1092      307.52783     -1909.1189      0.40101743     18421.214      0              0              0              0              0             -180.72667    
    345250   4955.9213      404.9487       4550.9726      298.5756      -3037.4956      0.40101743     18421.214      0              0              0              0              0             -174.89349    
    345500   4961.5607      418.8675       4542.6932      308.83817     -2704.0845      0.40101743     18421.214      0              0              0              0              0             -175.4326     
    345750   4928.5476      386.26353      4542.2841      284.7987      -2482.9792      0.40101743     18421.214      0              0              0              0              0             -169.51329    
    346000   4927.5157      401.03288      4526.4828      295.6884      -3435.6293      0.40101743     18421.214      0              0              0              0              0             -179.31553    
    346250   4935.7567      401.25788      4534.4988      295.8543      -2328.3851      0.40101743     18421.214      0              0              0              0              0             -177.6522     
    346500   4911.255       376.65606      4534.599       277.71495     -2406.105       0.40101743     18421.214      0              0              0              0              0             -176.67417    
    346750   4933.3521      415.0612       4518.2909      306.03172     -1227.3026      0.40101743     18421.214      0              0              0              0              0             -171.59852    
    347000   4929.3864      416.04047      4513.3459      306.75375     -2220.1278      0.40101743     18421.214      0              0              0              0              0             -175.57417    
    347250   4947.632       403.14967      4544.4823      297.24914     -2503.7804      0.40101743     18421.214      0              0              0              0              0             -181.71732    
    347500   4951.8099      397.07445      4554.7354      292.76978     -2985.3162      0.40101743     18421.214      0              0              0              0              0             -189.5187     
    347750   4935.7468      387.2465       4548.5003      285.52346     -2999.7496      0.40101743     18421.214      0              0              0              0              0             -181.72763    
    348000   4945.8977      410.50382      4535.3939      302.67148     -2445.0722      0.40101743     18421.214      0              0              0              0              0             -177.31577    
    348250   4938.8255      414.20878      4524.6167      305.40321     -2090.5949      0.40101743     18421.214      0              0              0              0              0             -165.71168    
    348500   4934.5754      392.0375       4542.5379      289.05595     -2628.1122      0.40101743     18421.214      0              0              0              0              0             -176.58677    
    348750   4915.0285      383.52571      4531.5028      282.78006     -3453.3341      0.40101743     18421.214      0              0              0              0              0             -190.15905    
    349000   4982.8575      448.27374      4534.5837      330.51989     -2189.0872      0.40101743     18421.214      0              0              0              0              0             -187.12464    
    349250   4946.6656      411.75953      4534.9061      303.59734     -2869.8081      0.40101743     18421.214      0              0              0              0              0             -175.42749    
    349500   4914.2426      407.12914      4507.1135      300.18328     -2354.4084      0.40101743     18421.214      0              0              0              0              0             -180.41762    
    349750   4944.5665      422.92581      4521.6407      311.83043     -3637.2869      0.40101743     18421.214      0              0              0              0              0             -180.77829    
    350000   4985.8033      432.462        4553.3413      318.86162     -3553.841       0.40101743     18421.214      0              0              0              0              0             -184.33783    
    350250   4928.2721      397.51772      4530.7544      293.09661     -2002.3834      0.40101743     18421.214      0              0              0              0              0             -183.49863    
    350500   4962.4678      410.07647      4552.3914      302.35639     -1789.2177      0.40101743     18421.214      0              0              0              0              0             -179.29691    
    350750   4921.8474      387.83438      4534.013       285.95692     -3033.2727      0.40101743     18421.214      0              0              0              0              0             -181.66019    
    351000   4890.0922      388.52969      4501.5625      286.46958     -1266.926       0.40101743     18421.214      0              0              0              0              0             -180.59503    
    351250   4951.7509      409.24062      4542.5103      301.7401      -1996.9877      0.40101743     18421.214      0              0              0              0              0             -187.37592    
    351500   4943.5037      408.53916      4534.9646      301.22291     -2307.8905      0.40101743     18421.214      0              0              0              0              0             -182.27906    
    351750   4963.4145      431.05377      4532.3607      317.82331     -2705.4018      0.40101743     18421.214      0              0              0              0              0             -182.2368     
    352000   4934.3876      417.90911      4516.4784      308.13153     -2743.453       0.40101743     18421.214      0              0              0              0              0             -184.12701    
    352250   4942.1072      421.24302      4520.8642      310.58968     -2114.4068      0.40101743     18421.214      0              0              0              0              0             -178.75397    
    352500   4975.4763      426.50424      4548.9721      314.46887     -2544.1323      0.40101743     18421.214      0              0              0              0              0             -179.32079    
    352750   4947.7131      411.09771      4536.6154      303.10937     -740.13867      0.40101743     18421.214      0              0              0              0              0             -176.11472    
    353000   4994.28        428.90578      4565.3742      316.23956     -2080.1077      0.40101743     18421.214      0              0              0              0              0             -190.16864    
    353250   4955.176       402.62188      4552.5542      296.85999     -3496.5832      0.40101743     18421.214      0              0              0              0              0             -185.31898    
    353500   4953.1058      389.46336      4563.6424      287.15799     -3176.3712      0.40101743     18421.214      0              0              0              0              0             -178.35964    
    353750   4935.3343      399.55179      4535.7825      294.59637     -2258.5399      0.40101743     18421.214      0              0              0              0              0             -190.66042    
    354000   4955.2432      421.70318      4533.5401      310.92896     -3019.0106      0.40101743     18421.214      0              0              0              0              0             -187.03034    
    354250   4938.8707      410.82688      4528.0438      302.90968     -3123.0266      0.40101743     18421.214      0              0              0              0              0             -190.56536    
    354500   4937.1147      432.00635      4505.1083      318.52567     -3310.3374      0.40101743     18421.214      0              0              0              0              0             -196.64231    
    354750   4965.5274      420.56836      4544.959       310.09224     -2936.3025      0.40101743     18421.214      0              0              0              0              0             -200.57784    
    355000   4906.5804      384.47597      4522.1044      283.4807      -2121.9347      0.40101743     18421.214      0              0              0              0              0             -198.35152    
    355250   4961.9946      423.82488      4538.1697      312.49333     -2103.8524      0.40101743     18421.214      0              0              0              0              0             -177.02782    
    355500   4948.8748      383.32147      4565.5534      282.62947     -2595.7206      0.40101743     18421.214      0              0              0              0              0             -161.6406     
    355750   4957.3619      407.80134      4549.5606      300.6789      -1668.7854      0.40101743     18421.214      0              0              0              0              0             -170.14453    
    356000   4883.4765      361.16406      4522.3125      266.29244     -1790.5976      0.40101743     18421.214      0              0              0              0              0             -184.67907    
    356250   4920.6161      407.64294      4512.9731      300.56211     -2044.9129      0.40101743     18421.214      0              0              0              0              0             -189.17542    
    356500   4958.0987      397.94284      4560.1558      293.41006     -2569.9433      0.40101743     18421.214      0              0              0              0              0             -184.90852    
    356750   4962.0132      418.44201      4543.5712      308.52445     -866.19959      0.40101743     18421.214      0              0              0              0              0             -176.79644    
    357000   4908.7084      373.59999      4535.1084      275.46166     -2489.9042      0.40101743     18421.214      0              0              0              0              0             -176.70786    
    357250   4929.2353      379.4737       4549.7616      279.79244     -3689.7041      0.40101743     18421.214      0              0              0              0              0             -184.8407     
    357500   4929.6101      410.77436      4518.8358      302.87095     -2285.8689      0.40101743     18421.214      0              0              0              0              0             -185.63277    
    357750   4961.61        406.54702      4555.063       299.75407     -3511.7302      0.40101743     18421.214      0              0              0              0              0             -192.43348    
    358000   4976.7225      424.45644      4552.2661      312.95898     -3401.3674      0.40101743     18421.214      0              0              0              0              0             -195.12388    
    358250   4935.107       413.74868      4521.3583      305.06398     -3256.6697      0.40101743     18421.214      0              0              0              0              0             -195.18659    
    358500   4946.6115      390.97381      4555.6377      288.27168     -1882.9051      0.40101743     18421.214      0              0              0              0              0             -190.93772    
    358750   4961.6628      423.90867      4537.7541      312.55511     -2330.299       0.40101743     18421.214      0              0              0              0              0             -182.4776     
    359000   4924.8507      405.87281      4518.9779      299.25696     -3615.1976      0.40101743     18421.214      0              0              0              0              0             -188.19805    
    359250   4932.0527      392.60199      4539.4507      289.47216     -3407.629       0.40101743     18421.214      0              0              0              0              0             -192.91295    
    359500   4951.9296      422.16974      4529.7598      311.27297     -2955.0142      0.40101743     18421.214      0              0              0              0              0             -182.71761    
    359750   4951.0474      425.34334      4525.7041      313.61291     -2929.0324      0.40101743     18421.214      0              0              0              0              0             -174.09865    
    360000   4958.2506      409.6483       4548.6023      302.04069     -2482.6962      0.40101743     18421.214      0              0              0              0              0             -174.20093    
    360250   4974.5549      410.15138      4564.4035      302.41162     -2351.4652      0.40101743     18421.214      0              0              0              0              0             -175.47228    
    360500   4954.4915      404.44078      4550.0508      298.2011      -2277.7713      0.40101743     18421.214      0              0              0              0              0             -186.49465    
    360750   4950.5201      427.75566      4522.7644      315.39156     -1075.2558      0.40101743     18421.214      0              0              0              0              0             -185.24484    
    361000   4983.1576      436.79046      4546.3672      322.05307     -4064.5993      0.40101743     18421.214      0              0              0              0              0             -193.35328    
    361250   5009.7906      457.95383      4551.8367      337.65719     -2865.3485      0.40101743     18421.214      0              0              0              0              0             -193.91911    
    361500   4958.3968      440.46387      4517.9329      324.76154     -1725.1228      0.40101743     18421.214      0              0              0              0              0             -190.81823    
    361750   4938.8924      412.07021      4526.8222      303.82641     -2516.1921      0.40101743     18421.214      0              0              0              0              0             -192.69604    
    362000   4899.9755      387.0149       4512.9606      285.3527      -2859.1686      0.40101743     18421.214      0              0              0              0              0             -183.27836    
    362250   4935.5133      407.87473      4527.6386      300.73301     -3030.9256      0.40101743     18421.214      0              0              0              0              0             -188.08232    
    362500   4916.9186      387.90593      4529.0127      286.00967     -1693.8148      0.40101743     18421.214      0              0              0              0              0             -187.79685    
    362750   4994.6285      449.83414      4544.7944      331.6704      -2612.0219      0.40101743     18421.214      0              0              0              0              0             -182.05001    
    363000   4951.4678      419.60742      4531.8604      309.38372     -1994.0841      0.40101743     18421.214      0              0              0              0              0             -184.89225    
    363250   4892.908       388.30558      4504.6024      286.30434     -2599.9698      0.40101743     18421.214      0              0              0              0              0             -171.05835    
    363500   4944.2025      407.165        4537.0375      300.20971     -1898.9312      0.40101743     18421.214      0              0              0              0              0             -164.37887    
    363750   4948.8332      412.03923      4536.794       303.80356     -2088.441       0.40101743     18421.214      0              0              0              0              0             -169.80292    
    364000   4936.1426      379.91396      4556.2286      280.11706     -2854.5027      0.40101743     18421.214      0              0              0              0              0             -176.47329    
    364250   4935.6686      405.95585      4529.7127      299.31819     -3070.5899      0.40101743     18421.214      0              0              0              0              0             -185.24979    
    364500   4915.1363      396.87049      4518.2658      292.6194      -2772.0501      0.40101743     18421.214      0              0              0              0              0             -195.53847    
    364750   4982.0548      429.24447      4552.8103      316.48929     -1926.3758      0.40101743     18421.214      0              0              0              0              0             -193.80905    
    365000   4950.5197      402.89256      4547.6271      297.05957     -1540.2556      0.40101743     18421.214      0              0              0              0              0             -191.71898    
    365250   4972.0131      416.08088      4555.9322      306.78355     -1445.3814      0.40101743     18421.214      0              0              0              0              0             -183.94591    
    365500   4969.7006      419.12327      4550.5773      309.02675     -2941.0253      0.40101743     18421.214      0              0              0              0              0             -189.1392     
    365750   4941.2993      405.71763      4535.5817      299.14254     -1521.0101      0.40101743     18421.214      0              0              0              0              0             -192.28073    
    366000   4940.2149      414.37424      4525.8407      305.52521     -3038.7867      0.40101743     18421.214      0              0              0              0              0             -186.47908    
    366250   4939.5128      391.32919      4548.1836      288.5337      -1442.4919      0.40101743     18421.214      0              0              0              0              0             -188.83085    
    366500   4975.944       422.89097      4553.053       311.80474     -2114.7894      0.40101743     18421.214      0              0              0              0              0             -186.5282     
    366750   4952.2923      421.23057      4531.0618      310.5805      -2448.7337      0.40101743     18421.214      0              0              0              0              0             -191.69493    
    367000   4978.4287      420.73506      4557.6936      310.21515     -2931.9585      0.40101743     18421.214      0              0              0              0              0             -189.11575    
    367250   4965.2321      418.81465      4546.4175      308.7992      -2961.0194      0.40101743     18421.214      0              0              0              0              0             -187.104      
    367500   4936.0948      400.61801      4535.4768      295.38251     -1906.8486      0.40101743     18421.214      0              0              0              0              0             -181.25715    
    367750   4922.1725      412.74738      4509.4251      304.3257      -2639.2612      0.40101743     18421.214      0              0              0              0              0             -181.12893    
    368000   4946.5143      406.0282       4540.4861      299.37153     -1503.7784      0.40101743     18421.214      0              0              0              0              0             -188.6753     
    368250   4953.8042      410.42436      4543.3798      302.61289     -3286.642       0.40101743     18421.214      0              0              0              0              0             -195.72491    
    368500   4956.9929      413.49645      4543.4964      304.878       -2628.5722      0.40101743     18421.214      0              0              0              0              0             -187.41918    
    368750   4937.743       398.43627      4539.3067      293.77387     -2976.0884      0.40101743     18421.214      0              0              0              0              0             -192.74421    
    369000   4937.3623      412.2315       4525.1308      303.94533     -1799.3247      0.40101743     18421.214      0              0              0              0              0             -183.44694    
    369250   4921.8773      389.72088      4532.1564      287.34787     -1384.1334      0.40101743     18421.214      0              0              0              0              0             -183.05957    
    369500   4956.4538      413.97125      4542.4825      305.22808     -2155.9926      0.40101743     18421.214      0              0              0              0              0             -189.69848    
    369750   4941.5777      385.65715      4555.9205      284.35161     -3230.9119      0.40101743     18421.214      0              0              0              0              0             -188.00402    
    370000   4923.6187      396.79928      4526.8194      292.56689     -2341.6101      0.40101743     18421.214      0              0              0              0              0             -188.26354    
    370250   4930.9623      397.38722      4533.5751      293.00039     -2186.6181      0.40101743     18421.214      0              0              0              0              0             -184.04374    
    370500   4916.3184      393.2684       4523.05        289.96352     -1705.9858      0.40101743     18421.214      0              0              0              0              0             -174.0944     
    370750   4956.4211      417.26497      4539.1562      307.65659     -3372.5165      0.40101743     18421.214      0              0              0              0              0             -174.79019    
    371000   4968.5387      436.15247      4532.3862      321.58267     -2394.7828      0.40101743     18421.214      0              0              0              0              0             -183.34069    
    371250   4918.959       377.98147      4540.9775      278.6922      -4351.131       0.40101743     18421.214      0              0              0              0              0             -186.03168    
    371500   4933.2665      410.83727      4522.4292      302.91734     -2867.5506      0.40101743     18421.214      0              0              0              0              0             -192.55376    
    371750   4956.5966      411.59327      4545.0033      303.47475     -2567.1093      0.40101743     18421.214      0              0              0              0              0             -194.11712    
    372000   4941.4738      405.22108      4536.2527      298.77643     -2953.4499      0.40101743     18421.214      0              0              0              0              0             -196.14352    
    372250   4964.3534      421.28718      4543.0662      310.62224     -2722.0631      0.40101743     18421.214      0              0              0              0              0             -191.90373    
    372500   4969.277       420.6592       4548.6178      310.15922     -3013.2914      0.40101743     18421.214      0              0              0              0              0             -183.85438    
    372750   4975.7871      438.27737      4537.5097      323.1494      -1764.4154      0.40101743     18421.214      0              0              0              0              0             -179.85908    
    373000   4929.5891      391.90193      4537.6872      288.95599     -2281.0253      0.40101743     18421.214      0              0              0              0              0             -191.63157    
    373250   4974.1867      424.85201      4549.3347      313.25065     -3112.3283      0.40101743     18421.214      0              0              0              0              0             -194.47392    
    373500   4938.4922      420.77403      4517.7182      310.24388     -3515.099       0.40101743     18421.214      0              0              0              0              0             -189.65814    
    373750   4918.7488      410.75657      4507.9922      302.85784     -2025.351       0.40101743     18421.214      0              0              0              0              0             -189.7212     
    374000   4975.4721      441.39401      4534.078       325.44735     -1955.9355      0.40101743     18421.214      0              0              0              0              0             -189.74222    
    374250   4954.6061      416.91809      4537.688       307.40083     -3334.4795      0.40101743     18421.214      0              0              0              0              0             -192.84787    
    374500   4970.5901      408.65383      4561.9363      301.30745     -2382.2468      0.40101743     18421.214      0              0              0              0              0             -186.01832    
    374750   4927.4478      401.15929      4526.2885      295.7816      -1853.5187      0.40101743     18421.214      0              0              0              0              0             -173.91033    
    375000   4934.2737      418.63886      4515.6349      308.66959     -2761.7068      0.40101743     18421.214      0              0              0              0              0             -170.74272    
    375250   4947.6906      403.91449      4543.7761      297.81306     -1752.0703      0.40101743     18421.214      0              0              0              0              0             -168.44243    
    375500   4959.4752      438.79597      4520.6792      323.53177     -2620.5361      0.40101743     18421.214      0              0              0              0              0             -175.22552    
    375750   4952.8877      411.50826      4541.3794      303.41208     -1418.2292      0.40101743     18421.214      0              0              0              0              0             -184.77303    
    376000   4969.6084      401.72302      4567.8853      296.19725     -1929.3096      0.40101743     18421.214      0              0              0              0              0             -182.01239    
    376250   4980.3112      411.10021      4569.211       303.11121     -2815.2901      0.40101743     18421.214      0              0              0              0              0             -185.86436    
    376500   4979.3272      424.29149      4555.0357      312.83737     -3540.1778      0.40101743     18421.214      0              0              0              0              0             -182.6804     
    376750   4931.6935      403.40382      4528.2897      297.43653     -1340.8924      0.40101743     18421.214      0              0              0              0              0             -188.57998    
    377000   4961.409       418.60802      4542.801       308.64685     -2497.7701      0.40101743     18421.214      0              0              0              0              0             -185.38766    
    377250   4957.6479      414.71232      4542.9356      305.77448     -2709.806       0.40101743     18421.214      0              0              0              0              0             -174.73686    
    377500   4969.1417      412.65019      4556.4915      304.25404     -2726.6854      0.40101743     18421.214      0              0              0              0              0             -176.59466    
    377750   4964.6431      414.29175      4550.3514      305.46439     -3188.2954      0.40101743     18421.214      0              0              0              0              0             -188.19237    
    378000   4948.6482      406.60164      4542.0466      299.79434     -1867.0819      0.40101743     18421.214      0              0              0              0              0             -190.34001    
    378250   4953.0127      425.10203      4527.9107      313.43499     -2502.4113      0.40101743     18421.214      0              0              0              0              0             -195.70947    
    378500   4953.6368      408.26438      4545.3724      301.0203      -3228.0272      0.40101743     18421.214      0              0              0              0              0             -196.91224    
    378750   4941.0504      425.98452      4515.0659      314.08567     -2487.1708      0.40101743     18421.214      0              0              0              0              0             -195.71066    
    379000   4937.5713      404.38673      4533.1846      298.16125     -3009.3256      0.40101743     18421.214      0              0              0              0              0             -197.88665    
    379250   4933.0551      403.19853      4529.8566      297.28517     -1443.0815      0.40101743     18421.214      0              0              0              0              0             -194.07292    
    379500   4954.0064      411.65979      4542.3466      303.5238      -1538.6964      0.40101743     18421.214      0              0              0              0              0             -189.5868     
    379750   4923.5137      396.91683      4526.5969      292.65356     -2492.463       0.40101743     18421.214      0              0              0              0              0             -189.69286    
    380000   4945.2766      413.56742      4531.7092      304.93033     -2605.697       0.40101743     18421.214      0              0              0              0              0             -188.21299    
    380250   4942.5845      409.23577      4533.3487      301.73653     -3983.8705      0.40101743     18421.214      0              0              0              0              0             -174.93532    
    380500   4967.9124      422.60456      4545.3079      311.59357     -2609.1845      0.40101743     18421.214      0              0              0              0              0             -173.91139    
    380750   4945.4716      417.70363      4527.768       307.98003     -1666.9802      0.40101743     18421.214      0              0              0              0              0             -167.48783    
    381000   4955.1957      439.10862      4516.0871      323.76229     -1973.8331      0.40101743     18421.214      0              0              0              0              0             -161.02252    
    381250   4939.5889      399.13841      4540.4505      294.29157     -2402.5855      0.40101743     18421.214      0              0              0              0              0             -168.33645    
    381500   4947.0867      408.39676      4538.69        301.11791     -1123.1952      0.40101743     18421.214      0              0              0              0              0             -176.19735    
    381750   4909.714       392.43397      4517.2801      289.34828     -2271.5323      0.40101743     18421.214      0              0              0              0              0             -185.71834    
    382000   4988.6875      417.26181      4571.4257      307.65427     -4149.5562      0.40101743     18421.214      0              0              0              0              0             -193.14605    
    382250   4979.8527      422.84557      4557.0072      311.77126     -3004.616       0.40101743     18421.214      0              0              0              0              0             -196.06282    
    382500   4937.3447      407.28745      4530.0572      300.3         -2412.5386      0.40101743     18421.214      0              0              0              0              0             -190.09205    
    382750   4940.5205      390.58298      4549.9375      287.98351     -2316.6429      0.40101743     18421.214      0              0              0              0              0             -185.21033    
    383000   4924.7466      373.28033      4551.4663      275.22596     -3400.7008      0.40101743     18421.214      0              0              0              0              0             -187.79187    
    383250   4960.7506      413.74099      4547.0096      305.0583      -3354.821       0.40101743     18421.214      0              0              0              0              0             -176.16666    
    383500   4968.4685      415.8493       4552.6192      306.6128      -1777.8174      0.40101743     18421.214      0              0              0              0              0             -179.9356     
    383750   4924.6294      400.43173      4524.1976      295.24516     -2839.6017      0.40101743     18421.214      0              0              0              0              0             -186.47272    
    384000   4914.9491      401.49056      4513.4585      296.02585     -1998.1011      0.40101743     18421.214      0              0              0              0              0             -185.94551    
    384250   4940.7006      425.86254      4514.8381      313.99573     -3275.6744      0.40101743     18421.214      0              0              0              0              0             -176.67251    
    384500   4936.2672      412.94408      4523.3232      304.47073     -1796.8887      0.40101743     18421.214      0              0              0              0              0             -171.7208     
    384750   4921.56        386.72648      4534.8335      285.14004     -2654.298       0.40101743     18421.214      0              0              0              0              0             -182.84009    
    385000   4987.2272      427.85103      4559.3762      315.46188     -2639.6194      0.40101743     18421.214      0              0              0              0              0             -192.46435    
    385250   4959.1888      411.9252       4547.2636      303.71949     -2521.1663      0.40101743     18421.214      0              0              0              0              0             -197.19632    
    385500   4967.0163      414.53282      4552.4835      305.64214     -4062.3136      0.40101743     18421.214      0              0              0              0              0             -199.65403    
    385750   4923.9291      397.96432      4525.9648      293.4259      -2161.7521      0.40101743     18421.214      0              0              0              0              0             -197.5634     
    386000   4989.883       423.79858      4566.0845      312.47393     -2648.8398      0.40101743     18421.214      0              0              0              0              0             -195.731      
    386250   4938.8505      413.42608      4525.4244      304.82611     -2564.869       0.40101743     18421.214      0              0              0              0              0             -190.17565    
    386500   4966.2864      419.69901      4546.5874      309.45125     -1923.6227      0.40101743     18421.214      0              0              0              0              0             -190.09928    
    386750   4950.2417      395.83896      4554.4027      291.85883     -2145.7584      0.40101743     18421.214      0              0              0              0              0             -194.59057    
    387000   4988.909       437.44471      4551.4643      322.53546     -2294.5835      0.40101743     18421.214      0              0              0              0              0             -194.81416    
    387250   4961.0783      406.08988      4554.9884      299.41701     -1891.5878      0.40101743     18421.214      0              0              0              0              0             -196.42531    
    387500   4910.8666      391.72789      4519.1387      288.82767     -2559.516       0.40101743     18421.214      0              0              0              0              0             -194.88236    
    387750   4933.6763      384.62778      4549.0485      283.59263     -2657.6571      0.40101743     18421.214      0              0              0              0              0             -194.30092    
    388000   4942.6246      419.00131      4523.6233      308.93683     -1429.1406      0.40101743     18421.214      0              0              0              0              0             -183.46126    
    388250   4933.8909      419.71315      4514.1777      309.46168     -3447.8796      0.40101743     18421.214      0              0              0              0              0             -179.12318    
    388500   4916.0614      388.97135      4527.09        286.79522     -1396.1617      0.40101743     18421.214      0              0              0              0              0             -185.67964    
    388750   4963.4038      414.5863       4548.8175      305.68156     -2447.0113      0.40101743     18421.214      0              0              0              0              0             -185.71161    
    389000   4934.6631      419.24269      4515.4204      309.1148      -3260.2928      0.40101743     18421.214      0              0              0              0              0             -186.45042    
    389250   4954.1437      428.76316      4525.3805      316.1344      -3504.6219      0.40101743     18421.214      0              0              0              0              0             -184.23778    
    389500   4936.2617      406.45921      4529.8025      299.68933     -1932.1142      0.40101743     18421.214      0              0              0              0              0             -174.47891    
    389750   4965.1698      406.97084      4558.199       300.06656     -1979.4833      0.40101743     18421.214      0              0              0              0              0             -179.49324    
    390000   4958.7688      423.88112      4534.8877      312.53479     -3203.6121      0.40101743     18421.214      0              0              0              0              0             -181.12074    
    390250   4983.3769      427.03528      4556.3416      314.86041     -3207.2491      0.40101743     18421.214      0              0              0              0              0             -168.49937    
    390500   4976.2753      431.8789       4544.3964      318.43169     -2462.7116      0.40101743     18421.214      0              0              0              0              0             -176.20541    
    390750   4934.0832      408.61272      4525.4705      301.27715     -1520.3198      0.40101743     18421.214      0              0              0              0              0             -171.73136    
    391000   4949.0599      409.08737      4539.9725      301.62711     -1693.9507      0.40101743     18421.214      0              0              0              0              0             -174.14825    
    391250   4953.0495      425.03349      4528.016       313.38446     -1421.3695      0.40101743     18421.214      0              0              0              0              0             -182.80744    
    391500   4944.2957      409.03564      4535.2601      301.58896     -3520.6241      0.40101743     18421.214      0              0              0              0              0             -183.21371    
    391750   4941.0505      403.40882      4537.6417      297.44022     -2293.3497      0.40101743     18421.214      0              0              0              0              0             -187.3244     
    392000   4949.6533      424.46413      4525.1892      312.96466     -1012.737       0.40101743     18421.214      0              0              0              0              0             -191.15923    
    392250   4942.3794      419.57506      4522.8044      309.35986     -2627.0376      0.40101743     18421.214      0              0              0              0              0             -188.54198    
    392500   4928.7468      409.30416      4519.4426      301.78695     -2081.5605      0.40101743     18421.214      0              0              0              0              0             -184.53401    
    392750   4929.4412      406.88646      4522.5548      300.00434     -3019.4098      0.40101743     18421.214      0              0              0              0              0             -191.6228     
    393000   4946.5525      421.14922      4525.4033      310.52052     -3082.5895      0.40101743     18421.214      0              0              0              0              0             -186.14139    
    393250   4964.4785      431.80281      4532.6757      318.37559     -2331.3987      0.40101743     18421.214      0              0              0              0              0             -188.19639    
    393500   4986.4735      429.46         4557.0135      316.6482      -1965.3203      0.40101743     18421.214      0              0              0              0              0             -178.92248    
    393750   4960.7915      397.15617      4563.6353      292.83004     -3073.5963      0.40101743     18421.214      0              0              0              0              0             -173.16366    
    394000   4941.3968      396.884        4544.5128      292.62935     -2958.5264      0.40101743     18421.214      0              0              0              0              0             -167.43006    
    394250   4940.9935      402.58678      4538.4067      296.83411     -2676.6591      0.40101743     18421.214      0              0              0              0              0             -173.86505    
    394500   4932.1071      414.71762      4517.3895      305.77839     -1631.5398      0.40101743     18421.214      0              0              0              0              0             -182.43025    
    394750   4982.3518      425.4603       4556.8915      313.69915     -2727.3576      0.40101743     18421.214      0              0              0              0              0             -183.71192    
    395000   4906.7423      386.90311      4519.8392      285.27027     -2323.6295      0.40101743     18421.214      0              0              0              0              0             -178.24841    
    395250   4916.2093      396.28873      4519.9206      292.19045     -3331.3102      0.40101743     18421.214      0              0              0              0              0             -176.16265    
    395500   4944.44        390.04687      4554.3932      287.58822     -3037.5067      0.40101743     18421.214      0              0              0              0              0             -178.19949    
    395750   4935.5676      398.4514       4537.1162      293.78503     -2756.671       0.40101743     18421.214      0              0              0              0              0             -171.29742    
    396000   4962.0587      433.60743      4528.4513      319.70617     -3767.9787      0.40101743     18421.214      0              0              0              0              0             -178.84929    
    396250   4943.9619      414.09419      4529.8677      305.31873     -2311.8082      0.40101743     18421.214      0              0              0              0              0             -186.30251    
    396500   4955.7567      421.79203      4533.9647      310.99447     -1784.0539      0.40101743     18421.214      0              0              0              0              0             -186.1403     
    396750   4969.4759      445.00958      4524.4663      328.11317     -1494.2981      0.40101743     18421.214      0              0              0              0              0             -185.54621    
    397000   4971.243       432.26815      4538.9748      318.7187      -1775.859       0.40101743     18421.214      0              0              0              0              0             -177.85596    
    397250   4968.4593      426.62071      4541.8385      314.55474     -3754.3795      0.40101743     18421.214      0              0              0              0              0             -178.69019    
    397500   4921.408       411.6255       4509.7825      303.49852     -2819.9739      0.40101743     18421.214      0              0              0              0              0             -182.98044    
    397750   4955.5608      424.17306      4531.3877      312.75005     -2537.3467      0.40101743     18421.214      0              0              0              0              0             -182.93913    
    398000   4965.9655      400.7472       4565.2183      295.47776     -3161.188       0.40101743     18421.214      0              0              0              0              0             -183.0042     
    398250   4947.5609      423.56079      4524.0001      312.29861     -2172.7034      0.40101743     18421.214      0              0              0              0              0             -185.54264    
    398500   4941.9771      407.86979      4534.1073      300.72937     -2425.3617      0.40101743     18421.214      0              0              0              0              0             -187.07503    
    398750   4923.2839      410.74075      4512.5432      302.84617     -3063.2031      0.40101743     18421.214      0              0              0              0              0             -181.50873    
    399000   4945.6111      415.57754      4530.0336      306.41243     -3626.0826      0.40101743     18421.214      0              0              0              0              0             -185.66883    
    399250   4935.4401      419.8256       4515.6145      309.54459     -2652.7594      0.40101743     18421.214      0              0              0              0              0             -179.7375     
    399500   4944.1578      403.42938      4540.7284      297.45537     -1732.933       0.40101743     18421.214      0              0              0              0              0             -181.02213    
    399750   4925.1066      384.15381      4540.9528      283.24317     -2902.3284      0.40101743     18421.214      0              0              0              0              0             -183.78843    
    400000   4959.1679      420.14429      4539.0236      309.77957     -2374.9939      0.40101743     18421.214      0              0              0              0              0             -181.98277    
    400250   4980.0572      433.08209      4546.9751      319.31883     -4096.685       0.40101743     18421.214      0              0              0              0              0             -185.4563     
    400500   4947.2555      427.2012       4520.0543      314.98275     -2049.9134      0.40101743     18421.214      0              0              0              0              0             -185.63477    
    400750   4954.2105      410.01949      4544.191       302.31438     -2412.8339      0.40101743     18421.214      0              0              0              0              0             -183.90634    
    401000   4960.0038      386.1061       4573.8977      284.68263     -2950.5863      0.40101743     18421.214      0              0              0              0              0             -175.35573    
    401250   4928.9236      411.38959      4517.534       303.32458     -3508.4136      0.40101743     18421.214      0              0              0              0              0             -172.62009    
    401500   4978.3427      424.29516      4554.0476      312.84007     -2911.7465      0.40101743     18421.214      0              0              0              0              0             -171.13724    
    401750   4959.5813      410.95745      4548.6238      303.00595     -2638.9652      0.40101743     18421.214      0              0              0              0              0             -177.03549    
    402000   4967.9152      426.63563      4541.2796      314.56574     -2115.468       0.40101743     18421.214      0              0              0              0              0             -187.42754    
    402250   4968.5627      415.98333      4552.5794      306.71162     -2991.6066      0.40101743     18421.214      0              0              0              0              0             -186.81115    
    402500   4961.5547      406.38237      4555.1724      299.63267     -2925.3676      0.40101743     18421.214      0              0              0              0              0             -185.69782    
    402750   4994.3536      422.88496      4571.4686      311.80031     -2780.3397      0.40101743     18421.214      0              0              0              0              0             -190.15617    
    403000   4951.2307      423.23107      4527.9996      312.0555      -2635.0718      0.40101743     18421.214      0              0              0              0              0             -190.52034    
    403250   4941.1683      411.56016      4529.6082      303.45034     -2980.3006      0.40101743     18421.214      0              0              0              0              0             -188.21428    
    403500   4910.9056      392.12009      4518.7855      289.11684     -742.58409      0.40101743     18421.214      0              0              0              0              0             -185.25114    
    403750   4883.2978      400.89012      4482.4077      295.58314     -2121.7101      0.40101743     18421.214      0              0              0              0              0             -186.20624    
    404000   4957.7854      421.26417      4536.5212      310.60527     -2848.2945      0.40101743     18421.214      0              0              0              0              0             -186.3526     
    404250   4928.1482      400.77163      4527.3765      295.49577     -2560.4837      0.40101743     18421.214      0              0              0              0              0             -182.61764    
    404500   4980.4767      440.10069      4540.376       324.49376     -1401.6303      0.40101743     18421.214      0              0              0              0              0             -180.47319    
    404750   4936.3544      407.02804      4529.3263      300.10873     -2036.2723      0.40101743     18421.214      0              0              0              0              0             -173.83468    
    405000   4953.1125      420.5269       4532.5856      310.06167     -2460.7924      0.40101743     18421.214      0              0              0              0              0             -181.61581    
    405250   4954.7697      434.6624       4520.1073      320.48402     -2856.5236      0.40101743     18421.214      0              0              0              0              0             -192.31522    
    405500   4959.0865      425.93142      4533.155       314.04652     -2277.7648      0.40101743     18421.214      0              0              0              0              0             -191.58444    
    405750   4964.0911      408.2659       4555.8252      301.02143     -3217.8696      0.40101743     18421.214      0              0              0              0              0             -191.19494    
    406000   4923.9582      403.79901      4520.1592      297.72791     -3337.0279      0.40101743     18421.214      0              0              0              0              0             -198.59061    
    406250   4930.3979      394.07522      4536.3227      290.55839     -2224.5838      0.40101743     18421.214      0              0              0              0              0             -196.29964    
    406500   4938.1049      407.34269      4530.7622      300.34073     -2144.2341      0.40101743     18421.214      0              0              0              0              0             -193.12997    
    406750   4986.8646      429.90481      4556.9598      316.97616     -2182.516       0.40101743     18421.214      0              0              0              0              0             -189.38225    
    407000   4909.4159      386.5255       4522.8904      284.99185     -2811.7412      0.40101743     18421.214      0              0              0              0              0             -181.4222     
    407250   4946.8855      420.58482      4526.3007      310.10437     -2049.0257      0.40101743     18421.214      0              0              0              0              0             -170.36292    
    407500   4922.7652      379.61079      4543.1544      279.89353     -2407.6583      0.40101743     18421.214      0              0              0              0              0             -172.84535    
    407750   4937.1717      400.35146      4536.8202      295.18598     -2821.3923      0.40101743     18421.214      0              0              0              0              0             -165.28612    
    408000   4983.5874      419.11414      4564.4732      309.02002     -3081.5599      0.40101743     18421.214      0              0              0              0              0             -161.9426     
    408250   4970.0188      413.40192      4556.6168      304.8083      -3041.8677      0.40101743     18421.214      0              0              0              0              0             -177.47458    
    408500   4967.585       418.04287      4549.5421      308.23016     -3106.579       0.40101743     18421.214      0              0              0              0              0             -182.57386    
    408750   4975.3566      429.12357      4546.233       316.40014     -1615.9197      0.40101743     18421.214      0              0              0              0              0             -187.28531    
    409000   4966.1878      398.33863      4567.8492      293.70188     -3658.6831      0.40101743     18421.214      0              0              0              0              0             -180.83436    
    409250   4968.9404      422.17941      4546.761       311.2801      -1748.5454      0.40101743     18421.214      0              0              0              0              0             -177.75171    
    409500   4929.543       413.944        4515.599       305.20798     -1599.6832      0.40101743     18421.214      0              0              0              0              0             -180.53131    
    409750   4935.2846      393.93898      4541.3457      290.45794     -2300.0989      0.40101743     18421.214      0              0              0              0              0             -179.44352    
    410000   4937.724       409.67568      4528.0483      302.06088     -2855.547       0.40101743     18421.214      0              0              0              0              0             -179.18818    
    410250   4939.2486      410.28195      4528.9666      302.5079      -2593.1539      0.40101743     18421.214      0              0              0              0              0             -175.43209    
    410500   4956.665       440.78747      4515.8775      325.00014     -1968.2292      0.40101743     18421.214      0              0              0              0              0             -177.37039    
    410750   4943.0657      391.91631      4551.1494      288.96659     -1779.0019      0.40101743     18421.214      0              0              0              0              0             -185.86344    
    411000   4936.7863      398.14479      4538.6415      293.55896     -3636.6361      0.40101743     18421.214      0              0              0              0              0             -187.3036     
    411250   4925.8737      401.39637      4524.4774      295.9564      -3096.3996      0.40101743     18421.214      0              0              0              0              0             -192.52024    
    411500   4924.7613      403.94869      4520.8126      297.83827     -2695.4002      0.40101743     18421.214      0              0              0              0              0             -188.60158    
    411750   4963.5285      408.75933      4554.7692      301.38524     -2073.2614      0.40101743     18421.214      0              0              0              0              0             -192.07119    
    412000   4980.2966      406.02238      4574.2742      299.36724     -2513.0642      0.40101743     18421.214      0              0              0              0              0             -187.5925     
    412250   4941.4563      433.42491      4508.0314      319.5716      -2034.1029      0.40101743     18421.214      0              0              0              0              0             -188.00501    
    412500   4934.9679      399.01544      4535.9525      294.2009      -3263.3312      0.40101743     18421.214      0              0              0              0              0             -188.92641    
    412750   4940.5858      406.27506      4534.3108      299.55354     -3508.2197      0.40101743     18421.214      0              0              0              0              0             -182.47713    
    413000   4927.7307      410.91332      4516.8174      302.97341     -1916.0489      0.40101743     18421.214      0              0              0              0              0             -181.79386    
    413250   4986.0093      452.86573      4533.1435      333.90564     -2429.2047      0.40101743     18421.214      0              0              0              0              0             -185.1501     
    413500   4954.2391      422.67422      4531.5648      311.64493     -2720.4254      0.40101743     18421.214      0              0              0              0              0             -180.05257    
    413750   4964.2169      427.37842      4536.8384      315.11341     -2352.7755      0.40101743     18421.214      0              0              0              0              0             -180.88923    
    414000   4960.7633      418.48026      4542.2831      308.55265     -3160.9319      0.40101743     18421.214      0              0              0              0              0             -192.08851    
    414250   4953.4608      407.76798      4545.6928      300.6543      -2132.4632      0.40101743     18421.214      0              0              0              0              0             -191.48821    
    414500   4919.7245      403.94391      4515.7806      297.83475     -1838.7271      0.40101743     18421.214      0              0              0              0              0             -191.66315    
    414750   4917.719       401.03274      4516.6863      295.6883      -2832.7625      0.40101743     18421.214      0              0              0              0              0             -188.26067    
    415000   4913.7743      389.90533      4523.869       287.48386     -2692.8457      0.40101743     18421.214      0              0              0              0              0             -184.93405    
    415250   4968.0682      421.7844       4546.2838      310.98885     -1123.6283      0.40101743     18421.214      0              0              0              0              0             -191.0263     
    415500   4967.4864      403.99216      4563.4943      297.87033     -1878.8697      0.40101743     18421.214      0              0              0              0              0             -188.59794    
    415750   4932.9049      412.29121      4520.6136      303.98936     -1904.8119      0.40101743     18421.214      0              0              0              0              0             -189.4002     
    416000   4968.9413      448.46288      4520.4784      330.65934     -4039.0636      0.40101743     18421.214      0              0              0              0              0             -192.78277    
    416250   4946.4707      409.70777      4536.7629      302.08455     -1695.6665      0.40101743     18421.214      0              0              0              0              0             -191.95043    
    416500   4926.0596      374.90461      4551.155       276.42357     -1887.9491      0.40101743     18421.214      0              0              0              0              0             -190.4445     
    416750   4948.256       408.11133      4540.1447      300.90746     -1649.6887      0.40101743     18421.214      0              0              0              0              0             -196.47572    
    417000   4949.0176      412.88815      4536.1295      304.42949     -2813.5777      0.40101743     18421.214      0              0              0              0              0             -194.81371    
    417250   4905.3298      406.81411      4498.5157      299.95099     -3313.6623      0.40101743     18421.214      0              0              0              0              0             -187.40947    
    417500   4964.4751      435.53386      4528.9413      321.12656     -3514.4581      0.40101743     18421.214      0              0              0              0              0             -182.7863     
    417750   4928.7697      414.9736       4513.7961      305.96713     -2756.8216      0.40101743     18421.214      0              0              0              0              0             -178.34778    
    418000   4919.7688      399.17121      4520.5976      294.31576     -4167.0296      0.40101743     18421.214      0              0              0              0              0             -179.55516    
    418250   4947.1959      421.68728      4525.5086      310.91724     -2989.8709      0.40101743     18421.214      0              0              0              0              0             -172.55745    
    418500   4973.738       424.81366      4548.9244      313.22237     -1528.3591      0.40101743     18421.214      0              0              0              0              0             -177.32348    
    418750   4979.4495      421.91274      4557.5368      311.08348     -859.41333      0.40101743     18421.214      0              0              0              0              0             -172.93859    
    419000   4974.1311      411.31054      4562.8206      303.26629     -3366.4076      0.40101743     18421.214      0              0              0              0              0             -171.46703    
    419250   4913.2108      414.71206      4498.4987      305.77429     -2452.8488      0.40101743     18421.214      0              0              0              0              0             -176.45926    
    419500   4942.098       420.85425      4521.2437      310.30303     -4041.2669      0.40101743     18421.214      0              0              0              0              0             -185.03505    
    419750   4909.6336      383.78678      4525.8468      282.97255     -2720.8722      0.40101743     18421.214      0              0              0              0              0             -178.29339    
    420000   4947.4055      407.08795      4540.3175      300.15291     -2510.4066      0.40101743     18421.214      0              0              0              0              0             -179.82594    
    420250   4975.0051      415.91781      4559.0872      306.66331     -1098.9058      0.40101743     18421.214      0              0              0              0              0             -178.39286    
    420500   4945.3494      379.77194      4565.5774      280.01235     -1935.659       0.40101743     18421.214      0              0              0              0              0             -179.64443    
    420750   4893.6151      393.61886      4499.9962      290.22191     -2585.2223      0.40101743     18421.214      0              0              0              0              0             -185.54948    
    421000   4895.4194      392.48357      4502.9358      289.38485     -3060.2052      0.40101743     18421.214      0              0              0              0              0             -186.71385    
    421250   4978.5614      421.32069      4557.2407      310.64695     -4131.9772      0.40101743     18421.214      0              0              0              0              0             -188.25053    
    421500   4961.186       412.63273      4548.5532      304.24117     -3248.2415      0.40101743     18421.214      0              0              0              0              0             -185.2161     
    421750   4945.3443      404.5464       4540.7979      298.27898     -2838.1882      0.40101743     18421.214      0              0              0              0              0             -190.76793    
    422000   4926.9986      412.48744      4514.5112      304.13404     -834.45724      0.40101743     18421.214      0              0              0              0              0             -193.29551    
    422250   4975.3553      428.22641      4547.1289      315.73865     -3642.2489      0.40101743     18421.214      0              0              0              0              0             -187.37948    
    422500   4985.3651      445.06444      4540.3007      328.15362     -2991.779       0.40101743     18421.214      0              0              0              0              0             -184.35326    
    422750   4942.5548      413.31915      4529.2356      304.74728     -2515.3804      0.40101743     18421.214      0              0              0              0              0             -178.43682    
    423000   4962.747       427.6453       4535.1017      315.31019     -1707.9639      0.40101743     18421.214      0              0              0              0              0             -162.27169    
    423250   4954.4473      391.90226      4562.545       288.95624     -1921.2326      0.40101743     18421.214      0              0              0              0              0             -154.35836    
    423500   4945.0672      408.67445      4536.3928      301.32265     -3825.4594      0.40101743     18421.214      0              0              0              0              0             -153.2905     
    423750   4934.1697      399.65173      4534.518       294.67005     -1581.8119      0.40101743     18421.214      0              0              0              0              0             -158.34362    
    424000   4961.7171      438.0952       4523.6219      323.01508     -2203.5689      0.40101743     18421.214      0              0              0              0              0             -170.72622    
    424250   4963.9889      400.26981      4563.7191      295.12577     -3649.9696      0.40101743     18421.214      0              0              0              0              0             -176.75067    
    424500   4932.7491      402.00993      4530.7392      296.40879     -2860.9106      0.40101743     18421.214      0              0              0              0              0             -173.46364    
    424750   4949.7944      421.93411      4527.8603      311.09923     -2561.7208      0.40101743     18421.214      0              0              0              0              0             -184.58343    
    425000   4979.2828      412.6298       4566.653       304.239       -3135.8989      0.40101743     18421.214      0              0              0              0              0             -176.83909    
    425250   4965.7196      418.11309      4547.6065      308.28193     -3475.389       0.40101743     18421.214      0              0              0              0              0             -185.19767    
    425500   4937.5016      396.10826      4541.3934      292.05739     -3448.1789      0.40101743     18421.214      0              0              0              0              0             -189.99375    
    425750   4927.4082      400.80732      4526.6009      295.52209     -2578.259       0.40101743     18421.214      0              0              0              0              0             -188.5539     
    426000   4946.7624      427.91128      4518.8511      315.5063      -2817.4916      0.40101743     18421.214      0              0              0              0              0             -186.63017    
    426250   4978.5022      420.97865      4557.5236      310.39476     -1767.304       0.40101743     18421.214      0              0              0              0              0             -173.12901    
    426500   4955.3945      416.04493      4539.3496      306.75704     -2043.5519      0.40101743     18421.214      0              0              0              0              0             -175.29033    
    426750   4946.4354      406.86452      4539.5709      299.98817     -2051.6308      0.40101743     18421.214      0              0              0              0              0             -169.67372    
    427000   4914.7166      370.67512      4544.0415      273.3051      -2603.9721      0.40101743     18421.214      0              0              0              0              0             -165.61872    
    427250   4975.1878      427.9297       4547.2581      315.51988     -2959.6668      0.40101743     18421.214      0              0              0              0              0             -170.42881    
    427500   4926.9326      406.09414      4520.8385      299.42015     -2575.5083      0.40101743     18421.214      0              0              0              0              0             -161.58202    
    427750   4980.7943      460.20642      4520.5879      339.31806     -2690.9076      0.40101743     18421.214      0              0              0              0              0             -166.65056    
    428000   4965.5448      441.71955      4523.8252      325.68737     -2520.6768      0.40101743     18421.214      0              0              0              0              0             -182.90432    
    428250   4929.4073      390.37905      4539.0283      287.83315     -1984.296       0.40101743     18421.214      0              0              0              0              0             -185.80897    
    428500   4959.9932      416.32697      4543.6662      306.96499     -2070.2814      0.40101743     18421.214      0              0              0              0              0             -186.01094    
    428750   4942.45        406.03001      4536.42        299.37287     -1864.7182      0.40101743     18421.214      0              0              0              0              0             -191.62447    
    429000   4934.5155      413.01556      4521.5         304.52343     -2334.9704      0.40101743     18421.214      0              0              0              0              0             -189.08496    
    429250   5002.9353      436.71571      4566.2196      321.99796     -3098.6818      0.40101743     18421.214      0              0              0              0              0             -188.23697    
    429500   4947.2651      414.82389      4532.4412      305.85675     -2378.7492      0.40101743     18421.214      0              0              0              0              0             -190.01464    
    429750   4932.6396      408.03129      4524.6083      300.84844     -1381.3786      0.40101743     18421.214      0              0              0              0              0             -190.70554    
    430000   4950.4553      404.97031      4545.485       298.59153     -2574.7009      0.40101743     18421.214      0              0              0              0              0             -188.44516    
    430250   4930.1009      411.0636       4519.0373      303.08422     -2434.5209      0.40101743     18421.214      0              0              0              0              0             -186.67602    
    430500   4914.2979      380.89645      4533.4015      280.84146     -2365.6039      0.40101743     18421.214      0              0              0              0              0             -188.58106    
    430750   4961.0917      409.0908       4552.0009      301.62964     -2209.2197      0.40101743     18421.214      0              0              0              0              0             -193.27328    
    431000   4918.9467      386.22272      4532.724       284.76861     -2173.4038      0.40101743     18421.214      0              0              0              0              0             -192.57257    
    431250   4951.8774      409.7301       4542.1473      302.10101     -2516.5876      0.40101743     18421.214      0              0              0              0              0             -177.21505    
    431500   4952.2532      420.60786      4531.6453      310.12136     -1561.5588      0.40101743     18421.214      0              0              0              0              0             -176.81642    
    431750   4977.0944      425.85468      4551.2398      313.98994     -3091.7729      0.40101743     18421.214      0              0              0              0              0             -176.85137    
    432000   4953.3012      416.06628      4537.2349      306.77278     -2620.5795      0.40101743     18421.214      0              0              0              0              0             -185.05114    
    432250   4941.5982      401.08721      4540.511       295.72845     -3204.3008      0.40101743     18421.214      0              0              0              0              0             -177.34148    
    432500   4930.4903      410.83376      4519.6565      302.91475     -2032.9286      0.40101743     18421.214      0              0              0              0              0             -180.15099    
    432750   4965.9894      423.15311      4542.8363      311.99802     -3772.0279      0.40101743     18421.214      0              0              0              0              0             -176.33398    
    433000   4913.9874      405.98534      4508.0021      299.33993     -2387.9729      0.40101743     18421.214      0              0              0              0              0             -180.16853    
    433250   4933.309       407.08277      4526.2263      300.14908     -4132.0614      0.40101743     18421.214      0              0              0              0              0             -178.01626    
    433500   4943.3638      410.97994      4532.3838      303.02254     -2872.3088      0.40101743     18421.214      0              0              0              0              0             -175.40259    
    433750   4988.6927      432.88333      4555.8093      319.17228     -2419.1889      0.40101743     18421.214      0              0              0              0              0             -177.37546    
    434000   4962.3935      420.6442       4541.7494      310.14815     -989.12198      0.40101743     18421.214      0              0              0              0              0             -182.57609    
    434250   4964.5256      411.86029      4552.6653      303.67163     -2983.3687      0.40101743     18421.214      0              0              0              0              0             -179.32749    
    434500   4980.3694      418.62614      4561.7433      308.66021     -2324.2129      0.40101743     18421.214      0              0              0              0              0             -174.25963    
    434750   4928.6966      406.86831      4521.8283      299.99096     -2458.9963      0.40101743     18421.214      0              0              0              0              0             -177.13247    
    435000   4962.7568      416.56906      4546.1878      307.14349     -3485.6368      0.40101743     18421.214      0              0              0              0              0             -183.00066    
    435250   4966.5452      432.83012      4533.7151      319.13304     -2517.6117      0.40101743     18421.214      0              0              0              0              0             -194.61611    
    435500   4922.004       396.77508      4525.2289      292.54905     -2123.5118      0.40101743     18421.214      0              0              0              0              0             -196.28684    
    435750   4955.1659      413.95824      4541.2077      305.21848     -2092.1548      0.40101743     18421.214      0              0              0              0              0             -196.85558    
    436000   4906.5132      407.03524      4499.478       300.11404     -802.13892      0.40101743     18421.214      0              0              0              0              0             -192.72607    
    436250   4952.8186      417.72785      4535.0907      307.99788     -3165.5598      0.40101743     18421.214      0              0              0              0              0             -185.70624    
    436500   4954.0008      416.97046      4537.0303      307.43945     -2860.008       0.40101743     18421.214      0              0              0              0              0             -178.72329    
    436750   4934.9453      411.67516      4523.2702      303.53513     -2694.5243      0.40101743     18421.214      0              0              0              0              0             -178.56778    
    437000   4968.9902      425.31509      4543.6751      313.59209     -1629.3018      0.40101743     18421.214      0              0              0              0              0             -182.17965    
    437250   4960.0602      423.02814      4537.0321      311.90588     -2005.1209      0.40101743     18421.214      0              0              0              0              0             -181.38017    
    437500   4931.8952      401.32404      4530.5712      295.90307     -2580.4969      0.40101743     18421.214      0              0              0              0              0             -179.84101    
    437750   4919.9885      397.09466      4522.8938      292.78468     -2753.9664      0.40101743     18421.214      0              0              0              0              0             -186.87358    
    438000   4936.5428      403.70297      4532.8398      297.6571      -4099.822       0.40101743     18421.214      0              0              0              0              0             -187.52919    
    438250   4952.9398      419.86253      4533.0773      309.57182     -2422.1512      0.40101743     18421.214      0              0              0              0              0             -178.46424    
    438500   4950.4078      427.4442       4522.9636      315.16192     -3764.7365      0.40101743     18421.214      0              0              0              0              0             -173.78599    
    438750   4935.1062      426.9673       4508.1389      314.81029     -2267.1557      0.40101743     18421.214      0              0              0              0              0             -185.02597    
    439000   4959.8794      417.79557      4542.0839      308.04781     -2686.8756      0.40101743     18421.214      0              0              0              0              0             -180.05635    
    439250   4961.4221      410.74925      4550.6728      302.85245     -2160.5562      0.40101743     18421.214      0              0              0              0              0             -176.04124    
    439500   4914.514       393.42577      4521.0883      290.07954     -1180.8135      0.40101743     18421.214      0              0              0              0              0             -164.95966    
    439750   4944.3368      414.09267      4530.2441      305.31761     -1862.6442      0.40101743     18421.214      0              0              0              0              0             -180.20505    
    440000   4967.8627      438.43121      4529.4315      323.26282     -2531.9951      0.40101743     18421.214      0              0              0              0              0             -170.52199    
    440250   4923.4827      386.52667      4536.9561      284.99272     -2476.4975      0.40101743     18421.214      0              0              0              0              0             -164.06366    
    440500   4932.752       407.43529      4525.3167      300.409       -3124.669       0.40101743     18421.214      0              0              0              0              0             -163.0607     
    440750   4971.065       433.51056      4537.5544      319.63475     -2823.1272      0.40101743     18421.214      0              0              0              0              0             -176.96098    
    441000   4948.1317      422.69998      4525.4317      311.66392     -2739.8268      0.40101743     18421.214      0              0              0              0              0             -179.36543    
    441250   4953.0582      418.52985      4534.5284      308.58921     -2995.591       0.40101743     18421.214      0              0              0              0              0             -188.56162    
    441500   4954.0784      417.70246      4536.3759      307.97917     -2073.0113      0.40101743     18421.214      0              0              0              0              0             -194.59614    
    441750   4948.3447      413.72804      4534.6167      305.04876     -2688.9879      0.40101743     18421.214      0              0              0              0              0             -195.30695    
    442000   4985.0693      446.59618      4538.4731      329.28299     -2100.8745      0.40101743     18421.214      0              0              0              0              0             -184.61637    
    442250   4986.1396      433.48107      4552.6586      319.613       -2129.4386      0.40101743     18421.214      0              0              0              0              0             -182.0744     
    442500   4946.8122      416.12876      4530.6835      306.81885     -2843.4313      0.40101743     18421.214      0              0              0              0              0             -183.87684    
    442750   4930.157       425.38323      4504.7738      313.64233     -1887.7313      0.40101743     18421.214      0              0              0              0              0             -178.87306    
    443000   4944.5253      425.60671      4518.9186      313.8071      -2132.5219      0.40101743     18421.214      0              0              0              0              0             -178.59777    
    443250   4943.6443      401.49388      4542.1504      296.0283      -3050.3294      0.40101743     18421.214      0              0              0              0              0             -189.15603    
    443500   4926.0046      396.68829      4529.3163      292.48506     -2107.8788      0.40101743     18421.214      0              0              0              0              0             -183.19785    
    443750   4974.8299      429.06737      4545.7625      316.35871     -2536.8927      0.40101743     18421.214      0              0              0              0              0             -185.65453    
    444000   4966.0371      408.85857      4557.1786      301.45842     -2904.86        0.40101743     18421.214      0              0              0              0              0             -181.99951    
    444250   4965.3498      401.22251      4564.1273      295.82822     -1995.9519      0.40101743     18421.214      0              0              0              0              0             -184.8724     
    444500   4955.6705      393.84545      4561.825       290.38898     -1979.3803      0.40101743     18421.214      0              0              0              0              0             -183.60029    
    444750   4952.8606      418.18049      4534.6802      308.33162     -2551.5003      0.40101743     18421.214      0              0              0              0              0             -182.1897     
    445000   4949.1962      416.33255      4532.8637      306.96911     -2901.541       0.40101743     18421.214      0              0              0              0              0             -176.14158    
    445250   4910.3146      390.05208      4520.2625      287.59207     -2779.6506      0.40101743     18421.214      0              0              0              0              0             -190.73338    
    445500   4924.5103      381.14767      4543.3626      281.02669     -2330.3671      0.40101743     18421.214      0              0              0              0              0             -190.73581    
    445750   4954.2001      412.91952      4541.2806      304.45262     -3888.2008      0.40101743     18421.214      0              0              0              0              0             -187.81108    
    446000   4969.1631      420.03951      4549.1236      309.70231     -3175.5423      0.40101743     18421.214      0              0              0              0              0             -183.32008    
    446250   4959.3748      428.71062      4530.6642      316.09567     -1819.2786      0.40101743     18421.214      0              0              0              0              0             -176.63254    
    446500   4955.4949      411.30964      4544.1853      303.26562     -1505.2834      0.40101743     18421.214      0              0              0              0              0             -181.59862    
    446750   4905.5824      377.28355      4528.2988      278.17761     -2653.0865      0.40101743     18421.214      0              0              0              0              0             -180.60681    
    447000   4939.5699      399.3751       4540.1948      294.46608     -3558.1514      0.40101743     18421.214      0              0              0              0              0             -175.98774    
    447250   4949.1966      415.30366      4533.8929      306.21049     -2108.4198      0.40101743     18421.214      0              0              0              0              0             -177.39441    
    447500   4958.9992      426.93095      4532.0683      314.78349     -2734.5179      0.40101743     18421.214      0              0              0              0              0             -184.11503    
    447750   4947.0266      396.5105       4550.5161      292.35397     -1861.9273      0.40101743     18421.214      0              0              0              0              0             -190.85127    
    448000   4924.935       404.50666      4520.4284      298.24967     -3335.6517      0.40101743     18421.214      0              0              0              0              0             -193.81707    
    448250   4914.4816      383.42985      4531.0518      282.70938     -3327.1585      0.40101743     18421.214      0              0              0              0              0             -191.6255     
    448500   4953.9356      433.10982      4520.8258      319.33927     -1140.5305      0.40101743     18421.214      0              0              0              0              0             -194.3379     
    448750   4944.2703      416.22942      4528.0409      306.89306     -1874.1367      0.40101743     18421.214      0              0              0              0              0             -198.10255    
    449000   4928.982       405.25828      4523.7238      298.80385     -2112.4958      0.40101743     18421.214      0              0              0              0              0             -196.24074    
    449250   4921.1126      393.2306       4527.882       289.93564     -2172.132       0.40101743     18421.214      0              0              0              0              0             -200.69312    
    449500   4934.0677      403.44826      4530.6195      297.4693      -2078.2914      0.40101743     18421.214      0              0              0              0              0             -197.91846    
    449750   4966.5255      418.44865      4548.0769      308.52935     -1918.4899      0.40101743     18421.214      0              0              0              0              0             -194.5688     
    450000   4951.0185      425.41587      4525.6027      313.66639     -2469.283       0.40101743     18421.214      0              0              0              0              0             -191.5049     
    450250   4935.9268      399.62386      4536.303       294.6495      -2715.157       0.40101743     18421.214      0              0              0              0              0             -190.7154     
    450500   4908.4799      383.30771      4525.1721      282.61933     -2372.6573      0.40101743     18421.214      0              0              0              0              0             -187.12576    
    450750   4974.7468      428.82826      4545.9186      316.18241     -1773.1811      0.40101743     18421.214      0              0              0              0              0             -181.4044     
    451000   4953.4297      415.81655      4537.6131      306.58865     -2973.1732      0.40101743     18421.214      0              0              0              0              0             -180.23387    
    451250   4922.0429      411.01438      4511.0286      303.04793     -2985.8611      0.40101743     18421.214      0              0              0              0              0             -183.10329    
    451500   4960.2703      430.13686      4530.1335      317.14726     -1718.556       0.40101743     18421.214      0              0              0              0              0             -188.28325    
    451750   4970.5171      414.65067      4555.8664      305.72903     -2971.8439      0.40101743     18421.214      0              0              0              0              0             -188.53298    
    452000   4954.7494      402.22755      4552.5219      296.56925     -1782.7495      0.40101743     18421.214      0              0              0              0              0             -183.7322     
    452250   4953.5434      427.1899       4526.3535      314.97441     -1513.7741      0.40101743     18421.214      0              0              0              0              0             -182.86516    
    452500   4947.933       415.45099      4532.482       306.31912     -4356.6955      0.40101743     18421.214      0              0              0              0              0             -185.70953    
    452750   4937.0161      411.34706      4525.6691      303.29322     -2073.7354      0.40101743     18421.214      0              0              0              0              0             -186.75075    
    453000   4939.4999      405.26458      4534.2353      298.8085      -2198.5857      0.40101743     18421.214      0              0              0              0              0             -189.89216    
    453250   4974.6431      433.91276      4540.7303      319.93129     -3653.9875      0.40101743     18421.214      0              0              0              0              0             -185.26482    
    453500   4935.3283      417.17257      4518.1557      307.58846     -3372.4001      0.40101743     18421.214      0              0              0              0              0             -195.37936    
    453750   4944.6916      408.01141      4536.6802      300.83379     -2105.991       0.40101743     18421.214      0              0              0              0              0             -191.32781    
    454000   4969.0907      415.73956      4553.3512      306.53188     -2214.5495      0.40101743     18421.214      0              0              0              0              0             -185.17265    
    454250   4990.4368      445.31664      4545.1201      328.33957     -2290.0099      0.40101743     18421.214      0              0              0              0              0             -194.0581     
    454500   4954.1255      407.26713      4546.8584      300.28501     -3176.3706      0.40101743     18421.214      0              0              0              0              0             -197.66071    
    454750   4951.9562      415.63164      4536.3245      306.45231     -3607.773       0.40101743     18421.214      0              0              0              0              0             -191.38649    
    455000   4947.7074      406.19006      4541.5173      299.49087     -1767.4084      0.40101743     18421.214      0              0              0              0              0             -186.64825    
    455250   4933.5148      411.13372      4522.3811      303.13592     -2641.5306      0.40101743     18421.214      0              0              0              0              0             -192.41622    
    455500   4907.1169      390.76612      4516.3508      288.11854     -1889.9806      0.40101743     18421.214      0              0              0              0              0             -182.19116    
    455750   4931.9062      414.77488      4517.1313      305.82061     -1966.5509      0.40101743     18421.214      0              0              0              0              0             -191.73806    
    456000   4915.8325      368.16086      4547.6716      271.45129     -2120.5032      0.40101743     18421.214      0              0              0              0              0             -184.16292    
    456250   4950.9607      397.34376      4553.6169      292.96834     -2596.6836      0.40101743     18421.214      0              0              0              0              0             -172.43533    
    456500   4949.7905      408.63969      4541.1508      301.29703     -4008.16        0.40101743     18421.214      0              0              0              0              0             -166.77339    
    456750   4927.8773      402.75089      4525.1264      296.95511     -3721.5358      0.40101743     18421.214      0              0              0              0              0             -188.7716     
    457000   4934.8392      405.12252      4529.7167      298.70376     -3338.9212      0.40101743     18421.214      0              0              0              0              0             -186.80343    
    457250   4913.435       397.80164      4515.6334      293.30595     -1987.8834      0.40101743     18421.214      0              0              0              0              0             -191.19793    
    457500   4962.0445      417.67691      4544.3676      307.96033     -2333.6514      0.40101743     18421.214      0              0              0              0              0             -195.27699    
    457750   4940.8098      389.59374      4551.2161      287.25413     -2701.3334      0.40101743     18421.214      0              0              0              0              0             -195.9363     
    458000   4938.6071      412.91279      4525.6943      304.44766     -1755.4038      0.40101743     18421.214      0              0              0              0              0             -180.23036    
    458250   4947.5844      398.8037       4548.7807      294.04479     -2492.003       0.40101743     18421.214      0              0              0              0              0             -187.26779    
    458500   4917.548       393.3289       4524.2191      290.00812     -1283.9649      0.40101743     18421.214      0              0              0              0              0             -185.96331    
    458750   4976.015       433.92543      4542.0896      319.94064     -1645.6131      0.40101743     18421.214      0              0              0              0              0             -186.81506    
    459000   4960.1189      407.72795      4552.3909      300.62478     -1998.6952      0.40101743     18421.214      0              0              0              0              0             -187.80018    
    459250   4944.856       409.62869      4535.2273      302.02624     -1795.2361      0.40101743     18421.214      0              0              0              0              0             -185.66772    
    459500   4935.1378      405.82732      4529.3105      299.22342     -3024.3645      0.40101743     18421.214      0              0              0              0              0             -184.16661    
    459750   4935.6277      374.47605      4561.1516      276.1076      -2476.7471      0.40101743     18421.214      0              0              0              0              0             -183.22575    
    460000   4991.1774      431.15102      4560.0264      317.89502     -3153.7033      0.40101743     18421.214      0              0              0              0              0             -176.44676    
    460250   4937.5689      401.90565      4535.6633      296.3319      -2748.0283      0.40101743     18421.214      0              0              0              0              0             -191.76436    
    460500   4931.9565      403.85435      4528.1021      297.76871     -1891.8127      0.40101743     18421.214      0              0              0              0              0             -192.62014    
    460750   4938.6703      396.22274      4542.4476      292.1418      -1624.1512      0.40101743     18421.214      0              0              0              0              0             -172.77348    
    461000   4945.749       395.06299      4550.686       291.2867      -2171.8216      0.40101743     18421.214      0              0              0              0              0             -162.67944    
    461250   4964.3367      416.33061      4548.006       306.96767     -2090.5943      0.40101743     18421.214      0              0              0              0              0             -158.53905    
    461500   4937.1469      400.2257       4536.9212      295.09325     -3046.2376      0.40101743     18421.214      0              0              0              0              0             -160.22599    
    461750   4918.8162      396.41605      4522.4002      292.28433     -1789.2832      0.40101743     18421.214      0              0              0              0              0             -159.54946    
    462000   4936.785       410.55938      4526.2256      302.71245     -2682.9006      0.40101743     18421.214      0              0              0              0              0             -173.52552    
    462250   4949.9108      403.66063      4546.2502      297.62588     -2413.5555      0.40101743     18421.214      0              0              0              0              0             -183.45331    
    462500   4938.2973      405.84228      4532.455       299.23445     -1271.2895      0.40101743     18421.214      0              0              0              0              0             -188.10546    
    462750   4962.1209      406.05581      4556.0651      299.39189     -2671.6791      0.40101743     18421.214      0              0              0              0              0             -177.76877    
    463000   4944.5493      410.1157       4534.4336      302.38531     -2582.1089      0.40101743     18421.214      0              0              0              0              0             -182.94392    
    463250   4944.2587      406.87771      4537.381       299.99789     -2332.2567      0.40101743     18421.214      0              0              0              0              0             -180.56665    
    463500   4944.0326      412.85506      4531.1776      304.40509     -3338.2907      0.40101743     18421.214      0              0              0              0              0             -177.44049    
    463750   4955.658       398.63277      4557.0253      293.91875     -3771.953       0.40101743     18421.214      0              0              0              0              0             -180.7005     
    464000   4951.2757      430.96182      4520.3138      317.75551     -2365.8823      0.40101743     18421.214      0              0              0              0              0             -189.62824    
    464250   4917.1797      405.74444      4511.4353      299.16231     -3058.4595      0.40101743     18421.214      0              0              0              0              0             -191.65275    
    464500   4887.6907      391.46762      4496.2231      288.63577     -1925.6203      0.40101743     18421.214      0              0              0              0              0             -191.65202    
    464750   4941.923       400.08522      4541.8378      294.98967     -2395.4618      0.40101743     18421.214      0              0              0              0              0             -193.99072    
    465000   4913.2904      395.44801      4517.8423      291.57058     -1674.0272      0.40101743     18421.214      0              0              0              0              0             -187.56476    
    465250   4923.4666      390.98624      4532.4803      288.28084     -1466.5422      0.40101743     18421.214      0              0              0              0              0             -183.97791    
    465500   4958.8075      404.73062      4554.0769      298.4148      -3935.1639      0.40101743     18421.214      0              0              0              0              0             -176.93996    
    465750   4913.6067      399.55626      4514.0504      294.59966     -615.06013      0.40101743     18421.214      0              0              0              0              0             -178.27425    
    466000   4925.545       408.04437      4517.5006      300.85809     -2540.7905      0.40101743     18421.214      0              0              0              0              0             -185.93843    
    466250   4937.1763      401.48956      4535.6868      296.02512     -2324.8173      0.40101743     18421.214      0              0              0              0              0             -188.33804    
    466500   4961.8361      427.54243      4534.2937      315.23434     -2627.9585      0.40101743     18421.214      0              0              0              0              0             -172.80948    
    466750   4947.7576      412.19078      4535.5668      303.91531     -762.03567      0.40101743     18421.214      0              0              0              0              0             -170.90344    
    467000   4923.4782      426.04985      4497.4284      314.13384     -2078.3134      0.40101743     18421.214      0              0              0              0              0             -167.50034    
    467250   4938.1288      416.91477      4521.214       307.39838     -2355.1704      0.40101743     18421.214      0              0              0              0              0             -177.16814    
    467500   4968.8447      436.05835      4532.7863      321.51327     -2789.6375      0.40101743     18421.214      0              0              0              0              0             -187.7291     
    467750   4941.0636      421.67594      4519.3876      310.90888     -2189.6995      0.40101743     18421.214      0              0              0              0              0             -173.54705    
    468000   4968.2064      412.17771      4556.0287      303.90567     -2593.1211      0.40101743     18421.214      0              0              0              0              0             -172.73665    
    468250   4961.1357      401.44372      4559.692       295.99132     -3064.0697      0.40101743     18421.214      0              0              0              0              0             -186.62939    
    468500   4927.2979      392.88729      4534.4106      289.68251     -2318.4003      0.40101743     18421.214      0              0              0              0              0             -190.50371    
    468750   4946.3423      397.81647      4548.5258      293.31688     -2702.5564      0.40101743     18421.214      0              0              0              0              0             -193.79602    
    469000   4906.5204      388.49995      4518.0204      286.44766     -2713.8236      0.40101743     18421.214      0              0              0              0              0             -173.84954    
    469250   4936.0957      412.63842      4523.4572      304.24536     -2330.8507      0.40101743     18421.214      0              0              0              0              0             -172.92944    
    469500   4965.0975      422.19214      4542.9054      311.28948     -2232.583       0.40101743     18421.214      0              0              0              0              0             -181.99888    
    469750   4918.0414      389.14048      4528.9009      286.91992     -3366.7073      0.40101743     18421.214      0              0              0              0              0             -170.35977    
    470000   4978.3846      408.79669      4569.588       301.41278     -2387.956       0.40101743     18421.214      0              0              0              0              0             -169.59814    
    470250   4943.8717      422.48209      4521.3896      311.50327     -2250.6         0.40101743     18421.214      0              0              0              0              0             -163.50776    
    470500   4948.2524      391.96152      4556.2909      288.99993     -2852.327       0.40101743     18421.214      0              0              0              0              0             -175.20996    
    470750   4963.1584      402.14234      4561.0161      296.50642     -2749.349       0.40101743     18421.214      0              0              0              0              0             -191.40239    
    471000   4932.5716      398.59474      4533.9768      293.89071     -2761.9366      0.40101743     18421.214      0              0              0              0              0             -191.3074     
    471250   4942.6043      407.57882      4535.0255      300.51483     -2430.0538      0.40101743     18421.214      0              0              0              0              0             -197.34762    
    471500   4935.6467      402.50367      4533.143       296.77284     -355.50847      0.40101743     18421.214      0              0              0              0              0             -193.71484    
    471750   4914.8258      393.14319      4521.6826      289.87119     -2450.2907      0.40101743     18421.214      0              0              0              0              0             -190.67351    
    472000   4944.7189      403.19637      4541.5225      297.28357     -2100.6495      0.40101743     18421.214      0              0              0              0              0             -184.74771    
    472250   4902.0105      385.98345      4516.0271      284.59219     -2457.6628      0.40101743     18421.214      0              0              0              0              0             -185.23456    
    472500   4927.2897      393.50678      4533.7829      290.13927     -3912.1841      0.40101743     18421.214      0              0              0              0              0             -185.71332    
    472750   4968.1991      414.09754      4554.1015      305.32119     -3094.2449      0.40101743     18421.214      0              0              0              0              0             -183.1993     
    473000   4929.9294      407.28552      4522.6439      300.29857     -2876.9792      0.40101743     18421.214      0              0              0              0              0             -194.02651    
    473250   4971.0254      424.1979       4546.8275      312.76836     -1268.9429      0.40101743     18421.214      0              0              0              0              0             -193.42929    
    473500   4930.8508      398.64007      4532.2108      293.92414     -1585.9758      0.40101743     18421.214      0              0              0              0              0             -182.85363    
    473750   4956.7339      416.26817      4540.4658      306.92164     -120.92685      0.40101743     18421.214      0              0              0              0              0             -179.40286    
    474000   4900.545       396.90273      4503.6423      292.64317     -2609.3828      0.40101743     18421.214      0              0              0              0              0             -192.45395    
    474250   4941.5132      420.80465      4520.7086      310.26646     -2630.6983      0.40101743     18421.214      0              0              0              0              0             -180.6905     
    474500   4959.5058      432.81991      4526.6859      319.12552     -2375.7485      0.40101743     18421.214      0              0              0              0              0             -184.03505    
    474750   4951.2775      408.95188      4542.3257      301.52721     -1354.5125      0.40101743     18421.214      0              0              0              0              0             -182.22916    
    475000   4909.9705      395.03936      4514.9312      291.26927     -3795.3444      0.40101743     18421.214      0              0              0              0              0             -189.03584    
    475250   4918.7528      393.53158      4525.2213      290.15756     -3222.3107      0.40101743     18421.214      0              0              0              0              0             -184.77835    
    475500   4934.6342      396.22336      4538.4109      292.14226     -2448.1731      0.40101743     18421.214      0              0              0              0              0             -188.09647    
    475750   4946.1457      406.25203      4539.8937      299.53657     -1193.9009      0.40101743     18421.214      0              0              0              0              0             -191.21684    
    476000   4958.3196      428.46956      4529.85        315.91793     -1097.0808      0.40101743     18421.214      0              0              0              0              0             -179.53622    
    476250   4934.1804      403.7003       4530.4801      297.65513     -2166.3449      0.40101743     18421.214      0              0              0              0              0             -179.30416    
    476500   4925.7957      383.15741      4542.6383      282.50851     -3202.324       0.40101743     18421.214      0              0              0              0              0             -181.90051    
    476750   4946.6931      402.41111      4544.282       296.70459     -2404.7922      0.40101743     18421.214      0              0              0              0              0             -184.38133    
    477000   4973.3847      414.58569      4558.799       305.68112     -3299.5885      0.40101743     18421.214      0              0              0              0              0             -182.46121    
    477250   4992.5414      432.5601       4559.9813      318.93396     -3087.8573      0.40101743     18421.214      0              0              0              0              0             -175.76953    
    477500   4946.4715      401.6244       4544.8471      296.12454     -3062.0875      0.40101743     18421.214      0              0              0              0              0             -181.68566    
    477750   4970.6787      415.02021      4555.6585      306.00149     -3539.0659      0.40101743     18421.214      0              0              0              0              0             -185.94549    
    478000   4927.6722      390.49701      4537.1752      287.92012     -3314.9671      0.40101743     18421.214      0              0              0              0              0             -186.81804    
    478250   4918.3354      382.84076      4535.4946      282.27504     -2321.254       0.40101743     18421.214      0              0              0              0              0             -183.54783    
    478500   4940.7539      419.01736      4521.7365      308.94866     -2357.115       0.40101743     18421.214      0              0              0              0              0             -183.83814    
    478750   4966.591       397.51198      4569.0791      293.09237     -2856.8023      0.40101743     18421.214      0              0              0              0              0             -193.00058    
    479000   4957.3933      405.48346      4551.9099      298.96988     -2687.7582      0.40101743     18421.214      0              0              0              0              0             -197.54323    
    479250   4975.4097      425.2333       4550.1764      313.53178     -2751.7033      0.40101743     18421.214      0              0              0              0              0             -195.8267     
    479500   4963.4338      416.52033      4546.9135      307.10756     -1661.7833      0.40101743     18421.214      0              0              0              0              0             -192.8431     
    479750   4954.526       418.70157      4535.8245      308.71583     -2619.0865      0.40101743     18421.214      0              0              0              0              0             -186.52081    
    480000   4953.0737      408.65619      4544.4175      301.30919     -3923.2962      0.40101743     18421.214      0              0              0              0              0             -187.56944    
    480250   4965.3752      405.25939      4560.1159      298.80467     -2495.8856      0.40101743     18421.214      0              0              0              0              0             -176.55317    
    480500   4969.679       427.4056       4542.2734      315.13345     -2118.8496      0.40101743     18421.214      0              0              0              0              0             -179.765      
    480750   4986.0038      435.67214      4550.3316      321.22851     -2413.3925      0.40101743     18421.214      0              0              0              0              0             -176.04303    
    481000   4936.1349      403.43861      4532.6963      297.46218     -845.28957      0.40101743     18421.214      0              0              0              0              0             -187.17036    
    481250   4906.4629      407.35174      4499.1111      300.3474      -1765.5536      0.40101743     18421.214      0              0              0              0              0             -184.94666    
    481500   4961.6356      422.30833      4539.3273      311.37515     -1692.7827      0.40101743     18421.214      0              0              0              0              0             -186.27093    
    481750   4975.7589      421.6151       4554.1438      310.86402     -2052.989       0.40101743     18421.214      0              0              0              0              0             -188.4826     
    482000   4925.2758      394.16724      4531.1086      290.62625     -2435.7772      0.40101743     18421.214      0              0              0              0              0             -190.38568    
    482250   4959.038       425.02935      4534.0087      313.3814      -1573.8965      0.40101743     18421.214      0              0              0              0              0             -187.51477    
    482500   4939.506       406.79966      4532.7063      299.94035     -2520.0572      0.40101743     18421.214      0              0              0              0              0             -189.54769    
    482750   4953.1948      419.3032       4533.8916      309.15941     -2527.4092      0.40101743     18421.214      0              0              0              0              0             -186.1655     
    483000   4977.9971      412.19741      4565.7996      303.92019     -4224.2989      0.40101743     18421.214      0              0              0              0              0             -182.35564    
    483250   4956.674       445.51059      4511.1634      328.48257     -3851.227       0.40101743     18421.214      0              0              0              0              0             -172.98876    
    483500   4923.1476      394.83988      4528.3077      291.12219     -2883.4745      0.40101743     18421.214      0              0              0              0              0             -168.76825    
    483750   4926.2428      399.63622      4526.6065      294.65861     -1778.107       0.40101743     18421.214      0              0              0              0              0             -170.56515    
    484000   4932.4077      409.31246      4523.0953      301.79307     -2974.4552      0.40101743     18421.214      0              0              0              0              0             -158.31423    
    484250   4952.749       401.67225      4551.0768      296.15981     -3123.5409      0.40101743     18421.214      0              0              0              0              0             -149.81891    
    484500   4933.688       397.04888      4536.6391      292.75093     -1707.895       0.40101743     18421.214      0              0              0              0              0             -152.74923    
    484750   4937.2444      409.99583      4527.2486      302.29693     -2014.7759      0.40101743     18421.214      0              0              0              0              0             -150.10831    
    485000   4980.9665      411.43931      4569.5272      303.36123     -2208.9747      0.40101743     18421.214      0              0              0              0              0             -152.54013    
    485250   4943.9575      410.53107      4533.4264      302.69157     -1890.4712      0.40101743     18421.214      0              0              0              0              0             -172.6132     
    485500   4953.3842      430.82381      4522.5604      317.65376     -2758.8488      0.40101743     18421.214      0              0              0              0              0             -180.18046    
    485750   4933.423       394.47894      4538.9441      290.85607     -1576.9694      0.40101743     18421.214      0              0              0              0              0             -183.71599    
    486000   4959.7059      403.74075      4555.9652      297.68495     -2906.5264      0.40101743     18421.214      0              0              0              0              0             -187.95834    
    486250   4928.4141      387.10784      4541.3062      285.42123     -2388.1773      0.40101743     18421.214      0              0              0              0              0             -191.72477    
    486500   4946.6072      401.37647      4545.2308      295.94173     -2933.8247      0.40101743     18421.214      0              0              0              0              0             -187.47745    
    486750   4920.3528      401.85995      4518.4928      296.29821     -2046.5238      0.40101743     18421.214      0              0              0              0              0             -172.31956    
    487000   4941.7743      410.95834      4530.8159      303.00661     -2030.7402      0.40101743     18421.214      0              0              0              0              0             -154.8639     
    487250   4949.8629      391.04332      4558.8196      288.32293     -3575.6027      0.40101743     18421.214      0              0              0              0              0             -162.28808    
    487500   4929.13        392.73092      4536.3991      289.56722     -2588.5803      0.40101743     18421.214      0              0              0              0              0             -164.96788    
    487750   4914.038       401.98158      4512.0564      296.38789     -3057.3861      0.40101743     18421.214      0              0              0              0              0             -166.28158    
    488000   4955.8044      416.73106      4539.0733      307.26293     -2298.6887      0.40101743     18421.214      0              0              0              0              0             -169.23876    
    488250   4953.7593      405.09577      4548.6635      298.68404     -3284.897       0.40101743     18421.214      0              0              0              0              0             -157.85562    
    488500   4939.1179      419.25358      4519.8643      309.12283     -2066.5362      0.40101743     18421.214      0              0              0              0              0             -167.7539     
    488750   4935.1904      418.8903       4516.3001      308.85498     -2964.8884      0.40101743     18421.214      0              0              0              0              0             -168.07278    
    489000   4944.8178      421.01517      4523.8027      310.42168     -2521.883       0.40101743     18421.214      0              0              0              0              0             -175.63356    
    489250   4939.0814      403.23422      4535.8471      297.31149     -2375.9763      0.40101743     18421.214      0              0              0              0              0             -177.12397    
    489500   4944.4005      405.32795      4539.0726      298.85522     -2606.3314      0.40101743     18421.214      0              0              0              0              0             -180.05367    
    489750   4953.2568      397.87095      4555.3859      293.35705     -1981.2618      0.40101743     18421.214      0              0              0              0              0             -177.47772    
    490000   4930.7312      405.46736      4525.2639      298.95802     -3068.9292      0.40101743     18421.214      0              0              0              0              0             -172.05809    
    490250   4891.4604      388.28722      4503.1732      286.2908      -2604.0951      0.40101743     18421.214      0              0              0              0              0             -170.97579    
    490500   4910.0322      384.96556      4525.0666      283.84168     -3195.3462      0.40101743     18421.214      0              0              0              0              0             -176.3328     
    490750   4953.8839      425.04434      4528.8396      313.39246     -2795.7888      0.40101743     18421.214      0              0              0              0              0             -183.5406     
    491000   4972.0189      442.99526      4529.0236      326.62797     -3151.6481      0.40101743     18421.214      0              0              0              0              0             -189.43527    
    491250   4922.197       387.96862      4534.2284      286.05589     -2327.8295      0.40101743     18421.214      0              0              0              0              0             -192.80425    
    491500   4958.9515      426.97116      4531.9803      314.81313     -3716.9166      0.40101743     18421.214      0              0              0              0              0             -182.24259    
    491750   4982.8041      423.44741      4559.3567      312.21501     -2200.6378      0.40101743     18421.214      0              0              0              0              0             -172.74106    
    492000   4923.6949      396.29748      4527.3974      292.19691     -2027.3692      0.40101743     18421.214      0              0              0              0              0             -173.08574    
    492250   4945.9226      409.65789      4536.2647      302.04777     -2796.756       0.40101743     18421.214      0              0              0              0              0             -156.33711    
    492500   4946.4166      403.29262      4543.124       297.35454     -2804.4804      0.40101743     18421.214      0              0              0              0              0             -148.54258    
    492750   4945.2273      392.72962      4552.4976      289.56626     -2291.4444      0.40101743     18421.214      0              0              0              0              0             -155.05983    
    493000   4966.7261      417.2123       4549.5138      307.61776     -3114.8523      0.40101743     18421.214      0              0              0              0              0             -171.26677    
    493250   4960.864       436.91951      4523.9445      322.14822     -3242.2154      0.40101743     18421.214      0              0              0              0              0             -168.07       
    493500   4963.5364      407.2549       4556.2815      300.276       -3696.484       0.40101743     18421.214      0              0              0              0              0             -165.72137    
    493750   4946.4016      414.36971      4532.0318      305.52187     -1856.2383      0.40101743     18421.214      0              0              0              0              0             -183.96117    
    494000   4972.3877      424.94894      4547.4387      313.32212     -2588.8362      0.40101743     18421.214      0              0              0              0              0             -185.03388    
    494250   4907.4215      390.3988       4517.0227      287.84771     -3080.6317      0.40101743     18421.214      0              0              0              0              0             -180.17632    
    494500   4920.5959      408.71972      4511.8761      301.35604     -1872.7196      0.40101743     18421.214      0              0              0              0              0             -170.58565    
    494750   4981.7213      435.17641      4546.5449      320.86301     -3649.3021      0.40101743     18421.214      0              0              0              0              0             -179.83442    
    495000   4940.7004      397.76522      4542.9352      293.27909     -2686.6986      0.40101743     18421.214      0              0              0              0              0             -177.88493    
    495250   4953.6148      418.55766      4535.0571      308.60972     -2166.9382      0.40101743     18421.214      0              0              0              0              0             -174.72773    
    495500   4954.4283      412.82615      4541.6022      304.38377     -2474.4856      0.40101743     18421.214      0              0              0              0              0             -177.99719    
    495750   4949.2627      405.63864      4543.624       299.0843      -3184.8904      0.40101743     18421.214      0              0              0              0              0             -188.85864    
    496000   4984.3599      423.93257      4560.4273      312.57273     -2971.9399      0.40101743     18421.214      0              0              0              0              0             -188.60764    
    496250   4925.6344      396.99797      4528.6364      292.71339     -3769.5569      0.40101743     18421.214      0              0              0              0              0             -181.57278    
    496500   4922.55        385.12143      4537.4286      283.95661     -2908.4566      0.40101743     18421.214      0              0              0              0              0             -179.91475    
    496750   4925.9139      407.64352      4518.2703      300.56254     -2508.5398      0.40101743     18421.214      0              0              0              0              0             -178.19537    
    497000   4929.7461      415.78601      4513.9601      306.56613     -1867.8963      0.40101743     18421.214      0              0              0              0              0             -172.43       
    497250   4944.9362      408.20516      4536.731       300.97664     -2812.8297      0.40101743     18421.214      0              0              0              0              0             -171.34785    
    497500   4916.4262      389.47749      4526.9487      287.16841     -2110.7642      0.40101743     18421.214      0              0              0              0              0             -166.00261    
    497750   4978.9904      430.11105      4548.8793      317.12823     -2787.8431      0.40101743     18421.214      0              0              0              0              0             -168.52582    
    498000   4928.2715      389.08997      4539.1815      286.88269     -2920.4623      0.40101743     18421.214      0              0              0              0              0             -161.65737    
    498250   4971.347       421.82086      4549.5262      311.01573     -3049.2043      0.40101743     18421.214      0              0              0              0              0             -148.22501    
    498500   4975.691       453.28588      4522.4052      334.21543     -2109.11        0.40101743     18421.214      0              0              0              0              0             -180.20496    
    498750   5012.0279      440.84006      4571.1879      325.03891     -1989.4796      0.40101743     18421.214      0              0              0              0              0             -174.54097    
    499000   4942.3232      422.62785      4519.6954      311.61074     -2114.519       0.40101743     18421.214      0              0              0              0              0             -188.13534    
    499250   4950.1992      418.47427      4531.7249      308.54823     -1715.8509      0.40101743     18421.214      0              0              0              0              0             -196.10283    
    499500   4949.3657      427.69718      4521.6686      315.34844     -2210.1891      0.40101743     18421.214      0              0              0              0              0             -193.44254    
    499750   4974.0666      418.80802      4555.2586      308.79431     -4038.5428      0.40101743     18421.214      0              0              0              0              0             -185.46945    
    500000   4945.7563      411.56682      4534.1895      303.45525     -1286.3464      0.40101743     18421.214      0              0              0              0              0             -183.57245    
    500250   4913.3257      401.69086      4511.6348      296.17354     -2113.4707      0.40101743     18421.214      0              0              0              0              0             -185.67991    
    500500   4920.9293      387.54574      4533.3836      285.7441      -2689.2479      0.40101743     18421.214      0              0              0              0              0             -186.56304    
    500750   4952.4236      395.90445      4556.5192      291.90712     -2861.6355      0.40101743     18421.214      0              0              0              0              0             -188.91784    
    501000   4934.8629      396.34246      4538.5204      292.23007     -2780.4266      0.40101743     18421.214      0              0              0              0              0             -189.25097    
    501250   4948.6979      395.03326      4553.6647      291.26478     -2147.9121      0.40101743     18421.214      0              0              0              0              0             -188.7738     
    501500   4946.7824      415.59459      4531.1878      306.42499     -3755.8765      0.40101743     18421.214      0              0              0              0              0             -182.50722    
    501750   4917.6745      382.18672      4535.4878      281.7928      -2410.9099      0.40101743     18421.214      0              0              0              0              0             -179.01741    
    502000   4980.875       440.20243      4540.6726      324.56877     -2337.5701      0.40101743     18421.214      0              0              0              0              0             -178.50862    
    502250   4922.7869      409.60905      4513.1779      302.01175     -2731.8426      0.40101743     18421.214      0              0              0              0              0             -174.25878    
    502500   4964.0539      431.7449       4532.309       318.3329      -2729.3835      0.40101743     18421.214      0              0              0              0              0             -176.14974    
    502750   4942.4912      403.7589       4538.7323      297.69834     -2303.4211      0.40101743     18421.214      0              0              0              0              0             -176.02164    
    503000   4940.0671      418.11878      4521.9483      308.28612     -3104.3687      0.40101743     18421.214      0              0              0              0              0             -181.29406    
    503250   4989.883       407.79495      4582.088       300.67419     -2638.1959      0.40101743     18421.214      0              0              0              0              0             -183.22174    
    503500   4940.941       402.0892       4538.8518      296.46724     -2483.6045      0.40101743     18421.214      0              0              0              0              0             -177.65789    
    503750   4941.2135      420.9363       4520.2772      310.36353     -2497.6676      0.40101743     18421.214      0              0              0              0              0             -169.46739    
    504000   4920.9328      393.89281      4527.04        290.4239      -3257.7291      0.40101743     18421.214      0              0              0              0              0             -172.51492    
    504250   4932.9854      422.90241      4510.083       311.81318     -1523.3721      0.40101743     18421.214      0              0              0              0              0             -182.4508     
    504500   4971.5027      429.10074      4542.4019      316.38331     -3155.9414      0.40101743     18421.214      0              0              0              0              0             -193.85023    
    504750   4994.4151      441.06129      4553.3538      325.20203     -3060.6812      0.40101743     18421.214      0              0              0              0              0             -196.43936    
    505000   4929.0156      385.02512      4543.9905      283.8856      -3038.9457      0.40101743     18421.214      0              0              0              0              0             -200.95032    
    505250   4918.2436      397.45332      4520.7903      293.04913     -2514.3161      0.40101743     18421.214      0              0              0              0              0             -199.41788    
    505500   4959.6205      431.86525      4527.7552      318.42163     -3210.4832      0.40101743     18421.214      0              0              0              0              0             -196.49637    
    505750   4985.4649      426.25009      4559.2148      314.28148     -1385.6925      0.40101743     18421.214      0              0              0              0              0             -196.15031    
    506000   4967.5625      411.04549      4556.5171      303.07087     -2560.1477      0.40101743     18421.214      0              0              0              0              0             -198.29811    
    506250   4961.4788      414.89038      4546.5884      305.90577     -2335.5618      0.40101743     18421.214      0              0              0              0              0             -190.79582    
    506500   4955.2816      416.92304      4538.3585      307.40449     -3458.7491      0.40101743     18421.214      0              0              0              0              0             -189.99359    
    506750   4972.0215      451.68452      4520.337       333.03471     -2861.2169      0.40101743     18421.214      0              0              0              0              0             -192.72855    
    507000   4968.5993      427.68162      4540.9177      315.33697     -2969.4025      0.40101743     18421.214      0              0              0              0              0             -183.18442    
    507250   4938.6092      392.70396      4545.9052      289.54734     -2228.7482      0.40101743     18421.214      0              0              0              0              0             -181.80433    
    507500   4955.2809      422.98466      4532.2962      311.87382     -3052.9052      0.40101743     18421.214      0              0              0              0              0             -188.77817    
    507750   4958.2542      418.03176      4540.2224      308.22196     -1907.1334      0.40101743     18421.214      0              0              0              0              0             -188.72964    
    508000   4932.361       414.12998      4518.231       305.34511     -3341.9544      0.40101743     18421.214      0              0              0              0              0             -191.08157    
    508250   4939.7717      400.6381       4539.1336      295.39732     -2605.0725      0.40101743     18421.214      0              0              0              0              0             -189.23873    
    508500   4930.2795      405.07053      4525.209       298.66543     -3119.1077      0.40101743     18421.214      0              0              0              0              0             -190.8822     
    508750   4988.1538      446.6459       4541.5079      329.31965     -3176.7608      0.40101743     18421.214      0              0              0              0              0             -179.37455    
    509000   4920.2481      387.80816      4532.44        285.93759     -2701.2313      0.40101743     18421.214      0              0              0              0              0             -167.51457    
    509250   4933.4557      413.54606      4519.9096      304.91458     -1947.0408      0.40101743     18421.214      0              0              0              0              0             -172.48344    
    509500   4935.5697      398.58141      4536.9882      293.88089     -2016.679       0.40101743     18421.214      0              0              0              0              0             -168.30288    
    509750   4959.1907      397.85125      4561.3394      293.34252     -2496.0985      0.40101743     18421.214      0              0              0              0              0             -178.02125    
    510000   4944.463       411.49135      4532.9717      303.3996      -2541.9403      0.40101743     18421.214      0              0              0              0              0             -185.71528    
    510250   4933.7172      417.62323      4516.094       307.92074     -3191.8092      0.40101743     18421.214      0              0              0              0              0             -182.93681    
    510500   4916.0469      384.93325      4531.1136      283.81787     -2932.8321      0.40101743     18421.214      0              0              0              0              0             -189.89176    
    510750   4961.4038      429.70123      4531.7026      316.82606     -1282.5865      0.40101743     18421.214      0              0              0              0              0             -180.85061    
    511000   4929.5111      395.3322       4534.1789      291.48519     -3914.034       0.40101743     18421.214      0              0              0              0              0             -180.40962    
    511250   4910.7932      393.377        4517.4162      290.04359     -2915.8394      0.40101743     18421.214      0              0              0              0              0             -188.15949    
    511500   4961.4035      414.90598      4546.4975      305.91727     -1575.6535      0.40101743     18421.214      0              0              0              0              0             -183.1739     
    511750   4940.2876      412.16687      4528.1208      303.89768     -2375.0538      0.40101743     18421.214      0              0              0              0              0             -185.03508    
    512000   4958.4309      405.99473      4552.4362      299.34685     -2577.0304      0.40101743     18421.214      0              0              0              0              0             -175.00082    
    512250   4957.3272      424.9118       4532.4154      313.29473     -2542.4316      0.40101743     18421.214      0              0              0              0              0             -175.03228    
    512500   4926.7464      402.7203       4524.0261      296.93256     -2496.6134      0.40101743     18421.214      0              0              0              0              0             -170.01066    
    512750   4971.2539      417.97175      4553.2822      308.17771     -3109.2343      0.40101743     18421.214      0              0              0              0              0             -181.38027    
    513000   4940.1994      395.5732       4544.6262      291.66288     -1993.0295      0.40101743     18421.214      0              0              0              0              0             -181.9691     
    513250   4934.4423      402.99258      4531.4497      297.13332     -2757.235       0.40101743     18421.214      0              0              0              0              0             -186.55639    
    513500   4949.3432      411.18344      4538.1597      303.17258     -1868.7948      0.40101743     18421.214      0              0              0              0              0             -189.47819    
    513750   4943.8928      419.85651      4524.0363      309.56738     -2952.4146      0.40101743     18421.214      0              0              0              0              0             -183.29583    
    514000   4913.7176      405.01464      4508.703       298.62422     -3701.562       0.40101743     18421.214      0              0              0              0              0             -178.45332    
    514250   4905.4861      382.86922      4522.6169      282.29602     -2450.9229      0.40101743     18421.214      0              0              0              0              0             -180.37277    
    514500   4928.1847      401.22001      4526.9647      295.82637     -2045.8462      0.40101743     18421.214      0              0              0              0              0             -182.26519    
    514750   4921.4985      396.33769      4525.1608      292.22655     -1878.3338      0.40101743     18421.214      0              0              0              0              0             -181.11664    
    515000   4908.5805      378.86267      4529.7179      279.34192     -3466.6864      0.40101743     18421.214      0              0              0              0              0             -179.9102     
    515250   4940.6007      404.46469      4536.136       298.21873     -2934.658       0.40101743     18421.214      0              0              0              0              0             -186.18925    
    515500   4944.1547      414.85851      4529.2962      305.88227     -2371.606       0.40101743     18421.214      0              0              0              0              0             -186.41915    
    515750   4924.2706      387.25162      4537.019       285.52724     -2169.2047      0.40101743     18421.214      0              0              0              0              0             -191.43799    
    516000   4957.2274      414.98567      4542.2417      305.97603     -2603.3209      0.40101743     18421.214      0              0              0              0              0             -187.33878    
    516250   4954.7797      413.78179      4540.9979      305.08839     -4024.4156      0.40101743     18421.214      0              0              0              0              0             -190.23768    
    516500   4966.4268      417.85259      4548.5742      308.08986     -2658.9318      0.40101743     18421.214      0              0              0              0              0             -187.70065    
    516750   4985.2709      413.49507      4571.7758      304.87698     -3698.5167      0.40101743     18421.214      0              0              0              0              0             -180.50704    
    517000   4942.069       392.04708      4550.0219      289.06301     -1955.865       0.40101743     18421.214      0              0              0              0              0             -178.23798    
    517250   4959.6096      400.07744      4559.5321      294.98394     -2423.9156      0.40101743     18421.214      0              0              0              0              0             -182.11688    
    517500   4939.1382      438.12769      4501.0105      323.03904     -2366.4103      0.40101743     18421.214      0              0              0              0              0             -181.27112    
    517750   4924.3128      399.09331      4525.2195      294.25832     -2130.5258      0.40101743     18421.214      0              0              0              0              0             -174.95126    
    518000   4941.2648      415.06565      4526.1992      306.035       -1255.285       0.40101743     18421.214      0              0              0              0              0             -183.51043    
    518250   4966.5254      426.33114      4540.1942      314.34123     -1889.159       0.40101743     18421.214      0              0              0              0              0             -182.12063    
    518500   4928.4831      419.37008      4509.113       309.20873     -2431.8535      0.40101743     18421.214      0              0              0              0              0             -168.52906    
    518750   4946.9472      416.98427      4529.9629      307.44963     -2916.2559      0.40101743     18421.214      0              0              0              0              0             -163.67883    
    519000   4968.9168      413.50205      4555.4147      304.88213     -3206.4676      0.40101743     18421.214      0              0              0              0              0             -165.13311    
    519250   4957.3567      428.09837      4529.2583      315.64425     -1437.0632      0.40101743     18421.214      0              0              0              0              0             -176.58577    
    519500   4949.3685      406.91812      4542.4503      300.02769     -2111.2514      0.40101743     18421.214      0              0              0              0              0             -181.88676    
    519750   4941.447       396.45764      4544.9894      292.31499     -2581.032       0.40101743     18421.214      0              0              0              0              0             -182.48947    
    520000   4934.2868      395.86551      4538.4212      291.87841     -2193.1179      0.40101743     18421.214      0              0              0              0              0             -182.64957    
    520250   4940.7534      414.56038      4526.193       305.66245     -2793.546       0.40101743     18421.214      0              0              0              0              0             -178.52413    
    520500   4954.7442      408.588        4546.1562      301.25891     -1582.8294      0.40101743     18421.214      0              0              0              0              0             -185.49945    
    520750   4964.3918      426.71599      4537.6758      314.62499     -2332.6693      0.40101743     18421.214      0              0              0              0              0             -176.62925    
    521000   4970.1013      428.25929      4541.842       315.76289     -1962.6664      0.40101743     18421.214      0              0              0              0              0             -177.08203    
    521250   4940.3189      401.29412      4539.0248      295.88102     -3112.4628      0.40101743     18421.214      0              0              0              0              0             -172.78545    
    521500   4956.6882      411.07168      4545.6166      303.09018     -2895.9203      0.40101743     18421.214      0              0              0              0              0             -187.48972    
    521750   4974.1153      424.47512      4549.6401      312.97276     -3084.9633      0.40101743     18421.214      0              0              0              0              0             -191.14367    
    522000   4947.3257      398.68898      4548.6367      293.9602      -2713.6891      0.40101743     18421.214      0              0              0              0              0             -182.69331    
    522250   4925.1954      386.65855      4538.5369      285.08995     -1200.9326      0.40101743     18421.214      0              0              0              0              0             -174.44526    
    522500   4935.6987      394.40082      4541.2979      290.79847     -2393.095       0.40101743     18421.214      0              0              0              0              0             -175.52005    
    522750   4960.179       431.47126      4528.7078      318.13113     -3052.269       0.40101743     18421.214      0              0              0              0              0             -183.12226    
    523000   4952.8113      403.86858      4548.9427      297.7792      -2356.746       0.40101743     18421.214      0              0              0              0              0             -181.71925    
    523250   4936.8852      413.5719       4523.3133      304.93363     -1969.1331      0.40101743     18421.214      0              0              0              0              0             -171.19364    
    523500   4931.1986      392.15552      4539.0431      289.14296     -2496.3327      0.40101743     18421.214      0              0              0              0              0             -173.88643    
    523750   4924.0718      409.3513       4514.7205      301.82171     -2284.0808      0.40101743     18421.214      0              0              0              0              0             -167.62541    
    524000   4950.2309      415.04533      4535.1856      306.02001     -3614.4246      0.40101743     18421.214      0              0              0              0              0             -163.26624    
    524250   4938.8525      397.86782      4540.9846      293.35474     -1486.1346      0.40101743     18421.214      0              0              0              0              0             -168.36836    
    524500   4957.2765      419.83116      4537.4453      309.54869     -1818.2293      0.40101743     18421.214      0              0              0              0              0             -166.3827     
    524750   4953.3181      411.7954       4541.5227      303.62379     -2680.77        0.40101743     18421.214      0              0              0              0              0             -169.83441    
    525000   4973.9018      432.00005      4541.9018      318.52102     -2676.2201      0.40101743     18421.214      0              0              0              0              0             -170.39455    
    525250   4892.6779      399.29162      4493.3862      294.40453     -2391.0011      0.40101743     18421.214      0              0              0              0              0             -172.00844    
    525500   4941.8743      430.95206      4510.9223      317.74832     -1396.3314      0.40101743     18421.214      0              0              0              0              0             -155.44231    
    525750   4911.4171      398.81771      4512.5994      294.05511     -2342.1704      0.40101743     18421.214      0              0              0              0              0             -168.40285    
    526000   4988.9145      429.41038      4559.5041      316.61161     -2691.6688      0.40101743     18421.214      0              0              0              0              0             -179.94816    
    526250   4926.9002      389.97355      4536.9266      287.53416     -2705.1671      0.40101743     18421.214      0              0              0              0              0             -171.02696    
    526500   4948.0819      411.83449      4536.2474      303.65261     -2044.9645      0.40101743     18421.214      0              0              0              0              0             -167.07489    
    526750   4953.1408      411.242        4541.8988      303.21575     -3060.7055      0.40101743     18421.214      0              0              0              0              0             -174.61475    
    527000   4931.9306      396.75313      4535.1775      292.53286     -3273.9293      0.40101743     18421.214      0              0              0              0              0             -168.71567    
    527250   4954.4362      404.09061      4550.3456      297.94292     -2685.2486      0.40101743     18421.214      0              0              0              0              0             -174.10335    
    527500   4958.7759      434.81476      4523.9611      320.59636     -3146.4753      0.40101743     18421.214      0              0              0              0              0             -180.31905    
    527750   4965.9737      419.80287      4546.1709      309.52783     -1124.336       0.40101743     18421.214      0              0              0              0              0             -183.69372    
    528000   4959.0513      425.93212      4533.1192      314.04703     -1279.3683      0.40101743     18421.214      0              0              0              0              0             -181.21813    
    528250   4906.9743      389.05906      4517.9152      286.8599      -1616.5193      0.40101743     18421.214      0              0              0              0              0             -183.72964    
    528500   4963.2213      425.74324      4537.4781      313.90777     -3157.703       0.40101743     18421.214      0              0              0              0              0             -192.34061    
    528750   4941.0787      411.10501      4529.9737      303.11475     -3008.144       0.40101743     18421.214      0              0              0              0              0             -190.04701    
    529000   4965.9868      399.15559      4566.8312      294.30424     -2146.5294      0.40101743     18421.214      0              0              0              0              0             -182.69547    
    529250   4946.3239      412.45021      4533.8737      304.10659     -2370.0664      0.40101743     18421.214      0              0              0              0              0             -168.84478    
    529500   4975.9704      435.38362      4540.5868      321.01579     -2611.8616      0.40101743     18421.214      0              0              0              0              0             -184.7042     
    529750   4966.3122      421.51109      4544.8011      310.78733     -2966.4632      0.40101743     18421.214      0              0              0              0              0             -184.50161    
    530000   4964.8864      423.59206      4541.2943      312.32167     -4226.0667      0.40101743     18421.214      0              0              0              0              0             -185.71012    
    530250   4929.1054      390.96125      4538.1442      288.26241     -2666.3726      0.40101743     18421.214      0              0              0              0              0             -189.82252    
    530500   4925.7157      402.81506      4522.9006      297.00243     -2519.3248      0.40101743     18421.214      0              0              0              0              0             -191.94609    
    530750   4967.4349      407.519        4559.9159      300.47072     -2723.4114      0.40101743     18421.214      0              0              0              0              0             -183.77616    
    531000   4985.104       432.8372       4552.2668      319.13827     -1726.2         0.40101743     18421.214      0              0              0              0              0             -189.98557    
    531250   4971.8577      410.72116      4561.1365      302.83173     -343.43102      0.40101743     18421.214      0              0              0              0              0             -192.69162    
    531500   4916.8332      366.89428      4549.9389      270.51742     -2786.2394      0.40101743     18421.214      0              0              0              0              0             -184.57126    
    531750   4942.382       409.29763      4533.0844      301.78214     -1850.7703      0.40101743     18421.214      0              0              0              0              0             -176.07447    
    532000   4963.2108      426.50306      4536.7077      314.46799     -3017.9211      0.40101743     18421.214      0              0              0              0              0             -181.68119    
    532250   4927.238       390.85923      4536.3788      288.18719     -2121.7529      0.40101743     18421.214      0              0              0              0              0             -186.91435    
    532500   4965.0973      411.72685      4553.3704      303.57325     -3365.6711      0.40101743     18421.214      0              0              0              0              0             -186.0578     
    532750   4939.4277      417.07465      4522.353       307.51627     -2027.7333      0.40101743     18421.214      0              0              0              0              0             -190.66252    
    533000   4973.4953      425.41391      4548.0814      313.66494     -3227.3284      0.40101743     18421.214      0              0              0              0              0             -199.96285    
    533250   4950.2334      428.84183      4521.3915      316.19241     -2117.8525      0.40101743     18421.214      0              0              0              0              0             -198.20847    
    533500   4953.9278      409.77688      4544.1509      302.13549     -3001.9581      0.40101743     18421.214      0              0              0              0              0             -198.61227    
    533750   4953.0255      433.58156      4519.444       319.68709     -1521.6993      0.40101743     18421.214      0              0              0              0              0             -192.25425    
    534000   4953.702       401.22671      4552.4753      295.83131     -3411.4849      0.40101743     18421.214      0              0              0              0              0             -192.0419     
    534250   4990.2133      441.82438      4548.3889      325.76467     -3287.3879      0.40101743     18421.214      0              0              0              0              0             -191.00296    
    534500   4964.5198      426.05632      4538.4635      314.13861     -2398.4672      0.40101743     18421.214      0              0              0              0              0             -179.10965    
    534750   4942.8159      395.67322      4547.1426      291.73663     -2899.3154      0.40101743     18421.214      0              0              0              0              0             -172.08944    
    535000   4923.8149      390.72426      4533.0906      288.08768     -2869.3433      0.40101743     18421.214      0              0              0              0              0             -164.24247    
    535250   4959.2358      414.09444      4545.1413      305.31891     -1854.0918      0.40101743     18421.214      0              0              0              0              0             -162.1513     
    535500   4930.8651      393.69388      4537.1712      290.27723     -2289.4526      0.40101743     18421.214      0              0              0              0              0             -171.52042    
    535750   4957.2497      420.72938      4536.5203      310.21096     -1592.7963      0.40101743     18421.214      0              0              0              0              0             -172.43212    
    536000   4996.3296      410.49861      4585.831       302.66764     -1641.7558      0.40101743     18421.214      0              0              0              0              0             -168.00711    
    536250   4947.039       419.40032      4527.6387      309.23103     -2506.8027      0.40101743     18421.214      0              0              0              0              0             -153.35977    
    536500   4938.4677      410.02653      4528.4412      302.31957     -3435.5126      0.40101743     18421.214      0              0              0              0              0             -158.72396    
    536750   4956.5526      415.06538      4541.4873      306.0348      -2479.9454      0.40101743     18421.214      0              0              0              0              0             -150.25503    
    537000   4929.6198      386.66839      4542.9514      285.09721     -2158.0063      0.40101743     18421.214      0              0              0              0              0             -154.75549    
    537250   4933.0973      390.85712      4542.2402      288.18564     -2260.857       0.40101743     18421.214      0              0              0              0              0             -161.70993    
    537500   4970.8914      413.46978      4557.4217      304.85834     -2996.8528      0.40101743     18421.214      0              0              0              0              0             -171.65058    
    537750   4958.9936      393.12257      4565.871       289.85599     -3574.5398      0.40101743     18421.214      0              0              0              0              0             -174.23147    
    538000   4956.7243      415.35993      4541.3644      306.25197     -3077.6224      0.40101743     18421.214      0              0              0              0              0             -186.16755    
    538250   4931.0922      401.5759       4529.5162      296.08878     -2209.997       0.40101743     18421.214      0              0              0              0              0             -185.02945    
    538500   4982.4957      415.17027      4567.3254      306.11214     -2305.2286      0.40101743     18421.214      0              0              0              0              0             -175.67489    
    538750   4920.9633      401.3149       4519.6484      295.89634     -1977.993       0.40101743     18421.214      0              0              0              0              0             -179.34707    
    539000   4969.388       417.08721      4552.3008      307.52553     -1974.9039      0.40101743     18421.214      0              0              0              0              0             -168.40743    
    539250   4945.4696      424.54875      4520.9209      313.02705     -2150.1932      0.40101743     18421.214      0              0              0              0              0             -166.69648    
    539500   4940.4873      405.69695      4534.7904      299.1273      -3201.5535      0.40101743     18421.214      0              0              0              0              0             -153.13061    
    539750   4959.3323      402.25021      4557.0821      296.58595     -1137.7091      0.40101743     18421.214      0              0              0              0              0             -159.22219    
    540000   4906.8631      385.62052      4521.2425      284.3246      -2403.7581      0.40101743     18421.214      0              0              0              0              0             -154.16949    
    540250   4912.9386      375.21553      4537.7231      276.65282     -2465.4813      0.40101743     18421.214      0              0              0              0              0             -161.78302    
    540500   4974.0694      433.705        4540.3644      319.77811     -3400.6125      0.40101743     18421.214      0              0              0              0              0             -173.44174    
    540750   4960.5293      420.06062      4540.4687      309.71787     -2749.8679      0.40101743     18421.214      0              0              0              0              0             -188.79328    
    541000   4957.2653      423.33701      4533.9282      312.13361     -2566.9698      0.40101743     18421.214      0              0              0              0              0             -188.17213    
    541250   4936.9028      413.56634      4523.3364      304.92953     -2062.0319      0.40101743     18421.214      0              0              0              0              0             -182.39437    
    541500   4951.8225      422.40582      4529.4166      311.44703     -1853.2143      0.40101743     18421.214      0              0              0              0              0             -185.9211     
    541750   4958.8972      420.82576      4538.0714      310.28202     -2241.5145      0.40101743     18421.214      0              0              0              0              0             -185.71414    
    542000   4921.1313      382.96376      4538.1675      282.36572     -4374.9718      0.40101743     18421.214      0              0              0              0              0             -186.14761    
    542250   4972.0946      418.60456      4553.49        308.64429     -2805.474       0.40101743     18421.214      0              0              0              0              0             -189.76372    
    542500   4958.1404      401.92287      4556.2175      296.3446      -1186.4351      0.40101743     18421.214      0              0              0              0              0             -191.56223    
    542750   4956.3577      424.84702      4531.5107      313.24697     -1946.0762      0.40101743     18421.214      0              0              0              0              0             -194.78685    
    543000   4936.848       409.11533      4527.7326      301.64773     -2786.3232      0.40101743     18421.214      0              0              0              0              0             -191.38407    
    543250   4933.317       408.37237      4524.9446      301.09993     -3610.6032      0.40101743     18421.214      0              0              0              0              0             -191.34962    
    543500   4934.3173      415.41119      4518.9062      306.28977     -2548.0287      0.40101743     18421.214      0              0              0              0              0             -190.95623    
    543750   4970.6624      426.97236      4543.69        314.81402     -3093.1649      0.40101743     18421.214      0              0              0              0              0             -185.96377    
    544000   4937.0029      418.79502      4518.2079      308.78472     -4292.9447      0.40101743     18421.214      0              0              0              0              0             -187.6614     
    544250   4984.6299      432.92637      4551.7035      319.20401     -3787.7964      0.40101743     18421.214      0              0              0              0              0             -183.23838    
    544500   4953.3033      412.11641      4541.1869      303.86047     -2837.0577      0.40101743     18421.214      0              0              0              0              0             -190.14858    
    544750   4919.559       396.20981      4523.3492      292.13226     -2165.9928      0.40101743     18421.214      0              0              0              0              0             -187.22885    
    545000   4945.1469      407.00952      4538.1374      300.09507     -2725.7624      0.40101743     18421.214      0              0              0              0              0             -186.39028    
    545250   4954.5329      401.97254      4552.5603      296.38123     -3558.7881      0.40101743     18421.214      0              0              0              0              0             -179.68907    
    545500   4920.1722      415.56304      4504.6092      306.40173     -1771.4126      0.40101743     18421.214      0              0              0              0              0             -173.72061    
    545750   4941.2339      412.73019      4528.5037      304.31302     -2547.4006      0.40101743     18421.214      0              0              0              0              0             -169.63414    
    546000   4935.3091      404.21818      4531.0909      298.03697     -1861.702       0.40101743     18421.214      0              0              0              0              0             -177.08795    
    546250   4956.1009      430.10652      4525.9944      317.12489     -2603.9711      0.40101743     18421.214      0              0              0              0              0             -185.21131    
    546500   4979.6862      420.92181      4558.7644      310.35285     -1833.0885      0.40101743     18421.214      0              0              0              0              0             -176.81856    
    546750   4921.3729      413.10394      4508.269       304.58859     -2013.0904      0.40101743     18421.214      0              0              0              0              0             -172.44806    
    547000   4919.7682      415.45059      4504.3176      306.31882     -3122.0053      0.40101743     18421.214      0              0              0              0              0             -181.8358     
    547250   4945.1111      407.12645      4537.9847      300.18129     -1412.9355      0.40101743     18421.214      0              0              0              0              0             -190.63147    
    547500   4925.5222      405.0171       4520.5051      298.62603     -3125.1205      0.40101743     18421.214      0              0              0              0              0             -191.66185    
    547750   4965.8985      430.95885      4534.9397      317.75333     -2530.8349      0.40101743     18421.214      0              0              0              0              0             -197.03796    
    548000   4931.8616      401.91253      4529.9491      296.33697     -2804.3012      0.40101743     18421.214      0              0              0              0              0             -192.08894    
    548250   4980.736       424.49451      4556.2415      312.98706     -2180.3484      0.40101743     18421.214      0              0              0              0              0             -184.54563    
    548500   4959.3952      416.50052      4542.8947      307.09295     -2155.4361      0.40101743     18421.214      0              0              0              0              0             -183.77673    
    548750   4920.5935      408.44238      4512.1511      301.15155     -2430.104       0.40101743     18421.214      0              0              0              0              0             -188.17001    
    549000   4951.7401      408.32941      4543.4107      301.06825     -1614.6467      0.40101743     18421.214      0              0              0              0              0             -189.60985    
    549250   4968.2901      428.77486      4539.5153      316.14304     -1366.3971      0.40101743     18421.214      0              0              0              0              0             -185.87131    
    549500   4971.3054      419.25774      4552.0477      309.1259      -3428.7751      0.40101743     18421.214      0              0              0              0              0             -186.29057    
    549750   4951.2841      395.49175      4555.7923      291.60283     -2150.2376      0.40101743     18421.214      0              0              0              0              0             -183.43869    
    550000   4925.4615      386.61419      4538.8473      285.05725     -3142.9334      0.40101743     18421.214      0              0              0              0              0             -183.35883    
    550250   4928.8546      381.71602      4547.1386      281.44575     -1678.2041      0.40101743     18421.214      0              0              0              0              0             -180.75487    
    550500   4965.2228      448.99903      4516.2238      331.05466     -1737.3563      0.40101743     18421.214      0              0              0              0              0             -184.38591    
    550750   4914.6105      390.56588      4524.0446      287.9709      -2502.3261      0.40101743     18421.214      0              0              0              0              0             -176.90029    
    551000   4923.1624      405.83874      4517.3237      299.23184     -1452.2445      0.40101743     18421.214      0              0              0              0              0             -174.4027     
    551250   4972.8647      427.82231      4545.0424      315.4407      -3104.5981      0.40101743     18421.214      0              0              0              0              0             -183.2363     
    551500   4970.567       408.04092      4562.5261      300.85554     -2923.8172      0.40101743     18421.214      0              0              0              0              0             -181.93549    
    551750   4938.2403      397.61816      4540.6221      293.17066     -2901.5478      0.40101743     18421.214      0              0              0              0              0             -173.9046     
    552000   4970.2249      430.98105      4539.2438      317.7697      -2424.2608      0.40101743     18421.214      0              0              0              0              0             -176.40195    
    552250   4984.8849      429.93054      4554.9544      316.99513     -2723.9599      0.40101743     18421.214      0              0              0              0              0             -178.88437    
    552500   4935.7024      403.56061      4532.1417      297.55213     -3534.4268      0.40101743     18421.214      0              0              0              0              0             -167.65502    
    552750   4962.9423      412.00311      4550.9392      303.77694     -2546.5409      0.40101743     18421.214      0              0              0              0              0             -166.35446    
    553000   4956.8914      411.63111      4545.2603      303.50265     -2669.4256      0.40101743     18421.214      0              0              0              0              0             -175.44439    
    553250   4925.6382      407.24678      4518.3914      300.27001     -2954.2203      0.40101743     18421.214      0              0              0              0              0             -177.67594    
    553500   4944.45        421.36883      4523.0812      310.68244     -518.91509      0.40101743     18421.214      0              0              0              0              0             -175.31001    
    553750   4929.2734      408.43195      4520.8415      301.14386     -3697.5454      0.40101743     18421.214      0              0              0              0              0             -176.97903    
    554000   4939.1208      409.23845      4529.8823      301.7385      -2992.9652      0.40101743     18421.214      0              0              0              0              0             -176.52589    
    554250   4945.9983      407.94438      4538.0539      300.78436     -1793.9935      0.40101743     18421.214      0              0              0              0              0             -187.84777    
    554500   4933.9869      395.47028      4538.5166      291.587       -2147.6251      0.40101743     18421.214      0              0              0              0              0             -193.32076    
    554750   4943.2362      393.02792      4550.2083      289.7862      -2873.978       0.40101743     18421.214      0              0              0              0              0             -196.52351    
    555000   4953.0104      423.79144      4529.2189      312.46867     -2717.2475      0.40101743     18421.214      0              0              0              0              0             -196.62251    
    555250   4955.2016      402.20184      4552.9998      296.55029     -2223.9151      0.40101743     18421.214      0              0              0              0              0             -198.36504    
    555500   4919.7603      392.64944      4527.1108      289.50714     -2936.5822      0.40101743     18421.214      0              0              0              0              0             -195.52516    
    555750   4954.5668      407.47438      4547.0924      300.43783     -3814.3719      0.40101743     18421.214      0              0              0              0              0             -189.77929    
    556000   4966.0116      403.76806      4562.2435      297.70509     -3664.2394      0.40101743     18421.214      0              0              0              0              0             -191.03186    
    556250   4939.1142      411.85948      4527.2548      303.67103     -3225.7169      0.40101743     18421.214      0              0              0              0              0             -196.40888    
    556500   4949.5613      412.9697       4536.5916      304.48962     -2046.7299      0.40101743     18421.214      0              0              0              0              0             -188.65251    
    556750   4948.0362      402.74428      4545.2919      296.95024     -3012.0197      0.40101743     18421.214      0              0              0              0              0             -190.38372    
    557000   4915.9038      401.39484      4514.5089      295.95528     -3208.8283      0.40101743     18421.214      0              0              0              0              0             -183.72241    
    557250   4929.5865      405.71911      4523.8674      299.14363     -1735.7119      0.40101743     18421.214      0              0              0              0              0             -184.64044    
    557500   4954.0643      411.54773      4542.5166      303.44117     -4799.1984      0.40101743     18421.214      0              0              0              0              0             -189.3756     
    557750   4935.0842      401.72459      4533.3596      296.19841     -2437.1649      0.40101743     18421.214      0              0              0              0              0             -192.06677    
    558000   4970.9953      447.56988      4523.4254      330.00092     -2025.2202      0.40101743     18421.214      0              0              0              0              0             -183.66559    
    558250   4920.0103      407.24325      4512.767       300.26741     -3552.8956      0.40101743     18421.214      0              0              0              0              0             -183.99595    
    558500   4934.3419      385.88484      4548.4571      284.51949     -3250.5359      0.40101743     18421.214      0              0              0              0              0             -183.92849    
    558750   4932.1217      413.49307      4518.6286      304.87551     -3977.4802      0.40101743     18421.214      0              0              0              0              0             -183.7174     
    559000   4906.0877      398.53323      4507.5544      293.84536     -2682.8585      0.40101743     18421.214      0              0              0              0              0             -188.09998    
    559250   4907.2504      392.17827      4515.0722      289.15974     -2752.0954      0.40101743     18421.214      0              0              0              0              0             -190.18743    
    559500   4962.1927      413.89319      4548.2995      305.17052     -2011.173       0.40101743     18421.214      0              0              0              0              0             -192.74518    
    559750   4935.986       413.74999      4522.2361      305.06494     -2651.1586      0.40101743     18421.214      0              0              0              0              0             -190.1331     
    560000   4966.2985      407.24176      4559.0567      300.26631     -3279.714       0.40101743     18421.214      0              0              0              0              0             -193.76457    
    560250   4938.9518      398.34781      4540.604       293.70865     -2994.3554      0.40101743     18421.214      0              0              0              0              0             -197.4474     
    560500   4968.649       415.07934      4553.5696      306.04509     -2675.134       0.40101743     18421.214      0              0              0              0              0             -198.86486    
    560750   4979.3579      420.78032      4558.5776      310.24852     -2902.5336      0.40101743     18421.214      0              0              0              0              0             -190.67507    
    561000   4967.6261      421.24655      4546.3796      310.59228     -1838.9134      0.40101743     18421.214      0              0              0              0              0             -177.23301    
    561250   4970.2329      428.23674      4541.9962      315.74626     -3377.2972      0.40101743     18421.214      0              0              0              0              0             -172.85886    
    561500   4963.6722      437.32355      4526.3487      322.44613     -2435.6468      0.40101743     18421.214      0              0              0              0              0             -177.83906    
    561750   4994.3181      426.91952      4567.3986      314.77506     -2672.7374      0.40101743     18421.214      0              0              0              0              0             -184.44918    
    562000   4971.2576      411.81451      4559.4431      303.63788     -1848.5762      0.40101743     18421.214      0              0              0              0              0             -184.87349    
    562250   4955.4618      415.98813      4539.4737      306.71516     -2559.9269      0.40101743     18421.214      0              0              0              0              0             -184.19826    
    562500   4938.9213      409.24079      4529.6805      301.74023     -2880.8824      0.40101743     18421.214      0              0              0              0              0             -187.74894    
    562750   4950.0077      411.2522       4538.7555      303.22328     -2791.7311      0.40101743     18421.214      0              0              0              0              0             -192.55792    
    563000   4975.9305      439.7536       4536.1769      324.23785     -2321.5309      0.40101743     18421.214      0              0              0              0              0             -188.35198    
    563250   4958.3587      415.42314      4542.9355      306.29858     -3026.4356      0.40101743     18421.214      0              0              0              0              0             -179.78944    
    563500   4949.5659      426.45149      4523.1144      314.42997     -2611.8498      0.40101743     18421.214      0              0              0              0              0             -179.73136    
    563750   4949.5491      409.46983      4540.0792      301.9091      -2580.6608      0.40101743     18421.214      0              0              0              0              0             -181.85791    
    564000   4943.974       417.93844      4526.0355      308.15316     -2037.6052      0.40101743     18421.214      0              0              0              0              0             -185.26914    
    564250   4982.4278      423.93191      4558.4959      312.57224     -1868.3803      0.40101743     18421.214      0              0              0              0              0             -184.91143    
    564500   4939.943       416.00462      4523.9384      306.72732     -2713.3987      0.40101743     18421.214      0              0              0              0              0             -184.84185    
    564750   4945.9486      416.89265      4529.056       307.38207     -2591.6675      0.40101743     18421.214      0              0              0              0              0             -189.64714    
    565000   4961.1747      438.45556      4522.7191      323.28078     -2136.8718      0.40101743     18421.214      0              0              0              0              0             -186.87881    
    565250   4982.1887      426.40608      4555.7826      314.39649     -3316.9841      0.40101743     18421.214      0              0              0              0              0             -177.01928    
    565500   4960.953       440.85406      4520.0989      325.04923     -2791.7886      0.40101743     18421.214      0              0              0              0              0             -182.40808    
    565750   4969.9411      414.75149      4555.1896      305.80337     -1261.4613      0.40101743     18421.214      0              0              0              0              0             -188.24349    
    566000   4968.4449      423.24544      4545.1994      312.0661      -2184.1419      0.40101743     18421.214      0              0              0              0              0             -187.61524    
    566250   4960.8895      423.89798      4536.9915      312.54723     -3406.4357      0.40101743     18421.214      0              0              0              0              0             -178.59617    
    566500   4931.8419      415.78876      4516.0531      306.56816     -3071.8049      0.40101743     18421.214      0              0              0              0              0             -175.8988     
    566750   4953.5279      393.57254      4559.9553      290.18776     -2346.8161      0.40101743     18421.214      0              0              0              0              0             -182.41154    
    567000   4957.5191      419.05803      4538.4611      308.97865     -1641.0156      0.40101743     18421.214      0              0              0              0              0             -179.62976    
    567250   4932.7728      412.92173      4519.8511      304.45425     -2626.5723      0.40101743     18421.214      0              0              0              0              0             -179.13832    
    567500   4929.3483      415.42065      4513.9277      306.29675     -2170.4532      0.40101743     18421.214      0              0              0              0              0             -196.85039    
    567750   4917.3173      398.11834      4519.1989      293.53946     -3281.316       0.40101743     18421.214      0              0              0              0              0             -199.14006    
    568000   4923.0534      378.41628      4544.6371      279.01279     -2291.5314      0.40101743     18421.214      0              0              0              0              0             -195.57336    
    568250   4937.4307      409.0971       4528.3336      301.63428     -2109.8619      0.40101743     18421.214      0              0              0              0              0             -187.93135    
    568500   4921.3732      410.49114      4510.882       302.66214     -2878.6568      0.40101743     18421.214      0              0              0              0              0             -198.95342    
    568750   4971.8305      438.7777       4533.0528      323.5183      -2880.4712      0.40101743     18421.214      0              0              0              0              0             -196.33679    
    569000   4896.0193      381.0899       4514.9294      280.98409     -1393.9475      0.40101743     18421.214      0              0              0              0              0             -194.79996    
    569250   4905.7262      385.19685      4520.5293      284.01222     -2548.8261      0.40101743     18421.214      0              0              0              0              0             -197.96498    
    569500   4931.8439      396.1147       4535.7292      292.06214     -1978.345       0.40101743     18421.214      0              0              0              0              0             -189.7799     
    569750   4942.2276      413.14043      4529.0872      304.6155      -1857.3985      0.40101743     18421.214      0              0              0              0              0             -188.79436    
    570000   4949.1003      399.82561      4549.2747      294.79826     -4171.366       0.40101743     18421.214      0              0              0              0              0             -180.49832    
    570250   4934.5064      408.00351      4526.5029      300.82796     -2892.5676      0.40101743     18421.214      0              0              0              0              0             -185.20794    
    570500   4943.2436      426.78499      4516.4586      314.67587     -2621.8758      0.40101743     18421.214      0              0              0              0              0             -187.96142    
    570750   4983.8594      430.77776      4553.0817      317.6198      -1974.8039      0.40101743     18421.214      0              0              0              0              0             -188.31484    
    571000   4938.2073      415.46647      4522.7408      306.33053     -2750.9362      0.40101743     18421.214      0              0              0              0              0             -193.35507    
    571250   4946.8086      402.68474      4544.1238      296.90634     -2014.8126      0.40101743     18421.214      0              0              0              0              0             -197.46746    
    571500   4919.6797      410.54784      4509.1319      302.70394     -2286.0433      0.40101743     18421.214      0              0              0              0              0             -193.62349    
    571750   4977.0697      436.14483      4540.9248      321.57703     -2157.3728      0.40101743     18421.214      0              0              0              0              0             -194.85042    
    572000   4972.3183      420.60761      4551.7107      310.12118     -2806.2682      0.40101743     18421.214      0              0              0              0              0             -192.17965    
    572250   4939.2147      422.24084      4516.9738      311.32539     -3219.9989      0.40101743     18421.214      0              0              0              0              0             -195.10737    
    572500   4957.59        418.81707      4538.773       308.80098     -2395.8056      0.40101743     18421.214      0              0              0              0              0             -189.55143    
    572750   4936.6057      393.10283      4543.5029      289.84144     -2171.4984      0.40101743     18421.214      0              0              0              0              0             -184.25021    
    573000   4936.2921      430.88057      4505.4115      317.69561     -1948.9106      0.40101743     18421.214      0              0              0              0              0             -192.16892    
    573250   4980.8406      417.0363       4563.8043      307.48799     -2618.6562      0.40101743     18421.214      0              0              0              0              0             -197.25271    
    573500   4976.4612      432.09785      4544.3633      318.59313     -2849.8206      0.40101743     18421.214      0              0              0              0              0             -195.95786    
    573750   4980.6497      430.64273      4550.007       317.52024     -1208.7276      0.40101743     18421.214      0              0              0              0              0             -189.80668    
    574000   4951.2196      390.37873      4560.8408      287.83291     -2534.6376      0.40101743     18421.214      0              0              0              0              0             -185.10585    
    574250   4944.7332      403.16409      4541.5691      297.25977     -1821.8466      0.40101743     18421.214      0              0              0              0              0             -184.87485    
    574500   4907.9947      378.29055      4529.7042      278.92009     -2586.7238      0.40101743     18421.214      0              0              0              0              0             -192.82921    
    574750   4950.1225      445.60722      4504.5152      328.55382     -1724.921       0.40101743     18421.214      0              0              0              0              0             -190.01824    
    575000   4946.6913      415.0645       4531.6268      306.03415     -2048.3406      0.40101743     18421.214      0              0              0              0              0             -197.10224    
    575250   4960.4158      408.77285      4551.643       301.39521     -3630.7745      0.40101743     18421.214      0              0              0              0              0             -194.8746     
    575500   4935.7531      407.75483      4527.9983      300.6446      -2163.3917      0.40101743     18421.214      0              0              0              0              0             -191.07911    
    575750   4964.6224      397.84343      4566.779       293.33676     -1862.2574      0.40101743     18421.214      0              0              0              0              0             -188.99474    
    576000   4947.1453      412.42542      4534.7199      304.08831     -3337.9869      0.40101743     18421.214      0              0              0              0              0             -184.74004    
    576250   4968.6098      416.38305      4552.2267      307.00634     -3742.1212      0.40101743     18421.214      0              0              0              0              0             -184.21636    
    576500   4947.6435      407.8694       4539.7741      300.72908     -1584.82        0.40101743     18421.214      0              0              0              0              0             -164.43825    
    576750   4962.6361      409.09526      4553.5408      301.63293     -2032.0177      0.40101743     18421.214      0              0              0              0              0             -160.23555    
    577000   4989.4811      443.52927      4545.9518      327.02171     -3100.5078      0.40101743     18421.214      0              0              0              0              0             -161.89207    
    577250   4959.9396      418.33847      4541.6011      308.4481      -2967.3094      0.40101743     18421.214      0              0              0              0              0             -156.63358    
    577500   4976.5395      431.29422      4545.2453      318.0006      -1165.436       0.40101743     18421.214      0              0              0              0              0             -166.83078    
    577750   4918.3586      402.60882      4515.7498      296.85036     -990.03326      0.40101743     18421.214      0              0              0              0              0             -162.95726    
    578000   4962.0578      421.71096      4540.3468      310.9347      -876.26999      0.40101743     18421.214      0              0              0              0              0             -163.01164    
    578250   4955.01        429.79135      4525.2187      316.89251     -1561.4841      0.40101743     18421.214      0              0              0              0              0             -174.66217    
    578500   4937.1189      406.98677      4530.1322      300.0783      -2392.0419      0.40101743     18421.214      0              0              0              0              0             -183.36074    
    578750   4921.132       408.24901      4512.883       301.00897     -3018.4238      0.40101743     18421.214      0              0              0              0              0             -180.90302    
    579000   4985.9211      428.25509      4557.6661      315.75979     -3227.6926      0.40101743     18421.214      0              0              0              0              0             -176.35529    
    579250   5004.9903      443.85608      4561.1342      327.26267     -3503.4608      0.40101743     18421.214      0              0              0              0              0             -183.12789    
    579500   4944.9211      408.51375      4536.4074      301.20417     -2576.4866      0.40101743     18421.214      0              0              0              0              0             -188.49262    
    579750   4994.0424      454.07137      4539.971       334.79458     -2108.0217      0.40101743     18421.214      0              0              0              0              0             -188.8134     
    580000   4980.0186      424.77913      4555.2395      313.19691     -2800.2117      0.40101743     18421.214      0              0              0              0              0             -182.96302    
    580250   4931.2376      394.54149      4536.6961      290.90218     -2382.8008      0.40101743     18421.214      0              0              0              0              0             -176.54614    
    580500   4958.586       418.56076      4540.0253      308.612       -3435.6573      0.40101743     18421.214      0              0              0              0              0             -184.41666    
    580750   4956.7807      409.91439      4546.8664      302.23688     -3036.7579      0.40101743     18421.214      0              0              0              0              0             -171.13538    
    581000   4936.6029      412.35321      4524.2497      304.03507     -2651.1463      0.40101743     18421.214      0              0              0              0              0             -168.32531    
    581250   4963.8437      413.47009      4550.3736      304.85856     -3316.578       0.40101743     18421.214      0              0              0              0              0             -175.08553    
    581500   4978.6973      437.31842      4541.3788      322.44235     -2561.1434      0.40101743     18421.214      0              0              0              0              0             -183.16011    
    581750   4953.886       393.78263      4560.1034      290.34266     -1955.0392      0.40101743     18421.214      0              0              0              0              0             -186.10486    
    582000   4923.3108      406.66632      4516.6445      299.84203     -2526.0744      0.40101743     18421.214      0              0              0              0              0             -183.87194    
    582250   4896.6114      391.70344      4504.908       288.80964     -2091.6443      0.40101743     18421.214      0              0              0              0              0             -186.03438    
    582500   4961.5549      408.72114      4552.8337      301.35708     -1364.4736      0.40101743     18421.214      0              0              0              0              0             -184.5291     
    582750   4963.0617      412.21422      4550.8475      303.93259     -1448.886       0.40101743     18421.214      0              0              0              0              0             -189.52369    
    583000   4935.5059      402.80137      4532.7045      296.99233     -4146.0553      0.40101743     18421.214      0              0              0              0              0             -192.3615     
    583250   4937.3342      405.34448      4531.9897      298.86741     -2930.7637      0.40101743     18421.214      0              0              0              0              0             -195.08531    
    583500   4908.1469      398.95923      4509.1877      294.15946     -2130.6164      0.40101743     18421.214      0              0              0              0              0             -192.4701     
    583750   4929.9974      400.41595      4529.5814      295.23352     -2387.8246      0.40101743     18421.214      0              0              0              0              0             -197.94548    
    584000   4957.5373      416.20318      4541.3341      306.87372     -2859.7727      0.40101743     18421.214      0              0              0              0              0             -193.23287    
    584250   4922.731       383.68718      4539.0438      282.89912     -1997.5334      0.40101743     18421.214      0              0              0              0              0             -195.61237    
    584500   4901.8737      388.77373      4513.0999      286.64951     -1750.5501      0.40101743     18421.214      0              0              0              0              0             -189.58603    
    584750   4925.429       410.81242      4514.6166      302.89902     -2134.4993      0.40101743     18421.214      0              0              0              0              0             -183.59274    
    585000   4970.6705      413.36611      4557.3044      304.78189     -2546.7701      0.40101743     18421.214      0              0              0              0              0             -189.05203    
    585250   4941.9973      413.77448      4528.2228      305.083       -1645.4302      0.40101743     18421.214      0              0              0              0              0             -189.91079    
    585500   4956.7756      420.71718      4536.0584      310.20197     -4049.3867      0.40101743     18421.214      0              0              0              0              0             -190.78509    
    585750   4941.6038      416.10347      4525.5004      306.8002      -2917.4196      0.40101743     18421.214      0              0              0              0              0             -190.82561    
    586000   4947.1825      432.83713      4514.3454      319.13821     -2748.5523      0.40101743     18421.214      0              0              0              0              0             -189.48236    
    586250   4940.1776      406.72995      4533.4477      299.88894     -1127.9063      0.40101743     18421.214      0              0              0              0              0             -188.62956    
    586500   4935.7922      412.00663      4523.7856      303.77953     -1776.8092      0.40101743     18421.214      0              0              0              0              0             -189.67868    
    586750   4936.3157      416.62872      4519.687       307.18748     -1937.4166      0.40101743     18421.214      0              0              0              0              0             -188.2575     
    587000   4915.0054      404.28076      4510.7247      298.08312     -1549.0974      0.40101743     18421.214      0              0              0              0              0             -193.97881    
    587250   4951.9572      407.47075      4544.4864      300.43515     -2768.5505      0.40101743     18421.214      0              0              0              0              0             -192.40015    
    587500   4941           420.74275      4520.2572      310.22082     -3963.8475      0.40101743     18421.214      0              0              0              0              0             -189.10768    
    587750   4927.1072      387.88562      4539.2216      285.9947      -2752.3539      0.40101743     18421.214      0              0              0              0              0             -192.96695    
    588000   4929.4438      409.77174      4519.6721      302.13171     -2818.8291      0.40101743     18421.214      0              0              0              0              0             -195.6185     
    588250   4944.6677      392.07988      4552.5879      289.0872      -3236.5036      0.40101743     18421.214      0              0              0              0              0             -194.17047    
    588500   4905.715       391.08353      4514.6315      288.35257     -2333.6031      0.40101743     18421.214      0              0              0              0              0             -183.78651    
    588750   4925.9172      398.64642      4527.2708      293.92882     -2043.9477      0.40101743     18421.214      0              0              0              0              0             -182.67784    
    589000   4902.7549      391.56013      4511.1947      288.70398     -2307.5975      0.40101743     18421.214      0              0              0              0              0             -189.9682     
    589250   4915.1027      391.44287      4523.6599      288.61752     -1989.6244      0.40101743     18421.214      0              0              0              0              0             -192.89732    
    589500   4951.2008      420.99914      4530.2016      310.40986     -2661.645       0.40101743     18421.214      0              0              0              0              0             -181.86929    
    589750   4940.7062      405.1155       4535.5907      298.69858     -576.67724      0.40101743     18421.214      0              0              0              0              0             -186.47015    
    590000   4954.3879      406.24022      4548.1477      299.52786     -1917.4911      0.40101743     18421.214      0              0              0              0              0             -184.87606    
    590250   4971.8352      408.47041      4563.3648      301.17221     -3156.7781      0.40101743     18421.214      0              0              0              0              0             -189.62171    
    590500   4920.2308      406.09957      4514.1312      299.42416     -2416.41        0.40101743     18421.214      0              0              0              0              0             -192.18696    
    590750   4967.8054      447.65525      4520.1501      330.06387     -2130.5329      0.40101743     18421.214      0              0              0              0              0             -192.25724    
    591000   4938.6571      408.03646      4530.6206      300.85225     -3168.8956      0.40101743     18421.214      0              0              0              0              0             -193.40427    
    591250   4945.0708      412.89301      4532.1777      304.43307     -2569.9734      0.40101743     18421.214      0              0              0              0              0             -189.77857    
    591500   4933.8611      392.31128      4541.5498      289.25782     -3091.8174      0.40101743     18421.214      0              0              0              0              0             -192.65889    
    591750   4933.498       396.18614      4537.3118      292.11482     -2179.2957      0.40101743     18421.214      0              0              0              0              0             -189.9004     
    592000   4951.5798      425.18443      4526.3954      313.49574     -2963.9103      0.40101743     18421.214      0              0              0              0              0             -188.68148    
    592250   4920.5088      407.12403      4513.3847      300.17951     -3216.4538      0.40101743     18421.214      0              0              0              0              0             -185.84746    
    592500   4955.3624      412.39648      4542.9659      304.06697     -2583.8482      0.40101743     18421.214      0              0              0              0              0             -185.13069    
    592750   4958.7729      447.55133      4511.2216      329.98724     -2437.5122      0.40101743     18421.214      0              0              0              0              0             -180.49207    
    593000   4958.4001      417.84331      4540.5568      308.08302     -2417.66        0.40101743     18421.214      0              0              0              0              0             -172.54716    
    593250   4951.4885      416.64667      4534.8418      307.20071     -2248.8902      0.40101743     18421.214      0              0              0              0              0             -176.9972     
    593500   4940.0299      395.40802      4544.6219      291.54109     -2490.799       0.40101743     18421.214      0              0              0              0              0             -174.99702    
    593750   4919.3835      404.00919      4515.3743      297.88288     -2840.4351      0.40101743     18421.214      0              0              0              0              0             -178.35679    
    594000   4944.6329      381.94994      4562.6829      281.61822     -2596.6436      0.40101743     18421.214      0              0              0              0              0             -173.51474    
    594250   4952.4882      423.86755      4528.6207      312.52479     -2590.2445      0.40101743     18421.214      0              0              0              0              0             -171.93481    
    594500   4958.8139      420.09847      4538.7154      309.74578     -1671.2577      0.40101743     18421.214      0              0              0              0              0             -178.61288    
    594750   4944.0779      416.61133      4527.4666      307.17465     -3090.6016      0.40101743     18421.214      0              0              0              0              0             -171.16829    
    595000   4916.757       382.65722      4534.0997      282.13971     -2695.7175      0.40101743     18421.214      0              0              0              0              0             -167.44204    
    595250   4950.7223      410.3629       4540.3594      302.56758     -2853.8444      0.40101743     18421.214      0              0              0              0              0             -166.19131    
    595500   4955.5742      432.07341      4523.5008      318.57511     -2714.187       0.40101743     18421.214      0              0              0              0              0             -170.09744    
    595750   4977.5422      441.602        4535.9402      325.6007      -1445.896       0.40101743     18421.214      0              0              0              0              0             -174.6161     
    596000   4964.2755      411.61744      4552.658       303.49257     -3247.3585      0.40101743     18421.214      0              0              0              0              0             -182.9794     
    596250   4995.548       448.26468      4547.2833      330.51321     -1831.1898      0.40101743     18421.214      0              0              0              0              0             -188.71806    
    596500   4945.8106      428.30352      4517.5071      315.79551     -2520.0285      0.40101743     18421.214      0              0              0              0              0             -188.79721    
    596750   4919.7892      415.34478      4504.4444      306.24081     -2874.5593      0.40101743     18421.214      0              0              0              0              0             -185.5776     
    597000   4929.2101      391.0723       4538.1378      288.34429     -2946.3139      0.40101743     18421.214      0              0              0              0              0             -180.31549    
    597250   4935.0633      406.9415       4528.1218      300.04493     -2570.0929      0.40101743     18421.214      0              0              0              0              0             -187.33483    
    597500   4971.8256      414.42772      4557.3978      305.56464     -2573.3829      0.40101743     18421.214      0              0              0              0              0             -189.91954    
    597750   4956.115       416.98123      4539.1338      307.44739     -2582.5856      0.40101743     18421.214      0              0              0              0              0             -182.06644    
    598000   4942.1047      401.67277      4540.432       296.1602      -2498.8338      0.40101743     18421.214      0              0              0              0              0             -169.20565    
    598250   4944.4464      407.51692      4536.9294      300.46919     -1935.6486      0.40101743     18421.214      0              0              0              0              0             -169.35952    
    598500   4938.0701      393.85973      4544.2104      290.39951     -1630.9454      0.40101743     18421.214      0              0              0              0              0             -167.46986    
    598750   4919.5907      397.24361      4522.3471      292.89451     -1612.3831      0.40101743     18421.214      0              0              0              0              0             -174.14786    
    599000   4949.9514      397.27213      4552.6793      292.91553     -3008.8889      0.40101743     18421.214      0              0              0              0              0             -178.54792    
    599250   4948.5322      427.05887      4521.4734      314.8778      -2728.7292      0.40101743     18421.214      0              0              0              0              0             -169.70774    
    599500   4923.9536      389.28413      4534.6695      287.02584     -2844.7936      0.40101743     18421.214      0              0              0              0              0             -161.03544    
    599750   4903.9907      383.99535      4519.9954      283.12634     -3253.1341      0.40101743     18421.214      0              0              0              0              0             -159.12703    
    600000   4973.0096      419.44544      4553.5641      309.26429     -1506.6918      0.40101743     18421.214      0              0              0              0              0             -162.35206    
    600250   4976.6219      441.15389      4535.4681      325.2703      -1926.0924      0.40101743     18421.214      0              0              0              0              0             -155.11948    
    600500   4971.2857      421.98477      4549.3009      311.13658     -2227.9373      0.40101743     18421.214      0              0              0              0              0             -157.03078    
    600750   4937.5523      401.7784       4535.7739      296.23808     -2732.7061      0.40101743     18421.214      0              0              0              0              0             -160.73783    
    601000   4922.59        399.472        4523.118       294.53753     -4195.3576      0.40101743     18421.214      0              0              0              0              0             -169.41272    
    601250   4940.7885      408.1888       4532.5997      300.96458     -2416.9546      0.40101743     18421.214      0              0              0              0              0             -175.29978    
    601500   4971.0562      417.5483       4553.5079      307.8655      -2693.7681      0.40101743     18421.214      0              0              0              0              0             -178.04913    
    601750   4927.1594      381.90903      4545.2504      281.58805     -1068.822       0.40101743     18421.214      0              0              0              0              0             -179.75522    
    602000   4956.6757      415.30007      4541.3756      306.20784     -1465.1277      0.40101743     18421.214      0              0              0              0              0             -187.61097    
    602250   4933.4584      423.41469      4510.0437      312.19089     -2015.1949      0.40101743     18421.214      0              0              0              0              0             -190.56759    
    602500   4937.5029      420.7004       4516.8025      310.18959     -2813.6046      0.40101743     18421.214      0              0              0              0              0             -196.28297    
    602750   4911.1712      393.777        4517.3942      290.33851     -3840.4005      0.40101743     18421.214      0              0              0              0              0             -195.20137    
    603000   4961.3938      423.54008      4537.8537      312.28334     -2084.8616      0.40101743     18421.214      0              0              0              0              0             -179.244      
    603250   4963.0764      412.17941      4550.8969      303.90693     -2108.9679      0.40101743     18421.214      0              0              0              0              0             -182.13041    
    603500   4947.6337      414.18503      4533.4486      305.3857      -2745.5483      0.40101743     18421.214      0              0              0              0              0             -187.38209    
    603750   4946.3456      424.70527      4521.6403      313.14245     -3606.0886      0.40101743     18421.214      0              0              0              0              0             -190.58778    
    604000   4972.9727      405.17432      4567.7984      298.74195     -3591.837       0.40101743     18421.214      0              0              0              0              0             -189.64805    
    604250   4941.9029      424.21151      4517.6914      312.7784      -793.26629      0.40101743     18421.214      0              0              0              0              0             -190.68617    
    604500   4956.6145      413.57374      4543.0408      304.93499     -2492.1189      0.40101743     18421.214      0              0              0              0              0             -194.76808    
    604750   4945.0935      405.69822      4539.3953      299.12823     -2307.6302      0.40101743     18421.214      0              0              0              0              0             -189.60983    
    605000   4953.5487      424.77608      4528.7727      313.19467     -2436.4315      0.40101743     18421.214      0              0              0              0              0             -189.93       
    605250   4921.0141      398.68626      4522.3278      293.95819     -2223.131       0.40101743     18421.214      0              0              0              0              0             -192.42686    
    605500   4917.6053      380.0694       4537.5359      280.23166     -2249.653       0.40101743     18421.214      0              0              0              0              0             -188.21151    
    605750   4910.0544      383.7757       4526.2787      282.96438     -3244.1403      0.40101743     18421.214      0              0              0              0              0             -182.19508    
    606000   4975.3429      413.66134      4561.6816      304.99958     -4252.4569      0.40101743     18421.214      0              0              0              0              0             -178.06646    
    606250   4930.4169      418.05634      4512.3606      308.24009     -1392.5345      0.40101743     18421.214      0              0              0              0              0             -178.40721    
    606500   4988.4539      427.55392      4560.9         315.24281     -2238.3311      0.40101743     18421.214      0              0              0              0              0             -171.06499    
    606750   4953.6991      404.75672      4548.9424      298.43404     -1857.61        0.40101743     18421.214      0              0              0              0              0             -176.97903    
    607000   4943.6009      392.65553      4550.9454      289.51163     -2806.0053      0.40101743     18421.214      0              0              0              0              0             -173.22902    
    607250   4934.1777      414.45454      4519.7232      305.58441     -3924.7889      0.40101743     18421.214      0              0              0              0              0             -167.05569    
    607500   4931.8447      417.9256       4513.9191      308.14369     -3453.0322      0.40101743     18421.214      0              0              0              0              0             -177.99115    
    607750   4937.9892      406.68715      4531.3021      299.85738     -3346.7024      0.40101743     18421.214      0              0              0              0              0             -189.06333    
    608000   4925.9994      411.11216      4514.8872      303.12002     -1322.9068      0.40101743     18421.214      0              0              0              0              0             -189.50239    
    608250   4957.8774      419.17359      4538.7038      309.06385     -2743.4948      0.40101743     18421.214      0              0              0              0              0             -179.08964    
    608500   4918.48        401.21521      4517.2648      295.82283     -2308.1552      0.40101743     18421.214      0              0              0              0              0             -178.39578    
    608750   4971.6648      401.40591      4570.2589      295.96344     -2994.3296      0.40101743     18421.214      0              0              0              0              0             -186.18944    
    609000   4924.0897      408.46868      4515.621       301.17094     -2217.9344      0.40101743     18421.214      0              0              0              0              0             -183.91214    
    609250   5014.0245      433.30858      4580.7159      319.48582     -2482.453       0.40101743     18421.214      0              0              0              0              0             -181.71077    
    609500   4952.1219      415.7765       4536.3454      306.55912     -2138.2371      0.40101743     18421.214      0              0              0              0              0             -178.66261    
    609750   4929.9355      404.68696      4525.2485      298.38262     -3198.9673      0.40101743     18421.214      0              0              0              0              0             -163.77299    
    610000   4983.1855      425.17291      4558.0126      313.48726     -4144.2525      0.40101743     18421.214      0              0              0              0              0             -161.1683     
    610250   4935.4593      401.80713      4533.6521      296.25927     -1487.0708      0.40101743     18421.214      0              0              0              0              0             -168.97713    
    610500   4928.9879      397.10481      4531.8831      292.79216     -2020.985       0.40101743     18421.214      0              0              0              0              0             -172.31186    
    610750   4939.1689      411.35403      4527.8148      303.29836     -1388.3395      0.40101743     18421.214      0              0              0              0              0             -179.45714    
    611000   4949.5747      416.94049      4532.6343      307.41735     -2902.2122      0.40101743     18421.214      0              0              0              0              0             -179.79261    
    611250   4946.8742      418.74791      4528.1263      308.74999     -3787.0796      0.40101743     18421.214      0              0              0              0              0             -186.3999     
    611500   4959.468       399.41576      4560.0522      294.49607     -2212.0565      0.40101743     18421.214      0              0              0              0              0             -189.37532    
    611750   4894.9889      387.46627      4507.5227      285.6855      -1312.5139      0.40101743     18421.214      0              0              0              0              0             -192.21912    
    612000   4958.1912      417.0242       4541.167       307.47907     -2966.9279      0.40101743     18421.214      0              0              0              0              0             -187.84918    
    612250   4937.2038      396.46248      4540.7413      292.31856     -1971.0146      0.40101743     18421.214      0              0              0              0              0             -187.34742    
    612500   4936.5659      409.04992      4527.516       301.5995      -2994.1004      0.40101743     18421.214      0              0              0              0              0             -179.37815    
    612750   4939.6576      429.67202      4509.9856      316.80453     -3073.3134      0.40101743     18421.214      0              0              0              0              0             -177.77417    
    613000   4966.7239      414.92803      4551.7959      305.93353     -1806.3752      0.40101743     18421.214      0              0              0              0              0             -176.27031    
    613250   4951.9936      423.00917      4528.9845      311.89189     -2986.6777      0.40101743     18421.214      0              0              0              0              0             -184.41008    
    613500   4927.6253      417.27226      4510.353       307.66197     -2443.9391      0.40101743     18421.214      0              0              0              0              0             -192.70226    
    613750   4936.1102      406.52245      4529.5878      299.73595     -2404.0731      0.40101743     18421.214      0              0              0              0              0             -194.57431    
    614000   4961.8606      417.55624      4544.3043      307.87136     -2242.9381      0.40101743     18421.214      0              0              0              0              0             -191.48795    
    614250   4991.0902      429.64308      4561.4471      316.78319     -2103.7158      0.40101743     18421.214      0              0              0              0              0             -182.8318     
    614500   4939.6257      396.45152      4543.1742      292.31048     -1466.9502      0.40101743     18421.214      0              0              0              0              0             -184.50191    
    614750   4967.3931      416.41519      4550.9779      307.03004     -2090.3868      0.40101743     18421.214      0              0              0              0              0             -181.55031    
    615000   4959.1343      428.23983      4530.8945      315.74854     -2376.0126      0.40101743     18421.214      0              0              0              0              0             -180.51361    
    615250   4968.2218      427.59938      4540.6224      315.27633     -2111.059       0.40101743     18421.214      0              0              0              0              0             -167.86575    
    615500   4931.8765      412.27718      4519.5993      303.97901     -2675.3101      0.40101743     18421.214      0              0              0              0              0             -169.40419    
    615750   4960.4408      424.61811      4535.8227      313.07819     -2183.3962      0.40101743     18421.214      0              0              0              0              0             -166.42297    
    616000   4945.0346      427.71969      4517.3149      315.36504     -2080.7467      0.40101743     18421.214      0              0              0              0              0             -177.0823     
    616250   4927.6166      423.81847      4503.7982      312.48861     -1281.8991      0.40101743     18421.214      0              0              0              0              0             -172.55056    
    616500   4978.6074      409.94142      4568.6659      302.25681     -2236.3827      0.40101743     18421.214      0              0              0              0              0             -167.35891    
    616750   4987.6251      429.76949      4557.8556      316.87639     -2056.5434      0.40101743     18421.214      0              0              0              0              0             -163.98519    
    617000   4939.4174      403.84797      4535.5695      297.76401     -3301.9812      0.40101743     18421.214      0              0              0              0              0             -167.78784    
    617250   4966.673       439.55622      4527.1168      324.09231     -2477.7984      0.40101743     18421.214      0              0              0              0              0             -179.95148    
    617500   4937.2226      399.08651      4538.1361      294.2533      -2729.3325      0.40101743     18421.214      0              0              0              0              0             -185.16944    
    617750   4951.2335      400.97544      4550.258       295.64604     -3205.6419      0.40101743     18421.214      0              0              0              0              0             -184.42194    
    618000   4970.7282      435.316        4535.4122      320.96593     -1930.5479      0.40101743     18421.214      0              0              0              0              0             -184.72053    
    618250   4948.0378      402.62716      4545.4106      296.86389     -774.92169      0.40101743     18421.214      0              0              0              0              0             -185.42494    
    618500   4928.03        414.37791      4513.6521      305.52792     -1650.4755      0.40101743     18421.214      0              0              0              0              0             -191.2819     
    618750   4973.7032      440.30927      4533.3939      324.64755     -2222.9402      0.40101743     18421.214      0              0              0              0              0             -198.4034     
    619000   4953.8979      415.02612      4538.8717      306.00585     -1922.2728      0.40101743     18421.214      0              0              0              0              0             -197.95057    
    619250   4929.964       406.32612      4523.6379      299.59119     -2099.9883      0.40101743     18421.214      0              0              0              0              0             -193.28569    
    619500   4919.4246      407.13066      4512.2939      300.1844      -2085.0808      0.40101743     18421.214      0              0              0              0              0             -184.87031    
    619750   4957.5451      421.489        4536.0561      310.77104     -3833.7437      0.40101743     18421.214      0              0              0              0              0             -179.57122    
    620000   4976.4336      406.10765      4570.326       299.43011     -2420.0232      0.40101743     18421.214      0              0              0              0              0             -180.56641    
    620250   4968.8228      434.26138      4534.5614      320.18834     -3420.0492      0.40101743     18421.214      0              0              0              0              0             -178.15669    
    620500   4958.259       440.63557      4517.6234      324.88814     -2238.7577      0.40101743     18421.214      0              0              0              0              0             -181.521      
    620750   4959.7783      400.18137      4559.5969      295.06056     -934.66502      0.40101743     18421.214      0              0              0              0              0             -182.52812    
    621000   4960.7474      397.11804      4563.6294      292.80192     -3063.7933      0.40101743     18421.214      0              0              0              0              0             -182.54414    
    621250   4983.7496      429.01831      4554.7313      316.32253     -3101.131       0.40101743     18421.214      0              0              0              0              0             -177.64949    
    621500   4948.8003      417.76957      4531.0308      308.02864     -1505.6495      0.40101743     18421.214      0              0              0              0              0             -172.80733    
    621750   4974.4691      430.85509      4543.614       317.67682     -1397.6365      0.40101743     18421.214      0              0              0              0              0             -180.5988     
    622000   4893.6202      388.59655      4505.0237      286.51888     -2093.3886      0.40101743     18421.214      0              0              0              0              0             -184.85649    
    622250   4956.7842      424.25023      4532.534       312.80694     -2884.1973      0.40101743     18421.214      0              0              0              0              0             -191.48101    
    622500   4925.3281      401.64468      4523.6834      296.13949     -1630.337       0.40101743     18421.214      0              0              0              0              0             -191.70007    
    622750   4967.8119      440.96159      4526.8503      325.12852     -3017.9521      0.40101743     18421.214      0              0              0              0              0             -195.70805    
    623000   4911.1672      417.22528      4493.942       307.62733     -1745.1889      0.40101743     18421.214      0              0              0              0              0             -191.88644    
    623250   4918.7818      383.76662      4535.0152      282.95769     -2620.3121      0.40101743     18421.214      0              0              0              0              0             -191.05236    
    623500   4975.8512      412.1177       4563.7335      303.86143     -2951.8739      0.40101743     18421.214      0              0              0              0              0             -185.34642    
    623750   4931.7579      410.24183      4521.516       302.47831     -2077.3414      0.40101743     18421.214      0              0              0              0              0             -183.16568    
    624000   4962.7493      423.07476      4539.6746      311.94025     -2343.511       0.40101743     18421.214      0              0              0              0              0             -188.9994     
    624250   4936.3344      397.24067      4539.0938      292.89234     -2898.8132      0.40101743     18421.214      0              0              0              0              0             -187.89817    
    624500   4984.9983      424.24946      4560.7488      312.80638     -2698.4468      0.40101743     18421.214      0              0              0              0              0             -181.98189    
    624750   4993.7832      439.56906      4554.2141      324.10178     -2049.449       0.40101743     18421.214      0              0              0              0              0             -175.07541    
    625000   4975.9248      418.7236       4557.2012      308.73207     -3246.3397      0.40101743     18421.214      0              0              0              0              0             -161.08396    
    625250   4933.4904      426.1351       4507.3553      314.19669     -1345.7765      0.40101743     18421.214      0              0              0              0              0             -163.83932    
    625500   4935.0859      412.86071      4522.2252      304.40926     -2053.8628      0.40101743     18421.214      0              0              0              0              0             -176.45017    
    625750   4913.5755      385.47455      4528.1009      284.21698     -2417.7132      0.40101743     18421.214      0              0              0              0              0             -178.09643    
    626000   4932.9395      388.98826      4543.9512      286.80769     -3036.4969      0.40101743     18421.214      0              0              0              0              0             -174.09945    
    626250   4955.9779      419.09995      4536.878       309.00956     -2166.3874      0.40101743     18421.214      0              0              0              0              0             -186.20978    
    626500   4950.2909      408.4509       4541.84        301.15783     -3461.9496      0.40101743     18421.214      0              0              0              0              0             -190.96776    
    626750   4932.1287      387.01271      4545.116       285.35109     -3553.5762      0.40101743     18421.214      0              0              0              0              0             -185.93791    
    627000   4927.5677      389.21977      4538.348       286.97839     -4452.3663      0.40101743     18421.214      0              0              0              0              0             -182.91087    
    627250   4925.2593      387.63338      4537.6259      285.80872     -2665.741       0.40101743     18421.214      0              0              0              0              0             -181.92825    
    627500   4928.7229      391.25919      4537.4637      288.48208     -2481.4472      0.40101743     18421.214      0              0              0              0              0             -189.2614     
    627750   4959.9471      423.67326      4536.2738      312.38154     -2270.6003      0.40101743     18421.214      0              0              0              0              0             -195.01601    
    628000   4968.2851      418.42672      4549.8584      308.51318     -2866.5343      0.40101743     18421.214      0              0              0              0              0             -191.70675    
    628250   4980.7691      409.47395      4571.2951      301.91214     -3002.2694      0.40101743     18421.214      0              0              0              0              0             -188.08434    
    628500   4948.7396      424.51835      4524.2213      313.00464     -2106.3318      0.40101743     18421.214      0              0              0              0              0             -189.76875    
    628750   4968.609       423.36394      4545.2451      312.15347     -2245.8745      0.40101743     18421.214      0              0              0              0              0             -185.8495     
    629000   4948.404       411.78804      4536.616       303.61836     -2097.0544      0.40101743     18421.214      0              0              0              0              0             -189.46457    
    629250   4936.9401      399.56682      4537.3733      294.60744     -2516.5078      0.40101743     18421.214      0              0              0              0              0             -178.49226    
    629500   4922.8912      400.81973      4522.0715      295.53124     -2508.2325      0.40101743     18421.214      0              0              0              0              0             -177.07885    
    629750   4935.7052      413.52776      4522.1775      304.90109     -3140.1604      0.40101743     18421.214      0              0              0              0              0             -182.71072    
    630000   4961.8965      426.31512      4535.5814      314.32943     -2292.6777      0.40101743     18421.214      0              0              0              0              0             -180.32287    
    630250   4937.9356      395.7995       4542.1361      291.82973     -3116.8257      0.40101743     18421.214      0              0              0              0              0             -175.23927    
    630500   4965.1324      445.446        4519.6864      328.43495     -3380.5778      0.40101743     18421.214      0              0              0              0              0             -186.07472    
    630750   4975.7031      427.72714      4547.976       315.37053     -3361.84        0.40101743     18421.214      0              0              0              0              0             -188.54998    
    631000   4967.1123      428.51646      4538.5959      315.95251     -1572.5506      0.40101743     18421.214      0              0              0              0              0             -189.10511    
    631250   4922.7743      393.14273      4529.6315      289.87086     -3519.9748      0.40101743     18421.214      0              0              0              0              0             -183.30037    
    631500   4933.4063      408.76437      4524.6419      301.38896     -3043.5024      0.40101743     18421.214      0              0              0              0              0             -186.16583    
    631750   4909.2428      379.29758      4529.9453      279.66259     -2160.4849      0.40101743     18421.214      0              0              0              0              0             -186.7712     
    632000   4884.2178      372.31468      4511.9031      274.51398     -3596.4523      0.40101743     18421.214      0              0              0              0              0             -181.54744    
    632250   4957.765       414.05298      4543.712       305.28834     -2859.3048      0.40101743     18421.214      0              0              0              0              0             -172.75759    
    632500   4960.2603      416.51596      4543.7444      307.10434     -3410.8968      0.40101743     18421.214      0              0              0              0              0             -173.67039    
    632750   4963.2723      438.47784      4524.7944      323.29721     -2403.9236      0.40101743     18421.214      0              0              0              0              0             -187.49033    
    633000   4954.7679      419.82037      4534.9475      309.54074     -3136.6547      0.40101743     18421.214      0              0              0              0              0             -194.38766    
    633250   4971.4091      424.97678      4546.4323      313.34265     -2672.5769      0.40101743     18421.214      0              0              0              0              0             -185.27041    
    633500   4947.809       397.1178       4550.6912      292.80174     -2580.3751      0.40101743     18421.214      0              0              0              0              0             -186.33284    
    633750   4899.7809      376.63039      4523.1505      277.69602     -2062.7541      0.40101743     18421.214      0              0              0              0              0             -190.12612    
    634000   4952.764       428.24062      4524.5234      315.74913     -2607.3933      0.40101743     18421.214      0              0              0              0              0             -189.57278    
    634250   4961.6161      432.67108      4528.945       319.01579     -3450.4764      0.40101743     18421.214      0              0              0              0              0             -192.52227    
    634500   4932.0121      391.06308      4540.949       288.33749     -2139.5599      0.40101743     18421.214      0              0              0              0              0             -190.16867    
    634750   4986.924       442.26243      4544.6616      326.08765     -2532.3127      0.40101743     18421.214      0              0              0              0              0             -186.84024    
    635000   4959.0077      430.02129      4528.9864      317.06205     -2090.2508      0.40101743     18421.214      0              0              0              0              0             -192.65884    
    635250   4947.3406      425.74103      4521.5996      313.90614     -2138.3885      0.40101743     18421.214      0              0              0              0              0             -183.37638    
    635500   4962.8344      422.51802      4540.3164      311.52976     -2181.3121      0.40101743     18421.214      0              0              0              0              0             -179.1855     
    635750   4938.5366      405.88664      4532.65        299.26716     -1621.0194      0.40101743     18421.214      0              0              0              0              0             -178.50708    
    636000   4962.3211      408.46371      4553.8574      301.16727     -2173.3654      0.40101743     18421.214      0              0              0              0              0             -184.23198    
    636250   4974.093       412.90142      4561.1916      304.43927     -4915.9739      0.40101743     18421.214      0              0              0              0              0             -177.02624    
    636500   4954.0708      405.81289      4548.2579      299.21278     -2578.5011      0.40101743     18421.214      0              0              0              0              0             -175.56852    
    636750   4948.1794      423.17457      4525.0048      312.01384     -2162.0483      0.40101743     18421.214      0              0              0              0              0             -180.79667    
    637000   4940.1874      416.06979      4524.1176      306.77537     -2523.5037      0.40101743     18421.214      0              0              0              0              0             -183.1797     
    637250   4950.3731      416.15606      4534.2171      306.83898     -1787.8485      0.40101743     18421.214      0              0              0              0              0             -176.59899    
    637500   4980.6246      429.08836      4551.5362      316.37418     -2922.6529      0.40101743     18421.214      0              0              0              0              0             -179.82291    
    637750   4954.1434      417.37486      4536.7686      307.73762     -1801.1668      0.40101743     18421.214      0              0              0              0              0             -174.24473    
    638000   4965.4755      422.60796      4542.8675      311.59607     -2770.689       0.40101743     18421.214      0              0              0              0              0             -175.75068    
    638250   4942.3184      412.55744      4529.761       304.18565     -2189.0754      0.40101743     18421.214      0              0              0              0              0             -180.75208    
    638500   4939.2487      388.18661      4551.0621      286.21662     -2707.9993      0.40101743     18421.214      0              0              0              0              0             -171.27827    
    638750   4924.5341      405.02227      4519.5118      298.62984     -3222.6247      0.40101743     18421.214      0              0              0              0              0             -176.47366    
    639000   4907.8443      390.10721      4517.737       287.63271     -2046.6882      0.40101743     18421.214      0              0              0              0              0             -156.31113    
    639250   4932.4144      382.64357      4549.7709      282.12964     -3153.1515      0.40101743     18421.214      0              0              0              0              0             -158.81418    
    639500   4917.8994      402.03183      4515.8676      296.42494     -2037.3481      0.40101743     18421.214      0              0              0              0              0             -168.60639    
    639750   4936.9845      392.92832      4544.0562      289.71277     -2989.0599      0.40101743     18421.214      0              0              0              0              0             -173.02049    
    640000   4931.0131      399.59082      4531.4222      294.62514     -2647.8456      0.40101743     18421.214      0              0              0              0              0             -174.75991    
    640250   4981.6853      439.04982      4542.6355      323.71893     -2454.6683      0.40101743     18421.214      0              0              0              0              0             -175.05154    
    640500   4916.0615      397.12395      4518.9376      292.80628     -1760.3437      0.40101743     18421.214      0              0              0              0              0             -180.40427    
    640750   4948.9324      420.34043      4528.5919      309.92418     -1695.5333      0.40101743     18421.214      0              0              0              0              0             -189.44941    
    641000   4926.7103      403.17808      4523.5322      297.27009     -2300.5452      0.40101743     18421.214      0              0              0              0              0             -181.79982    
    641250   4958.636       409.40729      4549.2287      301.86299     -2095.1998      0.40101743     18421.214      0              0              0              0              0             -183.90231    
    641500   4958.1314      413.21257      4544.9188      304.66869     -2521.1483      0.40101743     18421.214      0              0              0              0              0             -185.48329    
    641750   4966.9515      394.04397      4572.9075      290.53535     -3548.7511      0.40101743     18421.214      0              0              0              0              0             -177.82275    
    642000   4978.9858      451.01945      4527.9664      332.54435     -2445.7417      0.40101743     18421.214      0              0              0              0              0             -185.34637    
    642250   4975.5601      434.47981      4541.0803      320.34939     -2216.1814      0.40101743     18421.214      0              0              0              0              0             -177.33711    
    642500   4934.5024      398.60472      4535.8977      293.89807     -2080.7671      0.40101743     18421.214      0              0              0              0              0             -170.51354    
    642750   4941.7846      411.72372      4530.0609      303.57093     -1177.7129      0.40101743     18421.214      0              0              0              0              0             -164.76001    
    643000   4918           408.13758      4509.8624      300.92682     -2621.8521      0.40101743     18421.214      0              0              0              0              0             -168.59305    
    643250   4908.6175      393.18205      4515.4355      289.89985     -2261.1495      0.40101743     18421.214      0              0              0              0              0             -162.84561    
    643500   4937.2994      397.07411      4540.2253      292.76953     -1544.6613      0.40101743     18421.214      0              0              0              0              0             -151.05148    
    643750   4957.2606      429.41773      4527.8428      316.61703     -773.19702      0.40101743     18421.214      0              0              0              0              0             -155.17071    
    644000   4959.0593      422.00981      4537.0495      311.15505     -2688.1194      0.40101743     18421.214      0              0              0              0              0             -159.40126    
    644250   4956.5072      420.14898      4536.3582      309.78303     -2521.0402      0.40101743     18421.214      0              0              0              0              0             -168.65846    
    644500   4926.8409      422.71951      4504.1214      311.67832     -2576.5203      0.40101743     18421.214      0              0              0              0              0             -172.59707    
    644750   4979.556       420.93562      4558.6203      310.36303     -2131.4357      0.40101743     18421.214      0              0              0              0              0             -181.24556    
    645000   4984.212       449.95977      4534.2522      331.76303     -2774.6174      0.40101743     18421.214      0              0              0              0              0             -178.53986    
    645250   4960.7997      428.55472      4532.245       315.98072     -1331.0532      0.40101743     18421.214      0              0              0              0              0             -174.99921    
    645500   4952.6736      425.71499      4526.9587      313.88694     -3647.1967      0.40101743     18421.214      0              0              0              0              0             -165.31403    
    645750   4911.7036      383.60705      4528.0966      282.84004     -2509.8743      0.40101743     18421.214      0              0              0              0              0             -165.01628    
    646000   4932.2474      403.38619      4528.8612      297.42353     -1480.3456      0.40101743     18421.214      0              0              0              0              0             -172.38325    
    646250   4944.2558      406.55848      4537.6973      299.76252     -2207.8414      0.40101743     18421.214      0              0              0              0              0             -186.65061    
    646500   4960.4572      427.29779      4533.1594      315.05397     -3061.7252      0.40101743     18421.214      0              0              0              0              0             -186.5495     
    646750   4972.377       415.62154      4556.7554      306.44486     -2976.8652      0.40101743     18421.214      0              0              0              0              0             -183.48759    
    647000   4931.3473      392.3051       4539.0422      289.25326     -2655.7478      0.40101743     18421.214      0              0              0              0              0             -190.01652    
    647250   4940.7695      405.70235      4535.0671      299.13128     -2218.3038      0.40101743     18421.214      0              0              0              0              0             -190.39384    
    647500   4950.5321      413.6392       4536.8929      304.98325     -2706.2489      0.40101743     18421.214      0              0              0              0              0             -194.27853    
    647750   4920.8419      402.59926      4518.2426      296.84331     -3412.9909      0.40101743     18421.214      0              0              0              0              0             -186.3676     
    648000   4967.2592      420.48652      4546.7727      310.0319      -2869.92        0.40101743     18421.214      0              0              0              0              0             -185.6317     
    648250   4980.2109      436.7751       4543.4358      322.04175     -2666.7773      0.40101743     18421.214      0              0              0              0              0             -192.03118    
    648500   4955.5792      425.85619      4529.723       313.99105     -2304.4404      0.40101743     18421.214      0              0              0              0              0             -194.53234    
    648750   4967.7512      414.15675      4553.5944      305.36485     -3536.8072      0.40101743     18421.214      0              0              0              0              0             -191.45394    
    649000   4950.8944      404.21957      4546.6749      298.038       -2022.7639      0.40101743     18421.214      0              0              0              0              0             -193.59183    
    649250   4970.7474      428.6214       4542.126       316.02989     -3220.7667      0.40101743     18421.214      0              0              0              0              0             -195.76437    
    649500   4938.8215      408.81561      4530.0059      301.42674     -2695.694       0.40101743     18421.214      0              0              0              0              0             -193.64385    
    649750   4932.153       388.8657       4543.2873      286.71733     -2714.4477      0.40101743     18421.214      0              0              0              0              0             -198.60587    
    650000   4954.3628      415.14807      4539.2147      306.09577     -2321.345       0.40101743     18421.214      0              0              0              0              0             -195.63605    
    650250   4957.3746      439.44884      4517.9257      324.01314     -2869.5697      0.40101743     18421.214      0              0              0              0              0             -185.62542    
    650500   4936.3381      421.42322      4514.9148      310.72254     -2000.9608      0.40101743     18421.214      0              0              0              0              0             -184.68261    
    650750   4969.8515      408.55292      4561.2986      301.23305     -1779.3134      0.40101743     18421.214      0              0              0              0              0             -181.99103    
    651000   4979.063       437.70963      4541.3534      322.73079     -2991.6834      0.40101743     18421.214      0              0              0              0              0             -185.76038    
    651250   4965.6925      420.24555      4545.4469      309.85423     -2748.492       0.40101743     18421.214      0              0              0              0              0             -192.50685    
    651500   4920.859       404.73846      4516.1205      298.42059     -2414.6812      0.40101743     18421.214      0              0              0              0              0             -178.79135    
    651750   4960.3889      411.77256      4548.6164      303.60695     -2859.818       0.40101743     18421.214      0              0              0              0              0             -179.802      
    652000   4971.5527      426.94666      4544.6061      314.79507     -1598.7496      0.40101743     18421.214      0              0              0              0              0             -190.22471    
    652250   4939.7963      414.78923      4525.0071      305.83119     -2882.0464      0.40101743     18421.214      0              0              0              0              0             -188.17154    
    652500   4973.8267      419.4839       4554.3428      309.29265     -1716.0493      0.40101743     18421.214      0              0              0              0              0             -191.20181    
    652750   4964.3114      395.70773      4568.6037      291.76207     -2381.7032      0.40101743     18421.214      0              0              0              0              0             -194.71581    
    653000   4904.2993      400.23206      4504.0672      295.09794     -2590.5931      0.40101743     18421.214      0              0              0              0              0             -190.54922    
    653250   4955.8388      415.20577      4540.633       306.13831     -3633.9952      0.40101743     18421.214      0              0              0              0              0             -192.51949    
    653500   4965.6547      414.166        4551.4887      305.37167     -3139.4259      0.40101743     18421.214      0              0              0              0              0             -191.1741     
    653750   4967.2034      412.34251      4554.8609      304.02718     -2602.7957      0.40101743     18421.214      0              0              0              0              0             -185.15278    
    654000   4922.586       401.42692      4521.1591      295.97893     -2266.6489      0.40101743     18421.214      0              0              0              0              0             -183.80082    
    654250   4950.2038      404.90189      4545.3019      298.54108     -2776.2009      0.40101743     18421.214      0              0              0              0              0             -183.89854    
    654500   4965.6198      415.98714      4549.6327      306.71443     -2697.8762      0.40101743     18421.214      0              0              0              0              0             -188.15897    
    654750   4911.5454      391.67763      4519.8678      288.79061     -1966.3819      0.40101743     18421.214      0              0              0              0              0             -188.47545    
    655000   4989.0408      428.35224      4560.6886      315.83142     -2109.552       0.40101743     18421.214      0              0              0              0              0             -186.18258    
    655250   4991.4097      445.48284      4545.9269      328.46211     -3151.1712      0.40101743     18421.214      0              0              0              0              0             -171.65816    
    655500   4964.1375      414.80201      4549.3355      305.84061     -3815.96        0.40101743     18421.214      0              0              0              0              0             -183.84705    
    655750   4925.5129      404.17835      4521.3346      298.00761     -3269.7168      0.40101743     18421.214      0              0              0              0              0             -184.56568    
    656000   4936.8872      422.21416      4514.6731      311.30571     -1812.1019      0.40101743     18421.214      0              0              0              0              0             -193.31743    
    656250   4934.5102      400.88256      4533.6277      295.57757     -1553.5887      0.40101743     18421.214      0              0              0              0              0             -189.53842    
    656500   4915.2037      402.13543      4513.0682      296.50132     -1036.9261      0.40101743     18421.214      0              0              0              0              0             -188.13838    
    656750   4978.3275      426.19633      4552.1312      314.24184     -1508.7557      0.40101743     18421.214      0              0              0              0              0             -186.30478    
    657000   4958.1017      424.68974      4533.412       313.131       -1938.0571      0.40101743     18421.214      0              0              0              0              0             -184.33518    
    657250   4964.142       411.9908       4552.1512      303.76786     -1489.8607      0.40101743     18421.214      0              0              0              0              0             -190.93868    
    657500   4966.9438      443.87356      4523.0702      327.27556     -2458.3117      0.40101743     18421.214      0              0              0              0              0             -198.56201    
    657750   4973.5384      408.27378      4565.2646      301.02724     -3121.5128      0.40101743     18421.214      0              0              0              0              0             -199.00073    
    658000   4952.6051      421.48006      4531.1251      310.76445     -2999.6235      0.40101743     18421.214      0              0              0              0              0             -195.63939    
    658250   4964.8319      431.21201      4533.6199      317.93999     -2278.0554      0.40101743     18421.214      0              0              0              0              0             -198.0505     
    658500   4936.6234      389.36333      4547.26        287.08424     -4034.0103      0.40101743     18421.214      0              0              0              0              0             -191.34223    
    658750   4923.8556      395.88691      4527.9687      291.89419     -3159.1211      0.40101743     18421.214      0              0              0              0              0             -189.28118    
    659000   4919.977       382.58358      4537.3934      282.08541     -2349.9235      0.40101743     18421.214      0              0              0              0              0             -192.64265    
    659250   4920.1519      385.10231      4535.0495      283.94251     -3722.536       0.40101743     18421.214      0              0              0              0              0             -190.24532    
    659500   4940.0871      392.97107      4547.116       289.74429     -3038.1593      0.40101743     18421.214      0              0              0              0              0             -192.70294    
    659750   4958.9827      413.76799      4545.2147      305.07821     -3172.5589      0.40101743     18421.214      0              0              0              0              0             -196.0671     
    660000   4970.2193      432.12343      4538.0959      318.61199     -2419.9643      0.40101743     18421.214      0              0              0              0              0             -194.09872    
    660250   4953.831       415.45167      4538.3793      306.31962     -2764.1042      0.40101743     18421.214      0              0              0              0              0             -189.43746    
    660500   4960.8521      423.90972      4536.9423      312.55588     -2987.4924      0.40101743     18421.214      0              0              0              0              0             -191.25514    
    660750   4955.8928      413.0937       4542.7991      304.58105     -1176.8265      0.40101743     18421.214      0              0              0              0              0             -191.83578    
    661000   4949.0103      398.85802      4550.1523      294.08484     -2346.8699      0.40101743     18421.214      0              0              0              0              0             -190.12252    
    661250   4943.079       424.78816      4518.2909      313.20357     -2713.6304      0.40101743     18421.214      0              0              0              0              0             -182.01055    
    661500   4938.9447      422.36314      4516.5815      311.41556     -3607.4432      0.40101743     18421.214      0              0              0              0              0             -188.30518    
    661750   4921.8734      415.19535      4506.6781      306.13063     -2902.6242      0.40101743     18421.214      0              0              0              0              0             -190.73289    
    662000   4908.0451      405.49596      4502.5492      298.9791      -2420.3133      0.40101743     18421.214      0              0              0              0              0             -191.68211    
    662250   4977.0167      455.41118      4521.6055      335.78245     -1764.4968      0.40101743     18421.214      0              0              0              0              0             -197.24135    
    662500   4933.9733      405.53493      4528.4384      299.00784     -3008.241       0.40101743     18421.214      0              0              0              0              0             -197.94816    
    662750   4931.6936      425.69779      4505.9958      313.87426     -3216.7707      0.40101743     18421.214      0              0              0              0              0             -192.83291    
    663000   4934.3522      409.97032      4524.3819      302.27812     -2280.1799      0.40101743     18421.214      0              0              0              0              0             -191.06962    
    663250   4955.8023      420.11863      4535.6837      309.76065     -2250.876       0.40101743     18421.214      0              0              0              0              0             -186.88854    
    663500   4948.5213      420.52793      4527.9933      310.06243     -2724.5001      0.40101743     18421.214      0              0              0              0              0             -182.43352    
    663750   4935.9501      390.55878      4545.3913      287.96566     -1662.6586      0.40101743     18421.214      0              0              0              0              0             -182.782      
    664000   4906.0931      398.93834      4507.1547      294.14406     -2736.8939      0.40101743     18421.214      0              0              0              0              0             -184.86494    
    664250   4880.6667      374.44065      4506.226       276.08149     -3178.5691      0.40101743     18421.214      0              0              0              0              0             -188.336      
    664500   4931.2176      392.50844      4538.7092      289.40318     -2803.8469      0.40101743     18421.214      0              0              0              0              0             -183.96979    
    664750   4944.4672      421.15794      4523.3093      310.52695     -3006.6453      0.40101743     18421.214      0              0              0              0              0             -183.42988    
    665000   4932.8789      393.18078      4539.6982      289.89891     -1767.5939      0.40101743     18421.214      0              0              0              0              0             -188.33793    
    665250   4962.9733      387.35167      4575.6217      285.60101     -1834.7604      0.40101743     18421.214      0              0              0              0              0             -189.24977    
    665500   4959.7112      417.11698      4542.5943      307.54748     -2366.7803      0.40101743     18421.214      0              0              0              0              0             -190.77023    
    665750   4947.7435      400.70674      4547.0367      295.44793     -3071.7507      0.40101743     18421.214      0              0              0              0              0             -184.10542    
    666000   4965.3799      423.62185      4541.758       312.34363     -1704.7835      0.40101743     18421.214      0              0              0              0              0             -177.95472    
    666250   4971.8168      422.01046      4549.8064      311.15552     -3282.3519      0.40101743     18421.214      0              0              0              0              0             -177.99405    
    666500   4984.125       439.80309      4544.3219      324.27433     -1465.6052      0.40101743     18421.214      0              0              0              0              0             -181.51313    
    666750   4953.3585      404.6262       4548.7323      298.33781     -750.76341      0.40101743     18421.214      0              0              0              0              0             -185.83372    
    667000   4965.7014      432.35241      4533.349       318.78082     -3788.4978      0.40101743     18421.214      0              0              0              0              0             -185.5163     
    667250   4919.9295      382.55267      4537.3768      282.06262     -3080.8124      0.40101743     18421.214      0              0              0              0              0             -186.29486    
    667500   4986.3323      449.71302      4536.6193      331.5811      -2894.7194      0.40101743     18421.214      0              0              0              0              0             -188.58944    
    667750   4971.054       435.61452      4535.4395      321.18603     -2281.7582      0.40101743     18421.214      0              0              0              0              0             -192.78285    
    668000   4952.9566      408.01911      4544.9375      300.83946     -2411.5136      0.40101743     18421.214      0              0              0              0              0             -194.72592    
    668250   4959.1736      405.78338      4553.3902      299.19102     -3038.8673      0.40101743     18421.214      0              0              0              0              0             -188.18665    
    668500   4935.3495      407.08014      4528.2694      300.14715     -2604.9818      0.40101743     18421.214      0              0              0              0              0             -184.76437    
    668750   4940.0865      424.77611      4515.3104      313.19469     -3010.8879      0.40101743     18421.214      0              0              0              0              0             -185.17737    
    669000   4959.9435      416.64447      4543.299       307.19909     -2494.1512      0.40101743     18421.214      0              0              0              0              0             -178.72744    
    669250   4925.723       410.32607      4515.397       302.54043     -2009.2113      0.40101743     18421.214      0              0              0              0              0             -168.3416     
    669500   4912.4063      397.77473      4514.6316      293.28611     -2133.5858      0.40101743     18421.214      0              0              0              0              0             -170.0749     
    669750   4940.49        403.96489      4536.5251      297.85022     -2884.4281      0.40101743     18421.214      0              0              0              0              0             -177.26296    
    670000   4942.5977      391.39193      4551.2058      288.57996     -2615.2597      0.40101743     18421.214      0              0              0              0              0             -172.00592    
    670250   4943.8412      411.67344      4532.1678      303.53386     -2582.1522      0.40101743     18421.214      0              0              0              0              0             -176.29444    
    670500   4929.2285      417.24415      4511.9843      307.64124     -3894.0686      0.40101743     18421.214      0              0              0              0              0             -184.73405    
    670750   4949.4629      411.29901      4538.1639      303.25779     -2683.7532      0.40101743     18421.214      0              0              0              0              0             -172.89302    
    671000   4948.287       398.23432      4550.0527      293.62497     -3551.0507      0.40101743     18421.214      0              0              0              0              0             -176.82784    
    671250   4945.3656      405.79798      4539.5676      299.20179     -2870.7148      0.40101743     18421.214      0              0              0              0              0             -176.47951    
    671500   4956.6989      401.63455      4555.0643      296.13202     -2721.4613      0.40101743     18421.214      0              0              0              0              0             -179.42049    
    671750   4921.6984      402.13291      4519.5655      296.49947     -3015.1124      0.40101743     18421.214      0              0              0              0              0             -179.16441    
    672000   4978.298       436.79346      4541.5046      322.05528     -2342.6465      0.40101743     18421.214      0              0              0              0              0             -175.0733     
    672250   4946.6068      402.09651      4544.5103      296.47263     -2167.601       0.40101743     18421.214      0              0              0              0              0             -173.60233    
    672500   4949.951       415.41647      4534.5346      306.29366     -2958.4668      0.40101743     18421.214      0              0              0              0              0             -169.08625    
    672750   4944.3681      425.16988      4519.1982      313.48502     -1349.7653      0.40101743     18421.214      0              0              0              0              0             -167.91005    
    673000   4940.4058      396.31732      4544.0885      292.21153     -1466.7204      0.40101743     18421.214      0              0              0              0              0             -177.182      
    673250   4963.918       420.20901      4543.709       309.82729     -4196.7361      0.40101743     18421.214      0              0              0              0              0             -168.24213    
    673500   4973.5694      406.19933      4567.37        299.49771     -2816.7852      0.40101743     18421.214      0              0              0              0              0             -172.21825    
    673750   4941.1637      394.8874       4546.2763      291.15723     -3075.8754      0.40101743     18421.214      0              0              0              0              0             -167.39302    
    674000   4959.3788      405.45696      4553.9219      298.95034     -3190.6165      0.40101743     18421.214      0              0              0              0              0             -175.80793    
    674250   4954.7275      408.25338      4546.4741      301.01219     -1195.8537      0.40101743     18421.214      0              0              0              0              0             -171.48108    
    674500   4948.5068      412.32533      4536.1815      304.01451     -2081.7141      0.40101743     18421.214      0              0              0              0              0             -169.17528    
    674750   4947.8812      398.69285      4549.1883      293.96305     -2687.9883      0.40101743     18421.214      0              0              0              0              0             -162.63361    
    675000   4916.2533      386.59396      4529.6593      285.04233     -1760.5115      0.40101743     18421.214      0              0              0              0              0             -165.71436    
    675250   4945.7011      407.91977      4537.7814      300.76622     -3239.7264      0.40101743     18421.214      0              0              0              0              0             -163.88764    
    675500   4974.7341      433.18027      4541.5538      319.39122     -2262.3807      0.40101743     18421.214      0              0              0              0              0             -171.18961    
    675750   4943.4754      391.0989       4552.3765      288.36391     -3739.4194      0.40101743     18421.214      0              0              0              0              0             -178.02889    
    676000   4963.8335      426.79521      4537.0383      314.6834      -1683.4191      0.40101743     18421.214      0              0              0              0              0             -175.81356    
    676250   4971.1349      420.42681      4550.7081      309.98787     -3337.6966      0.40101743     18421.214      0              0              0              0              0             -185.62322    
    676500   4958.6836      412.6753       4546.0083      304.27256     -1892.3077      0.40101743     18421.214      0              0              0              0              0             -188.75033    
    676750   4939.6148      422.1491       4517.4657      311.25775     -2137.2215      0.40101743     18421.214      0              0              0              0              0             -189.57186    
    677000   4910.6779      377.39207      4533.2858      278.25762     -2847.9286      0.40101743     18421.214      0              0              0              0              0             -189.94843    
    677250   4962.6083      411.93207      4550.6763      303.72456     -3649.1156      0.40101743     18421.214      0              0              0              0              0             -178.51662    
    677500   4943.6954      405.82413      4537.8712      299.22106     -2292.9563      0.40101743     18421.214      0              0              0              0              0             -164.09284    
    677750   4937.6411      394.89366      4542.7474      291.16184     -2773.175       0.40101743     18421.214      0              0              0              0              0             -171.00053    
    678000   4956.3505      419.96692      4536.3836      309.64879     -2284.8078      0.40101743     18421.214      0              0              0              0              0             -180.55781    
    678250   4903.5428      400.08846      4503.4544      294.99206     -1922.0361      0.40101743     18421.214      0              0              0              0              0             -186.07921    
    678500   4940.3824      396.01614      4544.3663      291.98947     -2526.2107      0.40101743     18421.214      0              0              0              0              0             -186.80278    
    678750   4952.3256      410.36324      4541.9623      302.56783     -3404.5568      0.40101743     18421.214      0              0              0              0              0             -187.04537    
    679000   4985.9669      437.03325      4548.9337      322.23208     -3085.9719      0.40101743     18421.214      0              0              0              0              0             -191.48657    
    679250   4897.4483      387.56546      4509.8828      285.75864     -2211.4547      0.40101743     18421.214      0              0              0              0              0             -191.75636    
    679500   4969.6233      421.27195      4548.3514      310.61101     -2463.125       0.40101743     18421.214      0              0              0              0              0             -187.34235    
    679750   4995.7567      432.3092       4563.4475      318.74896     -1976.6025      0.40101743     18421.214      0              0              0              0              0             -183.13162    
    680000   4965.2504      436.41298      4528.8374      321.77475     -2247.5653      0.40101743     18421.214      0              0              0              0              0             -174.76399    
    680250   4992.6748      417.62462      4575.0501      307.92177     -2156.1534      0.40101743     18421.214      0              0              0              0              0             -172.91222    
    680500   4942.5036      405.60232      4536.9013      299.05752     -1937.6087      0.40101743     18421.214      0              0              0              0              0             -175.76775    
    680750   4936.8141      392.05292      4544.7612      289.06732     -2258.5305      0.40101743     18421.214      0              0              0              0              0             -171.58176    
    681000   4894.3356      361.27422      4533.0614      266.37366     -1740.6978      0.40101743     18421.214      0              0              0              0              0             -177.5784     
    681250   4934.0499      393.02591      4541.024       289.78472     -1135.4987      0.40101743     18421.214      0              0              0              0              0             -176.4181     
    681500   4933.4548      390.05696      4543.3978      287.59566     -1532.028       0.40101743     18421.214      0              0              0              0              0             -175.60803    
    681750   4911.922       404.3654       4507.5566      298.14552     -3034.0854      0.40101743     18421.214      0              0              0              0              0             -179.84728    
    682000   4914.6293      387.96765      4526.6617      286.05518     -2716.3255      0.40101743     18421.214      0              0              0              0              0             -187.70654    
    682250   4907.7445      399.39967      4508.3448      294.4842      -2043.3245      0.40101743     18421.214      0              0              0              0              0             -185.69382    
    682500   4953.2805      419.36778      4533.9128      309.20703     -2531.9392      0.40101743     18421.214      0              0              0              0              0             -192.5939     
    682750   4934.6704      412.89605      4521.7743      304.43531     -2208.9989      0.40101743     18421.214      0              0              0              0              0             -193.65316    
    683000   4923.1659      402.8125       4520.3534      297.00054     -3550.4045      0.40101743     18421.214      0              0              0              0              0             -191.37477    
    683250   4916.7692      403.78212      4512.987       297.71546     -1682.8171      0.40101743     18421.214      0              0              0              0              0             -188.99499    
    683500   4962.0508      429.43616      4532.6147      316.63062     -2281.6938      0.40101743     18421.214      0              0              0              0              0             -193.59864    
    683750   4953.7436      413.95412      4539.7895      305.21545     -1517.4893      0.40101743     18421.214      0              0              0              0              0             -189.28995    
    684000   4955.8489      417.25144      4538.5974      307.64662     -1865.0852      0.40101743     18421.214      0              0              0              0              0             -190.7776     
    684250   4992.8698      442.05629      4550.8135      325.93566     -1414.9252      0.40101743     18421.214      0              0              0              0              0             -194.72863    
    684500   4917.5268      370.31683      4547.2099      273.04093     -3195.1813      0.40101743     18421.214      0              0              0              0              0             -198.59743    
    684750   4980.8906      445.43638      4535.4542      328.42785     -3058.1164      0.40101743     18421.214      0              0              0              0              0             -196.66978    
    685000   4897.1667      354.90176      4542.265       261.67513     -2501.9678      0.40101743     18421.214      0              0              0              0              0             -192.32017    
    685250   4936.9546      406.13216      4530.8224      299.44818     -1997.9189      0.40101743     18421.214      0              0              0              0              0             -182.35729    
    685500   4961.5295      421.67507      4539.8544      310.90824     -1454.2365      0.40101743     18421.214      0              0              0              0              0             -185.41969    
    685750   4948.3688      399.98697      4548.3818      294.91723     -2575.4114      0.40101743     18421.214      0              0              0              0              0             -181.97972    
    686000   4938.8059      420.20276      4518.6032      309.82268     -3101.3606      0.40101743     18421.214      0              0              0              0              0             -178.97399    
    686250   4944.7174      422.43955      4522.2778      311.4719      -1561.689       0.40101743     18421.214      0              0              0              0              0             -180.40736    
    686500   4882.4935      379.41772      4503.0758      279.75117     -3059.4153      0.40101743     18421.214      0              0              0              0              0             -176.31446    
    686750   4939.2686      402.91909      4536.3495      297.07913     -3023.2856      0.40101743     18421.214      0              0              0              0              0             -184.8593     
    687000   4979.7286      425.10817      4554.6205      313.43952     -2705.556       0.40101743     18421.214      0              0              0              0              0             -177.80357    
    687250   4995.8764      416.5565       4579.3199      307.13423     -2476.0251      0.40101743     18421.214      0              0              0              0              0             -183.11225    
    687500   4947.8124      419.12313      4528.6893      309.02665     -2444.6351      0.40101743     18421.214      0              0              0              0              0             -184.31548    
    687750   4973.2194      425.28282      4547.9366      313.56829     -2066.1577      0.40101743     18421.214      0              0              0              0              0             -182.93242    
    688000   4944.4173      407.59138      4536.8259      300.52409     -2283.0898      0.40101743     18421.214      0              0              0              0              0             -188.54686    
    688250   4911.712       382.30265      4529.4094      281.87828     -2867.505       0.40101743     18421.214      0              0              0              0              0             -191.70969    
    688500   4957.6003      406.35297      4551.2473      299.61099     -3406.6559      0.40101743     18421.214      0              0              0              0              0             -180.21197    
    688750   4930.1487      417.4219       4512.7268      307.7723      -2850.9042      0.40101743     18421.214      0              0              0              0              0             -172.66063    
    689000   4931.6031      409.93876      4521.6644      302.25485     -2855.4303      0.40101743     18421.214      0              0              0              0              0             -183.17749    
    689250   4967.1189      417.77451      4549.3444      308.03229     -2624.3727      0.40101743     18421.214      0              0              0              0              0             -184.96725    
    689500   4922.8209      420.27743      4502.5435      309.87773     -2449.4303      0.40101743     18421.214      0              0              0              0              0             -174.46813    
    689750   4902.1614      367.99764      4534.1638      271.33095     -2267.7476      0.40101743     18421.214      0              0              0              0              0             -186.16995    
    690000   4921.242       384.75013      4536.4918      283.68285     -3073.8197      0.40101743     18421.214      0              0              0              0              0             -188.41194    
    690250   4894.7982      385.72171      4509.0765      284.39921     -3352.4598      0.40101743     18421.214      0              0              0              0              0             -191.64293    
    690500   4944.3155      405.01977      4539.2958      298.628       -2227.6233      0.40101743     18421.214      0              0              0              0              0             -194.18506    
    690750   4908.3342      388.81418      4519.5201      286.67934     -2850.1902      0.40101743     18421.214      0              0              0              0              0             -190.03985    
    691000   4947.3455      402.69906      4544.6465      296.9169      -2435.9713      0.40101743     18421.214      0              0              0              0              0             -193.58731    
    691250   4961.1294      418.43598      4542.6934      308.52        -2064.8818      0.40101743     18421.214      0              0              0              0              0             -190.90661    
    691500   4968.8278      408.73858      4560.0892      301.36994     -3508.6607      0.40101743     18421.214      0              0              0              0              0             -191.8774     
    691750   4949.719       421.28887      4528.4302      310.62349     -3356.7095      0.40101743     18421.214      0              0              0              0              0             -192.3966     
    692000   4951.3516      403.22112      4548.1305      297.30182     -1722.5033      0.40101743     18421.214      0              0              0              0              0             -196.18818    
    692250   4983.4224      445.38397      4538.0385      328.38921     -3004.6339      0.40101743     18421.214      0              0              0              0              0             -196.07966    
    692500   4965.374       418.03836      4547.3357      308.22683     -2737.3699      0.40101743     18421.214      0              0              0              0              0             -193.86924    
    692750   4973.9955      441.45545      4532.5401      325.49265     -1573.9985      0.40101743     18421.214      0              0              0              0              0             -190.50335    
    693000   4942.588       389.98482      4552.6032      287.54247     -3021.2919      0.40101743     18421.214      0              0              0              0              0             -193.69024    
    693250   4922.564       415.29428      4507.2697      306.20357     -2660.2595      0.40101743     18421.214      0              0              0              0              0             -197.58185    
    693500   4924.1878      389.0472       4535.1406      286.85115     -3103.0481      0.40101743     18421.214      0              0              0              0              0             -195.2578     
    693750   4931.2314      397.53506      4533.6963      293.1094      -3548.0066      0.40101743     18421.214      0              0              0              0              0             -191.28244    
    694000   4956.6894      428.06654      4528.6229      315.62078     -2058.0855      0.40101743     18421.214      0              0              0              0              0             -183.53379    
    694250   4945.7432      420.73226      4525.0109      310.21309     -2427.6567      0.40101743     18421.214      0              0              0              0              0             -182.17043    
    694500   4947.9461      407.18556      4540.7605      300.22487     -1981.2952      0.40101743     18421.214      0              0              0              0              0             -178.85219    
    694750   4952.5638      420.16957      4532.3942      309.79821     -2524.003       0.40101743     18421.214      0              0              0              0              0             -179.20017    
    695000   4965.2148      424.04739      4541.1674      312.65739     -3433.0012      0.40101743     18421.214      0              0              0              0              0             -185.93999    
    695250   4952.3455      405.77036      4546.5752      299.18142     -2175.3891      0.40101743     18421.214      0              0              0              0              0             -190.51876    
    695500   4916.2394      395.47903      4520.7603      291.59345     -3306.7414      0.40101743     18421.214      0              0              0              0              0             -187.55366    
    695750   4976.547       426.93759      4549.6094      314.78838     -1426.8456      0.40101743     18421.214      0              0              0              0              0             -188.26554    
    696000   4956.5256      428.82234      4527.7033      316.17804     -1840.1487      0.40101743     18421.214      0              0              0              0              0             -194.90096    
    696250   4936.6601      409.9326       4526.7275      302.25031     -1679.4176      0.40101743     18421.214      0              0              0              0              0             -189.53228    
    696500   4914.1079      409.74844      4504.3594      302.11453     -2464.013       0.40101743     18421.214      0              0              0              0              0             -187.5745     
    696750   4959.6522      419.54945      4540.1028      309.34098     -4199.2508      0.40101743     18421.214      0              0              0              0              0             -188.21819    
    697000   4942.5125      398.15906      4544.3534      293.56948     -1624.7343      0.40101743     18421.214      0              0              0              0              0             -186.58742    
    697250   4966.9989      417.96874      4549.0301      308.17549     -1592.3934      0.40101743     18421.214      0              0              0              0              0             -187.55806    
    697500   4928.8039      387.81282      4540.9911      285.94102     -2802.4819      0.40101743     18421.214      0              0              0              0              0             -190.55334    
    697750   4973.5883      441.4424       4532.1459      325.48303     -2364.8859      0.40101743     18421.214      0              0              0              0              0             -195.15184    
    698000   4920.9081      395.41151      4525.4966      291.54367     -2103.4179      0.40101743     18421.214      0              0              0              0              0             -192.72427    
    698250   4963.8639      431.31811      4532.5458      318.01822     -2701.6144      0.40101743     18421.214      0              0              0              0              0             -194.36505    
    698500   4944.2521      417.96083      4526.2913      308.16966     -2465.0093      0.40101743     18421.214      0              0              0              0              0             -193.4877     
    698750   4925.2666      397.39463      4527.8719      293.00585     -2199.6642      0.40101743     18421.214      0              0              0              0              0             -196.00276    
    699000   4947.3887      418.436        4528.9527      308.52002     -1531.1504      0.40101743     18421.214      0              0              0              0              0             -185.27643    
    699250   4934.7652      406.20754      4528.5577      299.50376     -3461.8455      0.40101743     18421.214      0              0              0              0              0             -193.29829    
    699500   4956.5449      404.08181      4552.4631      297.93642     -3811.4193      0.40101743     18421.214      0              0              0              0              0             -191.10162    
    699750   4937.6516      410.84859      4526.803       302.92569     -2288.7189      0.40101743     18421.214      0              0              0              0              0             -190.64307    
    700000   4965.3799      398.21572      4567.1642      293.61125     -1793.2876      0.40101743     18421.214      0              0              0              0              0             -189.81272    
    700250   4929.0189      403.2225       4525.7964      297.30284     -2095.495       0.40101743     18421.214      0              0              0              0              0             -191.08128    
    700500   4940.322       419.43019      4520.8918      309.25305     -3011.3036      0.40101743     18421.214      0              0              0              0              0             -186.65749    
    700750   4945.7347      416.10867      4529.6261      306.80403     -3362.6751      0.40101743     18421.214      0              0              0              0              0             -175.01142    
    701000   4981.7797      414.53262      4567.2471      305.64199     -2488.6544      0.40101743     18421.214      0              0              0              0              0             -169.46167    
    701250   4956.4153      415.47316      4540.9422      306.33546     -1888.8313      0.40101743     18421.214      0              0              0              0              0             -174.79726    
    701500   4976.891       425.66487      4551.2261      313.84998     -2366.3829      0.40101743     18421.214      0              0              0              0              0             -188.28985    
    701750   4947.0792      415.49822      4531.581       306.35394     -2347.4972      0.40101743     18421.214      0              0              0              0              0             -195.54684    
    702000   4945.6827      396.57573      4549.107       292.40206     -3290.3677      0.40101743     18421.214      0              0              0              0              0             -192.62856    
    702250   4914.635       385.73495      4528.9001      284.40897     -1117.3146      0.40101743     18421.214      0              0              0              0              0             -187.61919    
    702500   4953.3379      434.26491      4519.073       320.19094     -1804.3222      0.40101743     18421.214      0              0              0              0              0             -189.85016    
    702750   4903.9848      390.86799      4513.1168      288.19365     -2310.1094      0.40101743     18421.214      0              0              0              0              0             -184.6858     
    703000   4931.3691      395.18383      4536.1852      291.37579     -3337.8818      0.40101743     18421.214      0              0              0              0              0             -184.52103    
    703250   4948.456       408.82719      4539.6288      301.43527     -2792.5599      0.40101743     18421.214      0              0              0              0              0             -182.75546    
    703500   4960.5103      421.02879      4539.4815      310.43172     -2255.3447      0.40101743     18421.214      0              0              0              0              0             -180.80257    
    703750   4941.657       398.69462      4542.9624      293.96436     -2814.0723      0.40101743     18421.214      0              0              0              0              0             -182.03468    
    704000   4899.4793      364.94826      4534.5311      269.08259     -3529.1877      0.40101743     18421.214      0              0              0              0              0             -189.98158    
    704250   4945.3392      405.03856      4540.3006      298.64185     -2118.5734      0.40101743     18421.214      0              0              0              0              0             -184.80631    
    704500   4937.4761      406.00896      4531.4671      299.35734     -2589.3662      0.40101743     18421.214      0              0              0              0              0             -183.37991    
    704750   4963.0495      413.99235      4549.0572      305.24364     -2058.0235      0.40101743     18421.214      0              0              0              0              0             -180.96052    
    705000   4977.4196      419.85244      4557.5672      309.56438     -4217.0717      0.40101743     18421.214      0              0              0              0              0             -175.4894     
    705250   4975.1026      429.57757      4545.525       316.73489     -2583.8364      0.40101743     18421.214      0              0              0              0              0             -170.52052    
    705500   4921.1411      391.19761      4529.9435      288.43669     -2163.2298      0.40101743     18421.214      0              0              0              0              0             -184.02182    
    705750   4953.2418      428.3574       4524.8844      315.83523     -1714.5473      0.40101743     18421.214      0              0              0              0              0             -179.97462    
    706000   4902.6042      384.95552      4517.6486      283.83428     -2256.2264      0.40101743     18421.214      0              0              0              0              0             -179.61377    
    706250   4937.0953      410.32861      4526.7667      302.5423      -3176.9245      0.40101743     18421.214      0              0              0              0              0             -161.59978    
    706500   4977.3257      426.23763      4551.088       314.27229     -1626.9206      0.40101743     18421.214      0              0              0              0              0             -161.7186     
    706750   4968.0671      434.71092      4533.3561      320.51979     -2987.3435      0.40101743     18421.214      0              0              0              0              0             -174.95894    
    707000   4969.7764      429.18612      4540.5903      316.44626     -2519.5269      0.40101743     18421.214      0              0              0              0              0             -168.27922    
    707250   4960.6075      417.67064      4542.9369      307.9557      -3095.9378      0.40101743     18421.214      0              0              0              0              0             -168.45437    
    707500   4929.2752      389.32061      4539.9546      287.05274     -2756.2117      0.40101743     18421.214      0              0              0              0              0             -170.99324    
    707750   4914.4001      392.13171      4522.2684      289.12541     -2741.6351      0.40101743     18421.214      0              0              0              0              0             -159.24278    
    708000   5012.2         452.04911      4560.1509      333.30354     -3430.3876      0.40101743     18421.214      0              0              0              0              0             -156.8821     
    708250   4967.7547      432.65392      4535.1008      319.00313     -2642.8133      0.40101743     18421.214      0              0              0              0              0             -168.5998     
    708500   4957.961       432.42294      4525.538       318.83282     -1093.7637      0.40101743     18421.214      0              0              0              0              0             -183.68741    
    708750   4940.5098      403.97425      4536.5356      297.85712     -2617.9775      0.40101743     18421.214      0              0              0              0              0             -191.77306    
    709000   4913.1832      390.51207      4522.6711      287.93122     -1546.0249      0.40101743     18421.214      0              0              0              0              0             -191.54719    
    709250   4944.6213      423.25545      4521.3658      312.07348     -3318.1477      0.40101743     18421.214      0              0              0              0              0             -189.26713    
    709500   4985.176       424.07924      4561.0967      312.68087     -1329.4176      0.40101743     18421.214      0              0              0              0              0             -192.43892    
    709750   4933.7425      392.68509      4541.0574      289.53343     -4231.0796      0.40101743     18421.214      0              0              0              0              0             -195.02228    
    710000   4953.3238      403.02192      4550.3018      297.15495     -3787.5753      0.40101743     18421.214      0              0              0              0              0             -189.36064    
    710250   4988.4939      435.35809      4553.1358      320.99696     -2304.3122      0.40101743     18421.214      0              0              0              0              0             -188.51       
    710500   4937.7082      412.36262      4525.3456      304.04201     -3437.6547      0.40101743     18421.214      0              0              0              0              0             -184.63279    
    710750   4938.2005      409.44699      4528.7535      301.89226     -1952.6526      0.40101743     18421.214      0              0              0              0              0             -174.38449    
    711000   4948.566       414.13498      4534.431       305.3488      -2627.7681      0.40101743     18421.214      0              0              0              0              0             -171.53614    
    711250   4971.3007      429.56941      4541.7313      316.72887     -3078.4305      0.40101743     18421.214      0              0              0              0              0             -179.46373    
    711500   4911.9339      386.47543      4525.4584      284.95494     -3103.268       0.40101743     18421.214      0              0              0              0              0             -176.87058    
    711750   4920.3779      403.03715      4517.3408      297.16618     -1702.7981      0.40101743     18421.214      0              0              0              0              0             -165.58475    
    712000   4945.4874      397.76398      4547.7235      293.27818     -3039.7904      0.40101743     18421.214      0              0              0              0              0             -171.4575     
    712250   4938.4223      392.57451      4545.8478      289.4519      -1564.0539      0.40101743     18421.214      0              0              0              0              0             -180.05854    
    712500   4985.8479      442.97515      4542.8728      326.61315     -3372.7736      0.40101743     18421.214      0              0              0              0              0             -180.91958    
    712750   4960.2524      408.84982      4551.4026      301.45196     -3383.3726      0.40101743     18421.214      0              0              0              0              0             -187.66097    
    713000   4982.7932      404.00589      4578.7873      297.88044     -3891.2925      0.40101743     18421.214      0              0              0              0              0             -182.7113     
    713250   4926.3143      388.50589      4537.8084      286.45204     -2882.3339      0.40101743     18421.214      0              0              0              0              0             -175.94805    
    713500   4967.3311      411.5579       4555.7732      303.44868     -3311.8918      0.40101743     18421.214      0              0              0              0              0             -172.77285    
    713750   4983.8914      420.2366       4563.6548      309.84763     -2190.9901      0.40101743     18421.214      0              0              0              0              0             -172.36472    
    714000   4930.8749      418.09681      4512.7781      308.26992     -3129.8042      0.40101743     18421.214      0              0              0              0              0             -167.38186    
    714250   4948.3937      398.319        4550.0747      293.6874      -2033.2172      0.40101743     18421.214      0              0              0              0              0             -163.21411    
    714500   4952.7776      414.37312      4538.4045      305.52438     -2784.3031      0.40101743     18421.214      0              0              0              0              0             -171.86186    
    714750   4965.0376      416.381        4548.6566      307.00483     -1185.7011      0.40101743     18421.214      0              0              0              0              0             -152.83869    
    715000   5004.0684      412.39656      4591.6719      304.06703     -2517.1287      0.40101743     18421.214      0              0              0              0              0             -158.32598    
    715250   4939.1395      391.26113      4547.8784      288.48352     -2887.0512      0.40101743     18421.214      0              0              0              0              0             -162.76428    
    715500   4938.114       399.45871      4538.6552      294.52774     -1973.1699      0.40101743     18421.214      0              0              0              0              0             -173.20593    
    715750   4926.5147      401.55143      4524.9633      296.07073     -2702.6892      0.40101743     18421.214      0              0              0              0              0             -179.58341    
    716000   4888.9778      369.47847      4519.4994      272.42279     -2105.342       0.40101743     18421.214      0              0              0              0              0             -177.25008    
    716250   4950.5634      408.81322      4541.7502      301.42498     -2625.9217      0.40101743     18421.214      0              0              0              0              0             -179.15889    
    716500   4932.5614      411.58379      4520.9776      303.46776     -3215.7141      0.40101743     18421.214      0              0              0              0              0             -181.67418    
    716750   4923.9155      398.54063      4525.3749      293.85082     -2268.8662      0.40101743     18421.214      0              0              0              0              0             -180.06778    
    717000   4959.9734      418.72651      4541.2469      308.73421     -2594.3786      0.40101743     18421.214      0              0              0              0              0             -165.87896    
    717250   4971.7423      418.26385      4553.4785      308.39309     -2044.1281      0.40101743     18421.214      0              0              0              0              0             -166.22198    
    717500   4941.5879      416.44551      4525.1424      307.05239     -2546.0046      0.40101743     18421.214      0              0              0              0              0             -168.97496    
    717750   4910.7193      397.66403      4513.0553      293.20448     -2365.4094      0.40101743     18421.214      0              0              0              0              0             -177.78518    
    718000   4942.7638      428.7617       4514.0021      316.13333     -1187.8338      0.40101743     18421.214      0              0              0              0              0             -180.59729    
    718250   4952.5029      406.58699      4545.9159      299.78354     -3398.1107      0.40101743     18421.214      0              0              0              0              0             -179.45051    
    718500   4904.4419      395.57129      4508.8706      291.66147     -1814.769       0.40101743     18421.214      0              0              0              0              0             -175.97523    
    718750   4983.7308      431.95713      4551.7736      318.48937     -2582.1352      0.40101743     18421.214      0              0              0              0              0             -178.36725    
    719000   4937.1526      404.75755      4532.3951      298.43466     -1998.228       0.40101743     18421.214      0              0              0              0              0             -179.86677    
    719250   4941.9258      415.39803      4526.5277      306.28007     -2128.27        0.40101743     18421.214      0              0              0              0              0             -187.15128    
    719500   4924.9548      406.6073       4518.3475      299.79851     -1636.1496      0.40101743     18421.214      0              0              0              0              0             -196.26973    
    719750   4960.2088      422.0731       4538.1357      311.20171     -2558.7957      0.40101743     18421.214      0              0              0              0              0             -186.37909    
    720000   4937.9188      406.2913       4531.6275      299.56552     -1030.401       0.40101743     18421.214      0              0              0              0              0             -187.65398    
    720250   4972.555       445.13301      4527.422       328.20418     -2879.1251      0.40101743     18421.214      0              0              0              0              0             -182.28856    
    720500   4954.4987      398.95798      4555.5407      294.15854     -1643.3672      0.40101743     18421.214      0              0              0              0              0             -179.80471    
    720750   4888.2644      377.41528      4510.8491      278.27473     -2611.258       0.40101743     18421.214      0              0              0              0              0             -186.36738    
    721000   4947.2128      417.10968      4530.1031      307.54209     -2545.7263      0.40101743     18421.214      0              0              0              0              0             -189.60353    
    721250   4988.1697      421.20333      4566.9664      310.56042     -2659.5927      0.40101743     18421.214      0              0              0              0              0             -184.3437     
    721500   4971.7164      428.77833      4542.9381      316.14559     -3299.8158      0.40101743     18421.214      0              0              0              0              0             -178.00281    
    721750   4936.5595      383.70466      4552.8548      282.912       -3148.8282      0.40101743     18421.214      0              0              0              0              0             -188.09341    
    722000   4922.6755      397.65411      4525.0214      293.19717     -1439.901       0.40101743     18421.214      0              0              0              0              0             -191.30104    
    722250   4909.558       396.31296      4513.245       292.20832     -2502.9856      0.40101743     18421.214      0              0              0              0              0             -191.70538    
    722500   4945.2015      402.19626      4543.0053      296.54618     -3192.9196      0.40101743     18421.214      0              0              0              0              0             -190.41698    
    722750   4925.6981      400.68668      4525.0115      295.43314     -2037.6085      0.40101743     18421.214      0              0              0              0              0             -194.15284    
    723000   4905.3206      397.89243      4507.4282      293.37289     -1329.2955      0.40101743     18421.214      0              0              0              0              0             -194.79836    
    723250   4939.3794      401.77744      4537.602       296.23737     -2728.1117      0.40101743     18421.214      0              0              0              0              0             -195.49305    
    723500   4949.6317      399.87858      4549.7531      294.83731     -1760.807       0.40101743     18421.214      0              0              0              0              0             -190.02781    
    723750   4975.3501      420.59498      4554.7551      310.11187     -2388.2748      0.40101743     18421.214      0              0              0              0              0             -184.4777     
    724000   4955.4567      424.1571       4531.2996      312.73828     -2543.2781      0.40101743     18421.214      0              0              0              0              0             -191.04028    
    724250   4921.666       411.18876      4510.4773      303.1765      -3222.9106      0.40101743     18421.214      0              0              0              0              0             -190.00128    
    724500   4961.8539      424.76359      4537.0903      313.18545     -1958.5522      0.40101743     18421.214      0              0              0              0              0             -183.32886    
    724750   4932.8663      405.15616      4527.7102      298.72856     -1159.3943      0.40101743     18421.214      0              0              0              0              0             -183.32937    
    725000   4933.6681      405.78502      4527.883       299.19223     -2618.6364      0.40101743     18421.214      0              0              0              0              0             -190.96568    
    725250   4956.6821      409.39688      4547.2852      301.85531     -3839.1608      0.40101743     18421.214      0              0              0              0              0             -187.90568    
    725500   4983.8579      434.00117      4549.8567      319.99648     -3555.693       0.40101743     18421.214      0              0              0              0              0             -185.75472    
    725750   4948.5299      406.88437      4541.6455      300.0028      -3385.6837      0.40101743     18421.214      0              0              0              0              0             -186.0459     
    726000   4938.206       429.92775      4508.2783      316.99308     -1770.9556      0.40101743     18421.214      0              0              0              0              0             -188.68229    
    726250   4936.1249      417.21056      4518.9143      307.61648     -2487.1012      0.40101743     18421.214      0              0              0              0              0             -189.27229    
    726500   4941.5875      400.06275      4541.5247      294.9731      -2029.8593      0.40101743     18421.214      0              0              0              0              0             -187.48532    
    726750   4941.1863      401.53967      4539.6466      296.06207     -2520.9171      0.40101743     18421.214      0              0              0              0              0             -183.20828    
    727000   4940.9852      410.71051      4530.2747      302.82388     -1843.9802      0.40101743     18421.214      0              0              0              0              0             -185.50318    
    727250   4956.0435      448.28087      4507.7626      330.52515     -3241.5107      0.40101743     18421.214      0              0              0              0              0             -186.47575    
    727500   4923.5811      417.78538      4505.7957      308.0403      -2277.1014      0.40101743     18421.214      0              0              0              0              0             -182.52357    
    727750   4957.7287      418.07345      4539.6553      308.2527      -1754.7585      0.40101743     18421.214      0              0              0              0              0             -184.09906    
    728000   4933.4628      399.33857      4534.1242      294.43915     -3036.8376      0.40101743     18421.214      0              0              0              0              0             -183.96386    
    728250   4949.0214      411.71192      4537.3095      303.56224     -4128.1747      0.40101743     18421.214      0              0              0              0              0             -177.76536    
    728500   4963.0103      416.56799      4546.4423      307.1427      -2908.7031      0.40101743     18421.214      0              0              0              0              0             -185.4724     
    728750   4966.8922      394.33746      4572.5547      290.75175     -3027.4933      0.40101743     18421.214      0              0              0              0              0             -197.06194    
    729000   4940.5959      418.84861      4521.7473      308.82424     -2013.6692      0.40101743     18421.214      0              0              0              0              0             -192.43565    
    729250   4946.9649      405.6737       4541.2912      299.11016     -3176.9936      0.40101743     18421.214      0              0              0              0              0             -183.97361    
    729500   4937.5924      428.58773      4509.0047      316.00506     -1849.539       0.40101743     18421.214      0              0              0              0              0             -185.10657    
    729750   4930.044       395.69896      4534.345       291.75561     -3641.3376      0.40101743     18421.214      0              0              0              0              0             -183.95272    
    730000   4951.115       413.41489      4537.7001      304.81787     -3792.5595      0.40101743     18421.214      0              0              0              0              0             -170.88472    
    730250   4953.4834      422.91768      4530.5657      311.82444     -2691.9988      0.40101743     18421.214      0              0              0              0              0             -178.84626    
    730500   4900.4608      371.4733       4528.9875      273.89361     -2248.0449      0.40101743     18421.214      0              0              0              0              0             -179.40796    
    730750   4954.5224      412.77281      4541.7496      304.34445     -1970.5261      0.40101743     18421.214      0              0              0              0              0             -173.2874     
    731000   4934.5807      400.57527      4534.0054      295.351       -1843.8702      0.40101743     18421.214      0              0              0              0              0             -181.23748    
    731250   4962.8225      444.05782      4518.7647      327.41142     -1300.948       0.40101743     18421.214      0              0              0              0              0             -181.83818    
    731500   4947.7355      427.73737      4519.9981      315.37808     -3099.8125      0.40101743     18421.214      0              0              0              0              0             -182.31294    
    731750   4955.4149      424.7636       4530.6513      313.18546     -2334.7539      0.40101743     18421.214      0              0              0              0              0             -174.57956    
    732000   4914.4116      387.62114      4526.7905      285.79969     -3203.0672      0.40101743     18421.214      0              0              0              0              0             -166.76037    
    732250   4930.3145      389.6657       4540.6488      287.30718     -2882.1302      0.40101743     18421.214      0              0              0              0              0             -166.82482    
    732500   4954.1253      402.5237       4551.6016      296.7876      -2564.9984      0.40101743     18421.214      0              0              0              0              0             -177.47067    
    732750   4968.2589      414.1509       4554.108       305.36054     -1619.7573      0.40101743     18421.214      0              0              0              0              0             -179.43945    
    733000   4946.9874      406.05867      4540.9288      299.394       -2691.4714      0.40101743     18421.214      0              0              0              0              0             -178.56672    
    733250   4903.9944      391.12456      4512.8698      288.38282     -2245.167       0.40101743     18421.214      0              0              0              0              0             -175.79472    
    733500   4946.2469      381.52092      4564.726       281.3019      -3553.0663      0.40101743     18421.214      0              0              0              0              0             -163.18903    
    733750   4975.2497      424.45541      4550.7943      312.95823     -920.03977      0.40101743     18421.214      0              0              0              0              0             -175.47136    
    734000   4927.2241      424.56813      4502.656       313.04134     -1845.411       0.40101743     18421.214      0              0              0              0              0             -179.87726    
    734250   4940.5263      392.49472      4548.0316      289.39307     -2137.484       0.40101743     18421.214      0              0              0              0              0             -180.58839    
    734500   4935.7091      387.74848      4547.9606      285.89359     -2360.2471      0.40101743     18421.214      0              0              0              0              0             -188.45551    
    734750   4935.9149      412.46496      4523.45        304.11747     -2084.9449      0.40101743     18421.214      0              0              0              0              0             -192.82599    
    735000   4974.6029      421.7759       4552.827       310.98258     -2398.4347      0.40101743     18421.214      0              0              0              0              0             -195.80125    
    735250   4945.9637      407.91043      4538.0533      300.75934     -3348.0193      0.40101743     18421.214      0              0              0              0              0             -200.00235    
    735500   4950.8234      420.74139      4530.082       310.21982     -1747.7341      0.40101743     18421.214      0              0              0              0              0             -198.54203    
    735750   4942.917       415.26225      4527.6547      306.17995     -1699.8963      0.40101743     18421.214      0              0              0              0              0             -190.95015    
    736000   4970.2455      407.81484      4562.4307      300.68885     -3073.6804      0.40101743     18421.214      0              0              0              0              0             -190.0157     
    736250   4976.2706      431.89879      4544.3718      318.44636     -3392.6812      0.40101743     18421.214      0              0              0              0              0             -182.42266    
    736500   4931.1031      415.80226      4515.3008      306.57811     -878.85014      0.40101743     18421.214      0              0              0              0              0             -181.56806    
    736750   4932.6211      393.37         4539.2511      290.03842     -3380.7356      0.40101743     18421.214      0              0              0              0              0             -183.81905    
    737000   4961.2821      422.651        4538.6311      311.6278      -3309.5585      0.40101743     18421.214      0              0              0              0              0             -188.97651    
    737250   4937.823       409.22041      4528.6026      301.7252      -2988.1602      0.40101743     18421.214      0              0              0              0              0             -193.13996    
    737500   4978.8228      432.33046      4546.4924      318.76464     -1196.5868      0.40101743     18421.214      0              0              0              0              0             -190.69118    
    737750   4943.5557      387.27619      4556.2795      285.54536     -2933.1152      0.40101743     18421.214      0              0              0              0              0             -190.75361    
    738000   4948.6216      412.78934      4535.8322      304.35664     -2658.0656      0.40101743     18421.214      0              0              0              0              0             -194.20793    
    738250   4946.5852      422.78541      4523.7998      311.72691     -1700.5705      0.40101743     18421.214      0              0              0              0              0             -185.3014     
    738500   4935.0204      400.29163      4534.7287      295.14186     -3022.0655      0.40101743     18421.214      0              0              0              0              0             -170.47479    
    738750   4931.0719      407.97464      4523.0973      300.80668     -1767.1678      0.40101743     18421.214      0              0              0              0              0             -176.98845    
    739000   4961.9678      411.44359      4550.5242      303.36439     -2132.3482      0.40101743     18421.214      0              0              0              0              0             -176.84175    
    739250   4915.7738      409.06721      4506.7066      301.61225     -2858.7833      0.40101743     18421.214      0              0              0              0              0             -181.27097    
    739500   4958.0183      408.34822      4549.67        301.08212     -1258.2974      0.40101743     18421.214      0              0              0              0              0             -188.95715    
    739750   4955.265       409.36156      4545.9034      301.82928     -1854.7239      0.40101743     18421.214      0              0              0              0              0             -188.19624    
    740000   4949.0033      409.20354      4539.7998      301.71276     -770.126        0.40101743     18421.214      0              0              0              0              0             -190.0457     
    740250   4952.621       412.72282      4539.8982      304.30759     -1789.6949      0.40101743     18421.214      0              0              0              0              0             -193.2563     
    740500   4930.5867      405.95436      4524.6324      299.31709     -1860.4988      0.40101743     18421.214      0              0              0              0              0             -185.54632    
    740750   4934.8625      391.18622      4543.6763      288.42828     -3041.4698      0.40101743     18421.214      0              0              0              0              0             -186.87942    
    741000   4970.4722      420.81605      4549.6562      310.27486     -1882.9835      0.40101743     18421.214      0              0              0              0              0             -185.77031    
    741250   4968.2589      432.16147      4536.0975      318.64004     -2499.1283      0.40101743     18421.214      0              0              0              0              0             -185.60047    
    741500   4962.8027      434.94535      4527.8574      320.69264     -2762.6857      0.40101743     18421.214      0              0              0              0              0             -171.7403     
    741750   4952.4451      415.19274      4537.2523      306.1287      -2070.8922      0.40101743     18421.214      0              0              0              0              0             -178.36129    
    742000   4918.2761      389.89537      4528.3807      287.47652     -2360.7803      0.40101743     18421.214      0              0              0              0              0             -181.76434    
    742250   4957.2757      422.56616      4534.7096      311.56525     -2231.7184      0.40101743     18421.214      0              0              0              0              0             -186.52456    
    742500   4949.8993      413.28274      4536.6166      304.72043     -1964.1061      0.40101743     18421.214      0              0              0              0              0             -183.97925    
    742750   4912.7967      399.27314      4513.5235      294.39091     -3550.6222      0.40101743     18421.214      0              0              0              0              0             -179.78909    
    743000   4961.8538      414.09489      4547.7589      305.31924     -3237.0702      0.40101743     18421.214      0              0              0              0              0             -180.25839    
    743250   4954.0852      433.63165      4520.4535      319.72403     -2460.8969      0.40101743     18421.214      0              0              0              0              0             -185.30303    
    743500   4959.1453      411.81747      4547.3278      303.64006     -3080.0998      0.40101743     18421.214      0              0              0              0              0             -186.69198    
    743750   4959.5912      414.4788       4545.1124      305.6023      -2502.8053      0.40101743     18421.214      0              0              0              0              0             -183.01646    
    744000   4964.6624      427.05512      4537.6073      314.87504     -2630.323       0.40101743     18421.214      0              0              0              0              0             -192.89821    
    744250   4964.9905      404.31779      4560.6727      298.11042     -2830.1816      0.40101743     18421.214      0              0              0              0              0             -188.02887    
    744500   4913.4291      398.34112      4515.0879      293.70372     -1151.5688      0.40101743     18421.214      0              0              0              0              0             -195.20232    
    744750   4904.7285      385.02343      4519.705       283.88436     -1778.3868      0.40101743     18421.214      0              0              0              0              0             -195.8765     
    745000   4968.5461      420.89243      4547.6537      310.33118     -2831.7273      0.40101743     18421.214      0              0              0              0              0             -187.40966    
    745250   4949.3098      406.89142      4542.4184      300.008       -2733.0671      0.40101743     18421.214      0              0              0              0              0             -176.95591    
    745500   4930.2494      400.24017      4530.0092      295.10392     -3064.0797      0.40101743     18421.214      0              0              0              0              0             -186.09736    
    745750   4937.4427      410.42142      4527.0213      302.61072     -3829.1545      0.40101743     18421.214      0              0              0              0              0             -189.54828    
    746000   4957.8326      418.36692      4539.4656      308.46908     -2493.7295      0.40101743     18421.214      0              0              0              0              0             -189.51002    
    746250   4960.229       420.68862      4539.5404      310.18091     -2664.0205      0.40101743     18421.214      0              0              0              0              0             -189.83182    
    746500   4925.6212      412.53081      4513.0904      304.16602     -2185.8972      0.40101743     18421.214      0              0              0              0              0             -182.93356    
    746750   4918.5934      405.97692      4512.6165      299.33372     -2942.1895      0.40101743     18421.214      0              0              0              0              0             -170.11519    
    747000   4942.2307      418.84069      4523.39        308.8184      -1882.2377      0.40101743     18421.214      0              0              0              0              0             -174.51289    
    747250   4963.6424      411.61582      4552.0266      303.49138     -1712.4408      0.40101743     18421.214      0              0              0              0              0             -182.89178    
    747500   5018.6933      447.50466      4571.1887      329.95284     -2211.904       0.40101743     18421.214      0              0              0              0              0             -182.14442    
    747750   4993.9488      439.58393      4554.3649      324.11274     -3994.0693      0.40101743     18421.214      0              0              0              0              0             -170.67482    
    748000   4932.0963      418.8536       4513.2427      308.82792     -1618.312       0.40101743     18421.214      0              0              0              0              0             -169.67253    
    748250   4939.6451      399.2906       4540.3545      294.40379     -2920.1118      0.40101743     18421.214      0              0              0              0              0             -174.56656    
    748500   4938.9177      417.04933      4521.8683      307.4976      -1101.987       0.40101743     18421.214      0              0              0              0              0             -169.91687    
    748750   4981.5648      435.48333      4546.0815      321.0893      -2391.3893      0.40101743     18421.214      0              0              0              0              0             -174.19181    
    749000   4948.6028      412.43894      4536.1639      304.09828     -2778.8811      0.40101743     18421.214      0              0              0              0              0             -179.43813    
    749250   4906.0168      393.12565      4512.8911      289.85826     -2613.2079      0.40101743     18421.214      0              0              0              0              0             -180.24912    
    749500   4919.0505      399.72023      4519.3303      294.72056     -3413.8614      0.40101743     18421.214      0              0              0              0              0             -186.43029    
    749750   4968.6831      432.07113      4536.6119      318.57343     -2408.9014      0.40101743     18421.214      0              0              0              0              0             -184.22677    
    750000   4932.6594      399.57146      4533.0879      294.61087     -2701.2027      0.40101743     18421.214      0              0              0              0              0             -182.81242    
    750250   4917.6167      405.17563      4512.4411      298.74292     -3882.2853      0.40101743     18421.214      0              0              0              0              0             -187.17405    
    750500   4964.559       410.38106      4554.178       302.58097     -1716.3601      0.40101743     18421.214      0              0              0              0              0             -191.64623    
    750750   4944.6804      395.5317       4549.1487      291.63229     -2945.6094      0.40101743     18421.214      0              0              0              0              0             -197.40583    
    751000   4947.3911      429.68444      4517.7066      316.81368     -2855.0059      0.40101743     18421.214      0              0              0              0              0             -190.80411    
    751250   4961.6294      412.29796      4549.3315      303.99434     -1747.8786      0.40101743     18421.214      0              0              0              0              0             -191.15958    
    751500   5005.3881      435.11313      4570.2749      320.81635     -3527.8998      0.40101743     18421.214      0              0              0              0              0             -191.81634    
    751750   4981.0128      439.61233      4541.4004      324.13369     -2401.507       0.40101743     18421.214      0              0              0              0              0             -181.29642    
    752000   4952.6622      400.20147      4552.4607      295.07538     -2055.9753      0.40101743     18421.214      0              0              0              0              0             -183.76029    
    752250   4935.6138      417.06789      4518.5459      307.51128     -3719.6666      0.40101743     18421.214      0              0              0              0              0             -185.8577     
    752500   4936.1356      418.71341      4517.4222      308.72455     -2525.2437      0.40101743     18421.214      0              0              0              0              0             -182.37322    
    752750   4940.1452      397.78574      4542.3594      293.29423     -1670.2593      0.40101743     18421.214      0              0              0              0              0             -183.54649    
    753000   4910.4672      385.7749       4524.6923      284.43843     -2870.8598      0.40101743     18421.214      0              0              0              0              0             -191.99977    
    753250   4922.0604      387.38655      4534.6738      285.62672     -2557.5188      0.40101743     18421.214      0              0              0              0              0             -181.18875    
    753500   4970.4536      416.89066      4553.563       307.38061     -2609.0636      0.40101743     18421.214      0              0              0              0              0             -180.80395    
    753750   4940.3421      404.72192      4535.6201      298.40839     -1380.0076      0.40101743     18421.214      0              0              0              0              0             -175.0658     
    754000   4971.8773      404.53009      4567.3472      298.26695     -2190.3941      0.40101743     18421.214      0              0              0              0              0             -165.28821    
    754250   4932.9947      396.12305      4536.8717      292.06829     -2709.2279      0.40101743     18421.214      0              0              0              0              0             -178.09308    
    754500   4921.8059      393.02104      4528.7849      289.78113     -2669.4566      0.40101743     18421.214      0              0              0              0              0             -182.15129    
    754750   4929.778       404.07224      4525.7057      297.92937     -3485.7791      0.40101743     18421.214      0              0              0              0              0             -175.40499    
    755000   4937.941       418.75442      4519.1866      308.75479     -2509.412       0.40101743     18421.214      0              0              0              0              0             -159.35374    
    755250   4989.2823      412.55701      4576.7253      304.18534     -1835.9496      0.40101743     18421.214      0              0              0              0              0             -154.71088    
    755500   4959.4085      427.14771      4532.2607      314.94331     -1956.0206      0.40101743     18421.214      0              0              0              0              0             -154.17603    
    755750   4923.1603      385.94799      4537.2123      284.56605     -2783.6714      0.40101743     18421.214      0              0              0              0              0             -172.67494    
    756000   4975.2826      437.50664      4537.776       322.58112     -2749.3147      0.40101743     18421.214      0              0              0              0              0             -173.01198    
    756250   4927.8947      406.04642      4521.8483      299.38497     -2799.7459      0.40101743     18421.214      0              0              0              0              0             -183.66803    
    756500   4930.1886      419.92342      4510.2652      309.61672     -3630.3901      0.40101743     18421.214      0              0              0              0              0             -184.24531    
    756750   4966.7079      417.90735      4548.8005      308.13023     -2793.246       0.40101743     18421.214      0              0              0              0              0             -182.28718    
    757000   4954.6216      420.18506      4534.4365      309.80963     -2364.3667      0.40101743     18421.214      0              0              0              0              0             -177.72142    
    757250   4952.3497      434.93271      4517.417       320.68332     -1539.7327      0.40101743     18421.214      0              0              0              0              0             -183.06687    
    757500   4979.0155      426.56887      4552.4466      314.51652     -2106.8096      0.40101743     18421.214      0              0              0              0              0             -194.69751    
    757750   4972.3986      419.62953      4552.7691      309.40002     -2370.5276      0.40101743     18421.214      0              0              0              0              0             -192.33838    
    758000   4927.4695      401.98289      4525.4866      296.38885     -1219.2831      0.40101743     18421.214      0              0              0              0              0             -177.95992    
    758250   4917.6368      416.73811      4500.8987      307.26813     -1757.9304      0.40101743     18421.214      0              0              0              0              0             -179.98196    
    758500   4957.5135      407.84098      4549.6726      300.70813     -2943.4806      0.40101743     18421.214      0              0              0              0              0             -188.14128    
    758750   4933.8444      398.66666      4535.1777      293.94374     -2478.12        0.40101743     18421.214      0              0              0              0              0             -190.79687    
    759000   4900.2905      380.40202      4519.8885      280.47691     -3196.9778      0.40101743     18421.214      0              0              0              0              0             -187.21247    
    759250   4934.2678      380.52512      4553.7427      280.56767     -1746.785       0.40101743     18421.214      0              0              0              0              0             -189.32937    
    759500   4923.8808      400.11223      4523.7686      295.00958     -2799.7913      0.40101743     18421.214      0              0              0              0              0             -189.99071    
    759750   4968.2054      419.24331      4548.9621      309.11526     -2658.761       0.40101743     18421.214      0              0              0              0              0             -195.11124    
    760000   4911.5739      407.59611      4503.9778      300.52758     -3134.8294      0.40101743     18421.214      0              0              0              0              0             -190.98808    
    760250   4942.6726      405.38926      4537.2833      298.90043     -2451.4743      0.40101743     18421.214      0              0              0              0              0             -187.30041    
    760500   4952.978       400.79087      4552.1871      295.50996     -1627.4824      0.40101743     18421.214      0              0              0              0              0             -192.20045    
    760750   4945.5199      399.75888      4545.7611      294.74906     -2628.7729      0.40101743     18421.214      0              0              0              0              0             -185.67782    
    761000   4974.6619      420.68593      4553.976       310.17893     -2546.2473      0.40101743     18421.214      0              0              0              0              0             -188.06838    
    761250   4929.1017      401.37807      4527.7237      295.94291     -3264.7776      0.40101743     18421.214      0              0              0              0              0             -194.54549    
    761500   4953.4233      412.13011      4541.2932      303.87057     -1834.4929      0.40101743     18421.214      0              0              0              0              0             -191.95084    
    761750   4937.2164      408.51026      4528.7061      301.2016      -2040.4749      0.40101743     18421.214      0              0              0              0              0             -189.47299    
    762000   4956.2386      416.00651      4540.2321      306.72871     -2995.0356      0.40101743     18421.214      0              0              0              0              0             -185.27549    
    762250   4979.6892      432.99568      4546.6936      319.25512     -2651.7344      0.40101743     18421.214      0              0              0              0              0             -191.48067    
    762500   4934.0254      398.20023      4535.8252      293.59984     -2284.1169      0.40101743     18421.214      0              0              0              0              0             -193.87278    
    762750   4976.8861      421.44928      4555.4368      310.74176     -3553.1915      0.40101743     18421.214      0              0              0              0              0             -191.3365     
    763000   4944.5974      416.82231      4527.7751      307.33021     -2474.546       0.40101743     18421.214      0              0              0              0              0             -188.21276    
    763250   4903.5376      392.86245      4510.6751      289.6642      -3903.4712      0.40101743     18421.214      0              0              0              0              0             -185.15481    
    763500   4954.7829      409.7699       4545.013       302.13035     -2278.4836      0.40101743     18421.214      0              0              0              0              0             -183.48338    
    763750   4962.0233      435.3027       4526.7206      320.95612     -1308.243       0.40101743     18421.214      0              0              0              0              0             -181.15434    
    764000   4953.8908      401.94928      4551.9415      296.36408     -2996.4647      0.40101743     18421.214      0              0              0              0              0             -177.5549     
    764250   4930.8309      404.23197      4526.5989      298.04714     -3557.2432      0.40101743     18421.214      0              0              0              0              0             -178.62365    
    764500   4930.508       392.91225      4537.5957      289.70092     -3366.711       0.40101743     18421.214      0              0              0              0              0             -179.30197    
    764750   4914.4341      381.09472      4533.3394      280.98765     -2687.9701      0.40101743     18421.214      0              0              0              0              0             -166.45054    
    765000   4925.5529      381.83903      4543.7139      281.53644     -2388.4964      0.40101743     18421.214      0              0              0              0              0             -158.25178    
    765250   4944.0773      417.57699      4526.5003      307.88665     -2922.851       0.40101743     18421.214      0              0              0              0              0             -177.9298     
    765500   4917.8599      388.58254      4529.2774      286.50855     -3153.2294      0.40101743     18421.214      0              0              0              0              0             -185.03621    
    765750   4927.9311      398.3438       4529.5873      293.70569     -3062.92        0.40101743     18421.214      0              0              0              0              0             -179.14778    
    766000   4938.5195      402.21999      4536.2995      296.56367     -2342.0462      0.40101743     18421.214      0              0              0              0              0             -177.54426    
    766250   4931.3233      410.5513       4520.772       302.70649     -2017.164       0.40101743     18421.214      0              0              0              0              0             -185.17649    
    766500   4933.7705      403.0881       4530.6824      297.20375     -3301.012       0.40101743     18421.214      0              0              0              0              0             -183.82055    
    766750   4956.3271      415.14964      4541.1775      306.09693     -3069.9593      0.40101743     18421.214      0              0              0              0              0             -181.26622    
    767000   4986.2995      425.53354      4560.7659      313.75316     -2658.476       0.40101743     18421.214      0              0              0              0              0             -175.66607    
    767250   4954.6216      425.27974      4529.3418      313.56602     -1750.4256      0.40101743     18421.214      0              0              0              0              0             -178.72935    
    767500   4952.35        411.9312       4540.4188      303.72392     -2915.3077      0.40101743     18421.214      0              0              0              0              0             -185.62026    
    767750   4969.6455      442.24908      4527.3964      326.0778      -3356.1801      0.40101743     18421.214      0              0              0              0              0             -186.94821    
    768000   4992.3036      414.71234      4577.5912      305.7745      -3426.2503      0.40101743     18421.214      0              0              0              0              0             -186.56823    
    768250   4953.0442      423.37445      4529.6698      312.16122     -1322.1824      0.40101743     18421.214      0              0              0              0              0             -177.25044    
    768500   4940.8826      393.35789      4547.5247      290.02949     -1558.7826      0.40101743     18421.214      0              0              0              0              0             -163.12738    
    768750   4898.2404      378.55583      4519.6846      279.11568     -2463.1298      0.40101743     18421.214      0              0              0              0              0             -163.72628    
    769000   4948.8375      399.74714      4549.0903      294.7404      -1262.9028      0.40101743     18421.214      0              0              0              0              0             -169.00627    
    769250   4928.8471      403.24567      4525.6014      297.31993     -2815.0151      0.40101743     18421.214      0              0              0              0              0             -164.86272    
    769500   4964.3099      414.81466      4549.4953      305.84994     -3264.8967      0.40101743     18421.214      0              0              0              0              0             -169.95729    
    769750   4953.489       392.97885      4560.5102      289.75003     -2324.4931      0.40101743     18421.214      0              0              0              0              0             -182.37422    
    770000   4917.8738      402.88213      4514.9917      297.05188     -3676.7653      0.40101743     18421.214      0              0              0              0              0             -187.28718    
    770250   4941.9492      415.1607       4526.7885      306.10508     -3085.1465      0.40101743     18421.214      0              0              0              0              0             -179.13468    
    770500   4977.6188      427.7837       4549.8351      315.41223     -3271.0642      0.40101743     18421.214      0              0              0              0              0             -172.67609    
    770750   4953.5646      425.55408      4528.0105      313.7683      -2065.0199      0.40101743     18421.214      0              0              0              0              0             -178.84089    
    771000   4922.2968      395.45673      4526.8401      291.57701     -3546.2361      0.40101743     18421.214      0              0              0              0              0             -182.32438    
    771250   4914.9305      396.12172      4518.8088      292.06731     -2436.2502      0.40101743     18421.214      0              0              0              0              0             -176.45232    
    771500   4938.06        399.65982      4538.4002      294.67601     -2289.2216      0.40101743     18421.214      0              0              0              0              0             -177.90524    
    771750   4985.7913      424.47521      4561.3161      312.97283     -2412.4945      0.40101743     18421.214      0              0              0              0              0             -183.40458    
    772000   4987.8861      425.98906      4561.897       314.08902     -2959.9554      0.40101743     18421.214      0              0              0              0              0             -170.46884    
    772250   4963.8163      434.52195      4529.2944      320.38046     -2807.0397      0.40101743     18421.214      0              0              0              0              0             -163.75789    
    772500   4968.7828      411.56945      4557.2134      303.45719     -2348.0879      0.40101743     18421.214      0              0              0              0              0             -168.98377    
    772750   5000.0366      448.69622      4551.3403      330.83139     -2636.2992      0.40101743     18421.214      0              0              0              0              0             -176.44606    
    773000   4927.8172      406.42516      4521.392       299.66422     -1520.7633      0.40101743     18421.214      0              0              0              0              0             -175.85258    
    773250   4919.2532      393.52147      4525.7317      290.15011     -2403.6701      0.40101743     18421.214      0              0              0              0              0             -185.52739    
    773500   4963.1615      409.0094       4554.1521      301.56962     -3235.6859      0.40101743     18421.214      0              0              0              0              0             -191.04645    
    773750   4929.7232      386.42581      4543.2974      284.91835     -3023.3133      0.40101743     18421.214      0              0              0              0              0             -179.79934    
    774000   4937.5641      410.04096      4527.5232      302.33021     -2236.5298      0.40101743     18421.214      0              0              0              0              0             -177.68682    
    774250   4924.3847      389.66818      4534.7165      287.30901     -1984.3835      0.40101743     18421.214      0              0              0              0              0             -176.23205    
    774500   4955.1734      409.1239       4546.0495      301.65405     -3251.9437      0.40101743     18421.214      0              0              0              0              0             -177.97865    
    774750   4955.8769      412.05882      4543.818       303.81801     -3064.6254      0.40101743     18421.214      0              0              0              0              0             -177.21326    
    775000   4944.3972      419.60892      4524.7883      309.38483     -3799.9742      0.40101743     18421.214      0              0              0              0              0             -184.44911    
    775250   4946.6585      408.48004      4538.1785      301.17931     -2736.2871      0.40101743     18421.214      0              0              0              0              0             -191.31787    
    775500   4939.4989      413.93321      4525.5657      305.20003     -1718.1644      0.40101743     18421.214      0              0              0              0              0             -190.16578    
    775750   4937.4145      395.47167      4541.9429      291.58802     -2282.9202      0.40101743     18421.214      0              0              0              0              0             -186.33996    
    776000   4958.0616      425.67448      4532.3871      313.85707     -2129.7973      0.40101743     18421.214      0              0              0              0              0             -185.44743    
    776250   4894.6327      384.87643      4509.7562      283.77597     -3215.5449      0.40101743     18421.214      0              0              0              0              0             -185.09942    
    776500   4896.1018      387.90903      4508.1928      286.01196     -2701.4432      0.40101743     18421.214      0              0              0              0              0             -193.11154    
    776750   4950.3028      398.02047      4552.2823      293.4673      -2472.1235      0.40101743     18421.214      0              0              0              0              0             -190.29008    
    777000   4971.1227      424.75015      4546.3725      313.17555     -2365.3979      0.40101743     18421.214      0              0              0              0              0             -187.05277    
    777250   4936.3837      425.61052      4510.7731      313.80991     -2853.8357      0.40101743     18421.214      0              0              0              0              0             -188.79856    
    777500   4935.4361      398.93764      4536.4985      294.14354     -2677.2595      0.40101743     18421.214      0              0              0              0              0             -189.42046    
    777750   4923.0405      395.96427      4527.0763      291.95122     -2074.6232      0.40101743     18421.214      0              0              0              0              0             -191.91492    
    778000   4937.733       416.5478       4521.1852      307.12782     -2619.2187      0.40101743     18421.214      0              0              0              0              0             -188.76367    
    778250   4930.4821      405.54921      4524.9329      299.01836     -2862.8242      0.40101743     18421.214      0              0              0              0              0             -191.14359    
    778500   4897.7411      375.36667      4522.3744      276.76426     -2631.1034      0.40101743     18421.214      0              0              0              0              0             -189.08263    
    778750   4974.54        439.66447      4534.8756      324.17213     -3418.1963      0.40101743     18421.214      0              0              0              0              0             -191.36946    
    779000   4951.8019      405.6842       4546.1177      299.1179      -3432.8172      0.40101743     18421.214      0              0              0              0              0             -180.35245    
    779250   4943.6702      406.85756      4536.8126      299.98303     -3767.5729      0.40101743     18421.214      0              0              0              0              0             -176.2846     
    779500   4929.6247      380.56975      4549.0549      280.60058     -2445.1272      0.40101743     18421.214      0              0              0              0              0             -181.0403     
    779750   4957.6081      421.91314      4535.695       311.08377     -2263.0864      0.40101743     18421.214      0              0              0              0              0             -191.5982     
    780000   4962.6603      426.94778      4535.7126      314.7959      -1410.9001      0.40101743     18421.214      0              0              0              0              0             -193.85373    
    780250   4959.9553      427.62623      4532.3291      315.29613     -2911.2916      0.40101743     18421.214      0              0              0              0              0             -190.09233    
    780500   4955.0342      412.68537      4542.3488      304.27998     -3208.2879      0.40101743     18421.214      0              0              0              0              0             -183.98883    
    780750   4953.7906      411.31298      4542.4776      303.26809     -4163.3368      0.40101743     18421.214      0              0              0              0              0             -174.23823    
    781000   4927.572       408.44411      4519.1278      301.15282     -3342.8123      0.40101743     18421.214      0              0              0              0              0             -173.95196    
    781250   4913.7768      417.52232      4496.2545      307.84635     -1370.6886      0.40101743     18421.214      0              0              0              0              0             -170.32048    
    781500   4973.5127      414.99966      4558.513       305.98634     -3171.2888      0.40101743     18421.214      0              0              0              0              0             -162.82245    
    781750   4937.3135      383.15974      4554.1538      282.51022     -3648.1142      0.40101743     18421.214      0              0              0              0              0             -162.36966    
    782000   4939.7135      413.14126      4526.5723      304.61611     -2783.9471      0.40101743     18421.214      0              0              0              0              0             -149.91465    
    782250   4963.4096      422.11248      4541.2971      311.23075     -2336.7259      0.40101743     18421.214      0              0              0              0              0             -139.12196    
    782500   4903.024       389.96631      4513.0577      287.52883     -2481.2924      0.40101743     18421.214      0              0              0              0              0             -146.65049    
    782750   4930.9757      409.98021      4520.9955      302.28541     -2483.9424      0.40101743     18421.214      0              0              0              0              0             -154.22781    
    783000   4941.0133      393.96318      4547.0501      290.47579     -3440.6774      0.40101743     18421.214      0              0              0              0              0             -165.58726    
    783250   4940.182       394.81848      4545.3635      291.10641     -2419.9088      0.40101743     18421.214      0              0              0              0              0             -162.97605    
    783500   4933.5045      394.74145      4538.763       291.04962     -2880.2224      0.40101743     18421.214      0              0              0              0              0             -173.65063    
    783750   4966.9093      431.74594      4535.1634      318.33366     -684.52101      0.40101743     18421.214      0              0              0              0              0             -178.79867    
    784000   4947.9047      437.21284      4510.6918      322.3645      -2113.0346      0.40101743     18421.214      0              0              0              0              0             -179.14766    
    784250   4971.5375      428.79559      4542.7419      316.15832     -3245.627       0.40101743     18421.214      0              0              0              0              0             -182.22515    
    784500   4926.232       416.56928      4509.6627      307.14365     -3055.1543      0.40101743     18421.214      0              0              0              0              0             -179.80537    
    784750   4919.7904      400.9817       4518.8087      295.65066     -2934.8429      0.40101743     18421.214      0              0              0              0              0             -178.20397    
    785000   4969.8297      432.40885      4537.4208      318.82244     -3090.538       0.40101743     18421.214      0              0              0              0              0             -183.45716    
    785250   4945.9162      429.1556       4516.7606      316.42376     -2933.57        0.40101743     18421.214      0              0              0              0              0             -180.7235     
    785500   4979.82        412.31537      4567.5046      304.00717     -1371.5658      0.40101743     18421.214      0              0              0              0              0             -182.87851    
    785750   4936.674       400.80069      4535.8733      295.5172      -2250.4349      0.40101743     18421.214      0              0              0              0              0             -185.47641    
    786000   4912.523       402.08163      4510.4413      296.46166     -2737.7923      0.40101743     18421.214      0              0              0              0              0             -190.51713    
    786250   4941.5106      416.23924      4525.2714      306.90031     -2765.1653      0.40101743     18421.214      0              0              0              0              0             -189.15514    
    786500   4925.3418      383.38507      4541.9567      282.67636     -2207.6259      0.40101743     18421.214      0              0              0              0              0             -188.27987    
    786750   4949.2142      414.27139      4534.9428      305.44938     -2355.7966      0.40101743     18421.214      0              0              0              0              0             -186.5358     
    787000   4950.4933      414.24537      4536.2479      305.43019     -3817.0064      0.40101743     18421.214      0              0              0              0              0             -190.79654    
    787250   4915.4096      382.27675      4533.1329      281.85918     -3543.6065      0.40101743     18421.214      0              0              0              0              0             -187.73143    
    787500   4907.6499      400.45387      4507.196       295.26148     -2349.5516      0.40101743     18421.214      0              0              0              0              0             -190.09804    
    787750   4940.1729      401.98817      4538.1847      296.39275     -2315.0944      0.40101743     18421.214      0              0              0              0              0             -191.63043    
    788000   4934.905       417.61929      4517.2857      307.91784     -2014.2791      0.40101743     18421.214      0              0              0              0              0             -191.89967    
    788250   4932.7715      429.53649      4503.235       316.7046      -2345.5629      0.40101743     18421.214      0              0              0              0              0             -188.14366    
    788500   4959.5024      420.80146      4538.7009      310.26411     -1938.0988      0.40101743     18421.214      0              0              0              0              0             -195.12374    
    788750   4966.3601      436.94402      4529.416       322.16629     -1692.7699      0.40101743     18421.214      0              0              0              0              0             -190.27499    
    789000   4959.8475      414.23007      4545.6175      305.41891     -3060.1479      0.40101743     18421.214      0              0              0              0              0             -184.41086    
    789250   4921.0869      407.51399      4513.5729      300.46703     -3060.7439      0.40101743     18421.214      0              0              0              0              0             -182.60058    
    789500   4953.2085      424.53223      4528.6763      313.01487     -2647.9501      0.40101743     18421.214      0              0              0              0              0             -181.1999     
    789750   4911.6448      412.15979      4499.485       303.89246     -2652.9642      0.40101743     18421.214      0              0              0              0              0             -179.47646    
    790000   4902.9056      383.57482      4519.3308      282.81627     -2982.8978      0.40101743     18421.214      0              0              0              0              0             -183.19128    
    790250   4974.1939      420.25896      4553.9349      309.86412     -2952.7063      0.40101743     18421.214      0              0              0              0              0             -188.32472    
    790500   4941.3723      378.94985      4562.4225      279.4062      -3817.7229      0.40101743     18421.214      0              0              0              0              0             -181.97923    
    790750   4933.0333      403.9912       4529.0421      297.86962     -1966.6894      0.40101743     18421.214      0              0              0              0              0             -187.28496    
    791000   4932.1777      406.59997      4525.5777      299.79311     -1391.2557      0.40101743     18421.214      0              0              0              0              0             -178.38859    
    791250   4959.2558      427.28844      4531.9674      315.04707     -1635.4377      0.40101743     18421.214      0              0              0              0              0             -187.35543    
    791500   4966.137       426.40867      4539.7284      314.3984      -2263.5861      0.40101743     18421.214      0              0              0              0              0             -186.4413     
    791750   4935.132       413.27004      4521.862       304.71107     -3140.22        0.40101743     18421.214      0              0              0              0              0             -176.96304    
    792000   4951.8514      401.05521      4550.7962      295.70486     -2339.7735      0.40101743     18421.214      0              0              0              0              0             -168.17493    
    792250   4922.0413      399.71819      4522.3231      294.71905     -2105.2647      0.40101743     18421.214      0              0              0              0              0             -180.57907    
    792500   4931.8914      392.28643      4539.605       289.23949     -3109.9314      0.40101743     18421.214      0              0              0              0              0             -175.95584    
    792750   4935.6228      403.36516      4532.2576      297.40802     -2288.283       0.40101743     18421.214      0              0              0              0              0             -180.29621    
    793000   4940.1761      400.63121      4539.5448      295.39224     -3322.5204      0.40101743     18421.214      0              0              0              0              0             -185.86782    
    793250   4917.7219      405.8831       4511.8388      299.26455     -2179.0903      0.40101743     18421.214      0              0              0              0              0             -183.11945    
    793500   4949.354       413.56123      4535.7927      304.92577     -2430.8817      0.40101743     18421.214      0              0              0              0              0             -177.94184    
    793750   4910.9474      398.28802      4512.6593      293.66457     -2444.0557      0.40101743     18421.214      0              0              0              0              0             -188.07211    
    794000   4920.3089      385.86375      4534.4452      284.50394     -2485.5313      0.40101743     18421.214      0              0              0              0              0             -188.46063    
    794250   4879.6368      365.94397      4513.6928      269.81674     -1812.2853      0.40101743     18421.214      0              0              0              0              0             -193.57052    
    794500   4971.1404      432.378        4538.7624      318.79969     -2452.714       0.40101743     18421.214      0              0              0              0              0             -195.67161    
    794750   4908.1118      393.22442      4514.8873      289.93109     -3317.0663      0.40101743     18421.214      0              0              0              0              0             -190.3788     
    795000   4956.4774      427.25323      4529.2242      315.02111     -2480.7526      0.40101743     18421.214      0              0              0              0              0             -188.35777    
    795250   4927.8649      389.17152      4538.6934      286.94282     -2219.2331      0.40101743     18421.214      0              0              0              0              0             -187.56706    
    795500   4949.333       417.14428      4532.1887      307.56761     -2041.3598      0.40101743     18421.214      0              0              0              0              0             -187.19649    
    795750   4945.3256      406.14461      4539.181       299.45736     -3264.0484      0.40101743     18421.214      0              0              0              0              0             -186.43537    
    796000   4949.6237      424.4878       4525.1359      312.98211     -2046.9597      0.40101743     18421.214      0              0              0              0              0             -188.83544    
    796250   4973.3464      437.43146      4535.9149      322.52569     -2429.1301      0.40101743     18421.214      0              0              0              0              0             -191.68364    
    796500   4907.401       388.80226      4518.5987      286.67055     -3348.0166      0.40101743     18421.214      0              0              0              0              0             -188.97484    
    796750   4938.3451      420.05276      4518.2924      309.71208     -1706.1257      0.40101743     18421.214      0              0              0              0              0             -184.62464    
    797000   4937.3913      412.61032      4524.781       304.22464     -2735.0946      0.40101743     18421.214      0              0              0              0              0             -190.96659    
    797250   4976.7257      437.20502      4539.5207      322.35873     -2577.2601      0.40101743     18421.214      0              0              0              0              0             -185.3354     
    797500   4934.0935      416.22919      4517.8643      306.8929      -3920.2821      0.40101743     18421.214      0              0              0              0              0             -176.90182    
    797750   4967.0081      412.30921      4554.6989      304.00263     -1451.4831      0.40101743     18421.214      0              0              0              0              0             -167.28605    
    798000   4933.4654      406.89795      4526.5675      300.01281     -1647.3612      0.40101743     18421.214      0              0              0              0              0             -168.74145    
    798250   4936.4921      408.95692      4527.5351      301.53092     -1974.5027      0.40101743     18421.214      0              0              0              0              0             -175.36256    
    798500   4999.0274      436.86133      4562.1661      322.10533     -2864.4509      0.40101743     18421.214      0              0              0              0              0             -184.65272    
    798750   4954.106       440.88088      4513.2251      325.06901     -2682.2032      0.40101743     18421.214      0              0              0              0              0             -183.22439    
    799000   4931.0093      412.21548      4518.7938      303.93352     -2405.4179      0.40101743     18421.214      0              0              0              0              0             -175.81111    
    799250   4938.3689      402.96575      4535.4032      297.11353     -1965.1958      0.40101743     18421.214      0              0              0              0              0             -182.53442    
    799500   4966.3257      421.52379      4544.8019      310.79669     -3404.5787      0.40101743     18421.214      0              0              0              0              0             -185.44434    
    799750   4933.0724      406.67475      4526.3976      299.84824     -2561.5102      0.40101743     18421.214      0              0              0              0              0             -178.34182    
    800000   4933.6276      400.59377      4533.0338      295.36463     -2987.4467      0.40101743     18421.214      0              0              0              0              0             -174.53947    
Loop time of 80.9592 on 4 procs for 800000 steps with 456 atoms

Performance: 853.763 ns/day, 0.028 hours/ns, 9881.516 timesteps/s
99.5% CPU use with 4 MPI tasks x no OpenMP threads

MPI task timing breakdown:
Section |  min time  |  avg time  |  max time  |%varavg| %total
---------------------------------------------------------------
Pair    | 35.014     | 41.88      | 48.552     |  77.5 | 51.73
Bond    | 7.2249     | 7.4983     | 7.7062     |   6.3 |  9.26
Neigh   | 6.0667     | 6.0715     | 6.076      |   0.2 |  7.50
Comm    | 13.603     | 20.038     | 26.839     | 108.8 | 24.75
Output  | 0.057758   | 0.09129    | 0.12838    |   9.0 |  0.11
Modify  | 3.9932     | 4.0095     | 4.0341     |   0.8 |  4.95
Other   |            | 1.37       |            |       |  1.69

Nlocal:            114 ave         117 max         109 min
Histogram: 1 0 0 0 0 0 1 0 1 1
Nghost:           2245 ave        2271 max        2212 min
Histogram: 1 0 1 0 0 0 0 0 0 2
Neighs:        17703.2 ave       20255 max       14719 min
Histogram: 1 1 0 0 0 0 0 0 0 2

Total # of neighbors = 70813
Ave neighs/atom = 155.29167
Ave special neighs/atom = 6.3157895
Neighbor list builds = 17163
Dangerous builds = 0

unfix			f1
unfix			f2

Total wall time: 0:02:09
