
#------------------------------------------------------------------------------#
# simulation settings
#------------------------------------------------------------------------------#

##### simulation variables

variable        seed 	equal  77229
variable        T       equal  300	    #K
variable        p       equal  0.0 	#bar
variable        damp_T  equal  100 		  	#K
variable        damp_P  equal  1000.0	  	#bar
variable        dT      equal  1.0 		 	#fs
variable        kb      equal  0.0019872041

## system setup ##

units           real
atom_style      full
boundary        p p p

pair_style      lj/cut/coul/long 12.500
bond_style      harmonic
angle_style     hybrid fourier cosine/periodic
dihedral_style  harmonic
improper_style  fourier
kspace_style 	ewald 0.000001

dielectric 	 	1.0
pair_modify 	tail yes mix arithmetic
special_bonds 	lj/coul 0.0 0.0 1.0

read_data 	 	../data.emin_pto-4c_In-3c_BTB_DMA_fe
Reading data file ...
  triclinic box = (1.0127974 1.2506642 1.0737052) to (27.573203 27.546212 27.449243) with tilt (-0.4871608 -0.79355401 -0.31961632)
  2 by 1 by 2 MPI processor grid
  reading atoms ...
  456 atoms
  reading velocities ...
  456 velocities
  scanning bonds ...
  8 = max bonds/atom
  scanning angles ...
  28 = max angles/atom
  scanning dihedrals ...
  12 = max dihedrals/atom
  scanning impropers ...
  3 = max impropers/atom
  reading bonds ...
  516 bonds
  reading angles ...
  972 angles
  reading dihedrals ...
  1164 dihedrals
  reading impropers ...
  648 impropers
Finding 1-2 1-3 1-4 neighbors ...
  special bond factors lj:    0        0        1       
  special bond factors coul:  0        0        1       
     8 = max # of 1-2 neighbors
     9 = max # of 1-3 neighbors
    12 = max # of special neighbors
  special bonds CPU = 0.000 seconds
  read_data CPU = 0.003 seconds
include 	 	../non_bonded_pto-4c_In-3c_BTB.param
### Parameters for Equilibration ###

### Parameters for MOF ###

mass 1 12.010700000
mass 2 1.007940000
mass 3 114.818000000
mass 4 15.999400000


bond_coeff 1 462.655054 1.379256
bond_coeff 2 391.669513 1.458000
bond_coeff 3 357.440381 1.081418
bond_coeff 4 187.991596 2.033568
bond_coeff 5 646.680887 1.311940

angle_coeff 1 cosine/periodic 111.297508 -1 3
angle_coeff 2 cosine/periodic 102.183280 -1 3
angle_coeff 3 cosine/periodic 57.289016 -1 3
angle_coeff 4 fourier 127.915933 0.343737 0.374972 0.281246
angle_coeff 5 cosine/periodic 77.909182 -1 3
angle_coeff 6 cosine/periodic 131.755710 -1 3
angle_coeff 7 cosine/periodic 187.136328 -1 3

dihedral_coeff 1 3.368555 -1 2
dihedral_coeff 2 1.250000 -1 2
dihedral_coeff 3 6.737110 -1 2

improper_coeff 1 2.000000 1.000000 -1.000000 0.000000 0

### Parameters for Molecule ###

mass 5 12.010700000
mass 6 1.007940000
mass 7 14.006700000


bond_coeff 6 331.069389 1.109401
bond_coeff 7 528.634538 1.451071
bond_coeff 8 527.945261 1.044419

angle_coeff 8 fourier 75.498766 0.343737 0.374972 0.281246
angle_coeff 9 fourier 169.780468 0.343737 0.374972 0.281246
angle_coeff 10 fourier 260.869388 0.317506 0.313225 0.272502
angle_coeff 11 fourier 144.695053 0.317506 0.313225 0.272502
angle_coeff 12 fourier 97.017167 0.317506 0.313225 0.272502

dihedral_coeff 4 0.054250 1 3


pair_coeff 1 1 0.105 3.43085
pair_coeff 1 2 0.0679706 3.00099
pair_coeff 1 3 0.250789 3.70347
pair_coeff 1 4 0.0793725 3.2745
pair_coeff 1 5 0.105 3.43085
pair_coeff 1 6 0.0679706 3.00099
pair_coeff 1 7 0.0851176 3.34577
pair_coeff 2 2 0.044 2.57113
pair_coeff 2 3 0.162345 3.27361
pair_coeff 2 4 0.0513809 2.84464
pair_coeff 2 5 0.0679706 3.00099
pair_coeff 2 6 0.044 2.57113
pair_coeff 2 7 0.0550999 2.91591
pair_coeff 3 3 0.599 3.97608
pair_coeff 3 4 0.189578 3.54711
pair_coeff 3 5 0.250789 3.70347
pair_coeff 3 6 0.162345 3.27361
pair_coeff 3 7 0.2033 3.61838
pair_coeff 4 4 0.06 3.11815
pair_coeff 4 5 0.0793725 3.2745
pair_coeff 4 6 0.0513809 2.84464
pair_coeff 4 7 0.0643428 3.18942
pair_coeff 5 5 0.105 3.43085
pair_coeff 5 6 0.0679706 3.00099
pair_coeff 5 7 0.0851176 3.34577
pair_coeff 6 6 0.044 2.57113
pair_coeff 6 7 0.0550999 2.91591
pair_coeff 7 7 0.069 3.26069

group			fram type < 5
390 atoms in group fram
group			cation type > 4
66 atoms in group cation
group			center type 7
6 atoms in group center

#------------------------------------------------------------------------------#
# ti/spring definition
#------------------------------------------------------------------------------#

reset_timestep	0

variable		t_s equal 1000000
variable		t_eq equal 500000

variable        t_eq equal ${t_eq}-1
variable        t_eq equal 500000-1
variable        t_s equal ${t_s}+1
variable        t_s equal 1000000+1

fix             fs1 fram ti/spring 10 ${t_s} ${t_eq} function 2
fix             fs1 fram ti/spring 10 1000001 ${t_eq} function 2
fix             fs1 fram ti/spring 10 1000001 499999 function 2
fix             fs2 center ti/spring 1 ${t_s} ${t_eq} function 2
fix             fs2 center ti/spring 1 1000001 ${t_eq} function 2
fix             fs2 center ti/spring 1 1000001 499999 function 2

variable        dE equal f_fs1+f_fs2
variable        lambda equal f_fs1[1]

fix				f1 all nve
fix 			f2 all langevin ${T} ${T} ${damp_T} ${seed} zero yes
fix 			f2 all langevin 300 ${T} ${damp_T} ${seed} zero yes
fix 			f2 all langevin 300 300 ${damp_T} ${seed} zero yes
fix 			f2 all langevin 300 300 100 ${seed} zero yes
fix 			f2 all langevin 300 300 100 77229 zero yes
compute 		c1 all temp/com
fix_modify		f2 temp c1

thermo_style	custom step etotal ke pe temp press density vol evdwl etail ecoul elong epair f_fs1 f_fs2
thermo 			1000

#------------------------------------------------------------------------------#
# switching
#------------------------------------------------------------------------------#

### forward integration, save to forward.dat

run             ${t_eq}
run             499999

CITE-CITE-CITE-CITE-CITE-CITE-CITE-CITE-CITE-CITE-CITE-CITE-CITE

Your simulation uses code contributions which should be cited:

- ti/spring command:

@article{freitas2016,
  author={Freitas, Rodrigo and Asta, Mark and de Koning, Maurice},
  title={Nonequilibrium free-energy calculation of solids using LAMMPS},
  journal={Computational Materials Science},
  volume={112},
  pages={333--341},
  year={2016},
  publisher={Elsevier}
}

CITE-CITE-CITE-CITE-CITE-CITE-CITE-CITE-CITE-CITE-CITE-CITE-CITE

Ewald initialization ...
WARNING: System is not charge neutral, net charge = -6e-05 (../kspace.cpp:327)
  using 12-bit tables for long-range coulomb (../kspace.cpp:342)
  G vector (1/distance) = 0.23481561
  estimated absolute RMS force accuracy = 0.00037577262
  estimated relative force accuracy = 1.1316281e-06
  KSpace vectors: actual max1d max3d = 458 6 1098
                  kxmax kymax kzmax  = 6 6 6
Generated 0 of 21 mixed pair_coeff terms from arithmetic mixing rule
Neighbor list info ...
  update every 1 steps, delay 10 steps, check yes
  max neighbors/atom: 2000, page size: 100000
  master list distance cutoff = 14.5
  ghost atom cutoff = 14.5
  binsize = 7.25, bins = 4 4 4
  1 neighbor lists, perpetual/occasional/extra = 1 0 0
  (1) pair lj/cut/coul/long, perpetual
      attributes: half, newton on
      pair build: half/bin/newton/tri
      stencil: half/bin/3d/tri
      bin: standard
WARNING: Inconsistent image flags (../domain.cpp:819)
Per MPI rank memory allocation (min/avg/max) = 30.6 | 30.6 | 30.6 Mbytes
   Step         TotEng         KinEng         PotEng          Temp          Press         Density         Volume         E_vdwl         E_tail         E_coul         E_long         E_pair         f_fs1          f_fs2     
         0   2326.8658      399.33152      1927.5342      294.43396      753.49012      0.40101743     18421.214      321.08744     -4.3577412     -1501.1344     -1193.6031     -2373.6501      0              0            
      1000   2751.4688      403.92451      2347.5443      297.82045     -1115.3419      0.40101743     18421.214      329.6923      -4.3577412     -1472.5664     -1191.8218     -2334.6959      0              0            
      2000   2777.1125      426.7328       2350.3796      314.63739     -866.98701      0.40101743     18421.214      332.64613     -4.3577412     -1497.5405     -1192.4028     -2357.2973      0              0            
      3000   2755.4205      410.52043      2344.9001      302.68373      714.51305      0.40101743     18421.214      357.51299     -4.3577412     -1504.9182     -1190.4127     -2337.8179      0              0            
      4000   2738.7863      397.50895      2341.2774      293.09014     -376.26309      0.40101743     18421.214      343.43667     -4.3577412     -1488.0529     -1190.7461     -2335.3623      0              0            
      5000   2800.6982      435.84872      2364.8495      321.35871     -1033.6462      0.40101743     18421.214      338.19763     -4.3577412     -1493.1594     -1189.8046     -2344.7664      0              0            
      6000   2776.701       407.80987      2368.8911      300.68519     -1586.1171      0.40101743     18421.214      346.4549      -4.3577412     -1480.579      -1188.4364     -2322.5605      0              0            
      7000   2746.6321      393.59039      2353.0417      290.20092     -1528.15        0.40101743     18421.214      329.25851     -4.3577412     -1491.9065     -1192.4835     -2355.1314      0              0            
      8000   2745.0153      401.52756      2343.4878      296.05314      311.35082      0.40101743     18421.214      352.91557     -4.3577412     -1490.4238     -1192.7939     -2330.3021      0              0            
      9000   2740.4326      423.46234      2316.9702      312.22602      756.3794       0.40101743     18421.214      344.30594     -4.3577412     -1494.8307     -1191.3653     -2341.89        0              0            
     10000   2783.2727      434.12178      2349.1509      320.08541      801.34223      0.40101743     18421.214      361.23593     -4.3577412     -1483.6131     -1189.9227     -2312.2999      0              0            
     11000   2781.0843      438.3316       2342.7527      323.18938     -184.49923      0.40101743     18421.214      351.58167     -4.3577412     -1482.6332     -1191.6013     -2322.6528      0              0            
     12000   2746.3584      379.74916      2366.6093      279.99554      1042.1523      0.40101743     18421.214      353.6372      -4.3577412     -1484.1489     -1191.2688     -2321.7805      0              0            
     13000   2760.9678      404.80053      2356.1673      298.46635      820.52396      0.40101743     18421.214      367.10991     -4.3577412     -1485.5386     -1192.1973     -2310.626       0              0            
     14000   2795.0166      426.66927      2368.3473      314.59054      1007.5369      0.40101743     18421.214      354.64607     -4.3577412     -1470.9471     -1191.6559     -2307.957       0              0            
     15000   2696.102       369.67625      2326.4258      272.56862     -439.99142      0.40101743     18421.214      330.61962     -4.3577412     -1490.2785     -1191.4483     -2351.1073      0              0            
     16000   2791.372       426.69528      2364.6767      314.60972     -300.7218       0.40101743     18421.214      346.12333     -4.3577412     -1485.5648     -1193.2894     -2332.7309      0              0            
     17000   2758.0341      393.81332      2364.2208      290.36529     -786.73385      0.40101743     18421.214      350.87278     -4.3577412     -1499.9782     -1191.1521     -2340.2575      0              0            
     18000   2757.6898      424.28642      2333.4033      312.83363      58.489529      0.40101743     18421.214      362.90756     -4.3577412     -1496.8695     -1191.1243     -2325.0863      0              0            
     19000   2738.7386      414.98838      2323.7502      305.97803     -701.37799      0.40101743     18421.214      341.72887     -4.3577412     -1496.4164     -1190.3903     -2345.0778      0              0            
     20000   2797.1971      447.276        2349.9211      329.78424     -970.05724      0.40101743     18421.214      348.47956     -4.3577412     -1491.9468     -1193.4315     -2336.8988      0              0            
     21000   2740.1474      386.69767      2353.4497      285.1188      -846.85468      0.40101743     18421.214      352.86525     -4.3577412     -1487.6924     -1191.7157     -2326.5429      0              0            
     22000   2734.1874      386.93391      2347.2535      285.29299      1321.6458      0.40101743     18421.214      364.61312     -4.3577412     -1503.9349     -1190.6406     -2329.9624      0              0            
     23000   2752.7526      429.97626      2322.7764      317.02884      1043.3752      0.40101743     18421.214      350.1794      -4.3577412     -1497.2879     -1191.0018     -2338.1103      0              0            
     24000   2762.0327      425.15029      2336.8824      313.47057      2276.5963      0.40101743     18421.214      365.9527      -4.3577412     -1481.1065     -1190.3341     -2305.4879      0              0            
     25000   2772.1456      421.23044      2350.9151      310.5804      -397.22381      0.40101743     18421.214      346.24421     -4.3577412     -1487.9588     -1190.298      -2332.0126      0              0            
     26000   2741.4412      405.91792      2335.5232      299.29022      296.85472      0.40101743     18421.214      354.16209     -4.3577412     -1473.0172     -1191.3914     -2310.2465      0              0            
     27000   2750.8945      405.68026      2345.2142      299.11499      1189.2475      0.40101743     18421.214      359.68274     -4.3577412     -1505.6468     -1190.9726     -2336.9366      0              0            
     28000   2797.4033      413.32564      2384.0776      304.75206      762.11529      0.40101743     18421.214      358.72156     -4.3577412     -1493.3568     -1192.4235     -2327.0588      0              0            
     29000   2751.0665      408.11553      2342.9509      300.91055     -916.57769      0.40101743     18421.214      331.78709     -4.3577412     -1500.2041     -1192.0619     -2360.4789      0              0            
     30000   2731.5871      429.96701      2301.6201      317.02203     -128.16065      0.40101743     18421.214      335.04431     -4.3577412     -1495.1952     -1191.913      -2352.0639      0              0            
     31000   2761.0609      394.92873      2366.1322      291.1877       213.56718      0.40101743     18421.214      353.20743     -4.3577412     -1481.9167     -1191.2308     -2319.9401      0              0            
     32000   2752.4971      402.32097      2350.1762      296.63813     -612.42288      0.40101743     18421.214      334.17456     -4.3577412     -1496.6912     -1193.1775     -2355.6942      0              0            
     33000   2763.5239      415.47812      2348.0458      306.33912      424.79964      0.40101743     18421.214      375.85152     -4.3577412     -1500.2661     -1193.3659     -2317.7805      0              0            
     34000   2741.9507      394.41523      2347.5355      290.80909      454.16334      0.40101743     18421.214      336.85911     -4.3577412     -1467.379      -1192.6797     -2323.1995      0              0            
     35000   2760.1293      415.74518      2344.3841      306.53602     -1094.9531      0.40101743     18421.214      326.99776     -4.3577412     -1492.6641     -1191.3235     -2356.9899      0              0            
     36000   2725.681       408.48285      2317.1981      301.18139      681.38619      0.40101743     18421.214      346.53999     -4.3577412     -1481.9259     -1190.9701     -2326.356       0              0            
     37000   2748.6396      409.44309      2339.1965      301.88939     -754.02557      0.40101743     18421.214      344.16705     -4.3577412     -1475.6336     -1191.8848     -2323.3513      0              0            
     38000   2790.8283      416.31315      2374.5151      306.9548      -1449.025       0.40101743     18421.214      332.06814     -4.3577412     -1489.6978     -1190.6383     -2348.268       0              0            
     39000   2758.0159      426.9083       2331.1076      314.76678     -365.2228       0.40101743     18421.214      342.02495     -4.3577412     -1483.6387     -1192.078      -2333.6917      0              0            
     40000   2729.1419      388.59951      2340.5424      286.52106     -1148.6963      0.40101743     18421.214      341.92153     -4.3577412     -1475.5144     -1190.9483     -2324.5411      0              0            
     41000   2807.6763      452.55411      2355.1221      333.67588      445.71922      0.40101743     18421.214      334.88696     -4.3577412     -1476.4732     -1191.6164     -2333.2026      0              0            
     42000   2691.3206      369.73752      2321.583       272.61379     -553.90451      0.40101743     18421.214      343.96468     -4.3577412     -1476.6988     -1191.7713     -2324.5053      0              0            
     43000   2769.7775      409.16336      2360.6142      301.68314      845.63612      0.40101743     18421.214      335.5237      -4.3577412     -1489.4069     -1191.0759     -2344.9591      0              0            
     44000   2790.4385      416.83691      2373.6016      307.34098      88.595549      0.40101743     18421.214      342.4781      -4.3577412     -1499.6346     -1192.6736     -2349.8301      0              0            
     45000   2721.9587      393.37315      2328.5856      290.04075     -1062.5228      0.40101743     18421.214      338.2725      -4.3577412     -1479.405      -1191.791      -2332.9236      0              0            
     46000   2787.9893      418.90392      2369.0854      308.86502     -228.98528      0.40101743     18421.214      339.87294     -4.3577412     -1477.6838     -1191.0059     -2328.8167      0              0            
     47000   2771.2998      397.89122      2373.4086      293.372        715.92893      0.40101743     18421.214      363.15816     -4.3577412     -1480.4891     -1192.6252     -2309.9562      0              0            
     48000   2732.8708      412.55159      2320.3192      304.18134      516.50715      0.40101743     18421.214      337.33731     -4.3577412     -1482.8208     -1191.838      -2337.3215      0              0            
     49000   2777.1503      412.692        2364.4583      304.28486     -858.81001      0.40101743     18421.214      342.18408     -4.3577412     -1486.8851     -1193.8158     -2338.5168      0              0            
     50000   2763.0929      411.74124      2351.3516      303.58386     -374.13553      0.40101743     18421.214      350.97882     -4.3577412     -1492.6692     -1194.659      -2336.3494      0              0            
     51000   2751.7991      413.70679      2338.0923      305.03308     -1771.4836      0.40101743     18421.214      334.9538      -4.3577412     -1500.5378     -1195.1218     -2360.7058      0              0            
     52000   2770.0987      430.90367      2339.1951      317.71264      951.06634      0.40101743     18421.214      365.78165     -4.3577412     -1495.8036     -1195.6423     -2325.6643      0              0            
     53000   2744.1136      404.01481      2340.0988      297.88703      1076.5275      0.40101743     18421.214      351.31535     -4.3577412     -1510.2678     -1195.6252     -2354.5776      0              0            
     54000   2761.7538      400.82572      2360.9281      295.53566     -844.89005      0.40101743     18421.214      347.53294     -4.3577412     -1482.1416     -1195.4067     -2330.0154      0              0            
     55000   2732.1541      404.97959      2327.1745      298.59837     -735.71043      0.40101743     18421.214      345.12712     -4.3577412     -1488.3395     -1194.0647     -2337.2771      0              0            
     56000   2745.085       414.37663      2330.7084      305.52697      442.74864      0.40101743     18421.214      349.11524     -4.3577412     -1500.5007     -1193.2056     -2344.5911      0              0            
     57000   2711.5017      377.75816      2333.7435      278.52755      1135.7484      0.40101743     18421.214      349.75505     -4.3577412     -1483.5072     -1193.346      -2327.0982      0              0            
     58000   2727.9034      395.58581      2332.3175      291.67218     -1206.0938      0.40101743     18421.214      354.56643     -4.3577412     -1497.8787     -1194.6054     -2337.9176      0              0            
     59000   2758.6631      421.92092      2336.7422      311.08951      1832.5087      0.40101743     18421.214      360.90357     -4.3577412     -1484.781      -1193.999      -2317.8764      0              0            
     60000   2773.0759      399.5977       2373.4782      294.63021     -1468.8515      0.40101743     18421.214      333.50785     -4.3577412     -1483.7187     -1193.5707     -2343.7815      0              0            
     61000   2760.7403      409.25118      2351.4892      301.74789     -250.54847      0.40101743     18421.214      350.01831     -4.3577412     -1484.2586     -1192.9231     -2327.1634      0              0            
     62000   2744.7274      398.6954       2346.032       293.96493     -535.69485      0.40101743     18421.214      348.37144     -4.3577412     -1485.5003     -1194.8456     -2331.9744      0              0            
     63000   2761.7626      403.0964       2358.6662      297.20987      183.29288      0.40101743     18421.214      339.40564     -4.3577412     -1476.8129     -1194.4863     -2331.8935      0              0            
     64000   2746.2583      391.78864      2354.4696      288.87246     -153.08374      0.40101743     18421.214      348.99832     -4.3577412     -1491.7752     -1194.9872     -2337.764       0              0            
     65000   2752.9893      409.28228      2343.707       301.77082     -419.80296      0.40101743     18421.214      351.51846     -4.3577412     -1477.916      -1194.6441     -2321.0416      0              0            
     66000   2732.3206      396.85514      2335.4654      292.60807     -192.56775      0.40101743     18421.214      350.05014     -4.3577412     -1485.0053     -1194.9177     -2329.8728      0              0            
     67000   2767.7185      416.32571      2351.3928      306.96406     -966.0126       0.40101743     18421.214      343.85725     -4.3577412     -1493.0985     -1196.2613     -2345.5025      0              0            
     68000   2748.056       412.40237      2335.6537      304.07131     -295.94393      0.40101743     18421.214      341.75352     -4.3577412     -1489.5249     -1193.3155     -2341.0869      0              0            
     69000   2780.9693      414.41725      2366.552       305.55693     -271.04574      0.40101743     18421.214      356.93367     -4.3577412     -1482.7396     -1195.2783     -2321.0842      0              0            
     70000   2727.0721      380.23524      2346.8369      280.35394     -1422.7318      0.40101743     18421.214      321.66929     -4.3577412     -1483.2603     -1195.4953     -2357.0863      0              0            
     71000   2768.5294      402.58448      2365.9449      296.83242     -224.55597      0.40101743     18421.214      340.70191     -4.3577412     -1508.2867     -1194.4139     -2361.9987      0              0            
     72000   2781.1405      438.68756      2342.453       323.45184      125.20478      0.40101743     18421.214      347.41182     -4.3577412     -1494.2        -1194.0353     -2340.8235      0              0            
     73000   2790.896       429.95457      2360.9414      317.01285      994.02678      0.40101743     18421.214      352.24342     -4.3577412     -1488.0677     -1194.052      -2329.8763      0              0            
     74000   2780.8575      405.82722      2375.0303      299.22334      775.09543      0.40101743     18421.214      356.15129     -4.3577412     -1471.7717     -1195.587      -2311.2075      0              0            
     75000   2753.725       399.57201      2354.1529      294.61127      363.82783      0.40101743     18421.214      356.98265     -4.3577412     -1476.2649     -1193.3154     -2312.5976      0              0            
     76000   2755.0415      404.56019      2350.4814      298.28914     -502.84886      0.40101743     18421.214      346.35867     -4.3577412     -1492.6946     -1193.7285     -2340.0644      0              0            
     77000   2751.5104      420.63722      2330.8732      310.14301     -556.87539      0.40101743     18421.214      336.80563     -4.3577412     -1509.0609     -1194.5532     -2366.8085      0              0            
     78000   2734.2861      414.48733      2319.7988      305.60859      443.70902      0.40101743     18421.214      333.10567     -4.3577412     -1492.1688     -1194.7052     -2353.7684      0              0            
     79000   2758.9049      423.31371      2335.5912      312.11643     -1129.2288      0.40101743     18421.214      346.72895     -4.3577412     -1497.9246     -1193.5144     -2344.7101      0              0            
     80000   2761.9119      409.23121      2352.6807      301.73316      942.21262      0.40101743     18421.214      352.03945     -4.3577412     -1496.0732     -1195.3932     -2339.427       0              0            
     81000   2758.8905      422.18444      2336.706       311.28381      810.67806      0.40101743     18421.214      352.55659     -4.3577412     -1478.8161     -1193.3864     -2319.6459      0              0            
     82000   2764.4958      421.27717      2343.2187      310.61485     -186.73477      0.40101743     18421.214      347.44697     -4.3577412     -1487.9821     -1192.1859     -2332.721       0              0            
     83000   2771.9609      419.33492      2352.626       309.18281      353.01143      0.40101743     18421.214      374.05737     -4.3577412     -1483.6849     -1193.1686     -2302.7961      0              0            
     84000   2783.6911      430.86422      2352.8269      317.68355      74.74507       0.40101743     18421.214      341.16701     -4.3577412     -1485.3744     -1195.1778     -2339.3852      0              0            
     85000   2747.9309      400.99579      2346.9351      295.66105      23.748206      0.40101743     18421.214      341.27151     -4.3577412     -1492.711      -1194.3242     -2345.7637      0              0            
     86000   2768.9377      391.41009      2377.5276      288.59335     -752.91918      0.40101743     18421.214      346.67926     -4.3577412     -1487.3989     -1195.5721     -2336.2917      0              0            
     87000   2738.9415      392.28526      2346.6563      289.23863     -1055.1507      0.40101743     18421.214      342.15455     -4.3577412     -1496.4929     -1194.6838     -2349.0222      0              0            
     88000   2774.223       430.01229      2344.2107      317.05541     -98.948836      0.40101743     18421.214      342.06039     -4.3577412     -1482.3424     -1194.2113     -2334.4934      0              0            
     89000   2748.3862      395.28839      2353.0978      291.45289      1382.7296      0.40101743     18421.214      363.54393     -4.3577412     -1495.9592     -1196.3823     -2328.7976      0              0            
     90000   2743.6941      421.72982      2321.9643      310.9486       1346.7903      0.40101743     18421.214      348.70336     -4.3577412     -1499.0737     -1195.9858     -2346.3562      0              0            
     91000   2749.7675      396.44783      2353.3197      292.30776      1139.5004      0.40101743     18421.214      353.31695     -4.3577412     -1479.8327     -1194.6327     -2321.1484      0              0            
     92000   2762.4753      416.08858      2346.3867      306.78922     -894.71905      0.40101743     18421.214      346.17565     -4.3577412     -1500.9244     -1194.3058     -2349.0545      0              0            
     93000   2764.5086      415.4067       2349.1019      306.28646     -100.62818      0.40101743     18421.214      344.47989     -4.3577412     -1502.8472     -1194.3495     -2352.7168      0              0            
     94000   2750.748       410.07408      2340.6739      302.35463     -148.32683      0.40101743     18421.214      350.10096     -4.3577412     -1495.2924     -1195.3649     -2340.5563      0              0            
     95000   2768.9474      414.74829      2354.1991      305.80101      1176.6569      0.40101743     18421.214      360.73456     -4.3577412     -1481.6358     -1195.4661     -2316.3673      0              0            
     96000   2750.7881      398.63254      2352.1555      293.91859     -73.996954      0.40101743     18421.214      342.7677      -4.3577412     -1481.0365     -1194.3206     -2332.5894      0              0            
     97000   2776.6647      408.53927      2368.1254      301.22298     -8.0779951      0.40101743     18421.214      331.72557     -4.3577412     -1488.0588     -1193.5927     -2349.9259      0              0            
     98000   2743.9645      396.81876      2347.1458      292.58125     -486.03216      0.40101743     18421.214      340.81342     -4.3577412     -1477.2691     -1194.9019     -2331.3576      0              0            
     99000   2741.411       386.50586      2354.9051      284.97737     -663.16575      0.40101743     18421.214      341.40425     -4.3577412     -1508.1444     -1194.8629     -2361.6031      0              0            
    100000   2736.2541      411.85087      2324.4032      303.66468      185.21254      0.40101743     18421.214      341.65808     -4.3577412     -1469.9219     -1194.3663     -2322.6302      0              0            
    101000   2738.9559      415.54464      2323.4113      306.38816     -1181.2646      0.40101743     18421.214      340.1382      -4.3577412     -1510.9695     -1193.5042     -2364.3355      0              0            
    102000   2792.3557      415.71156      2376.6441      306.51124      534.53198      0.40101743     18421.214      349.59897     -4.3577412     -1495.1445     -1193.755      -2339.3004      0              0            
    103000   2764.8846      419.13556      2345.749       309.03581     -652.50572      0.40101743     18421.214      343.74504     -4.3577412     -1496.5042     -1195.551      -2348.3102      0              0            
    104000   2757.1309      433.13187      2323.999       319.35553      380.92618      0.40101743     18421.214      347.24766     -4.3577412     -1482.072      -1195.4752     -2330.2995      0              0            
    105000   2755.007       414.31085      2340.6961      305.47847     -89.749376      0.40101743     18421.214      340.87548     -4.3577412     -1498.1736     -1194.834      -2352.132       0              0            
    106000   2756.1878      396.1695       2360.0183      292.10255      1220.8582      0.40101743     18421.214      355.64002     -4.3577412     -1489.954      -1194.1268     -2328.4408      0              0            
    107000   2780.9241      423.17244      2357.7517      312.01227      76.217363      0.40101743     18421.214      345.98374     -4.3577412     -1474.8394     -1192.8642     -2321.7198      0              0            
    108000   2773.7142      423.06736      2350.6468      311.9348       17.179049      0.40101743     18421.214      335.53698     -4.3577412     -1477.1875     -1194.4339     -2336.0845      0              0            
    109000   2770.7912      397.13098      2373.6603      292.81146      257.07711      0.40101743     18421.214      339.36332     -4.3577412     -1478.027      -1195.5386     -2334.2022      0              0            
    110000   2759.7542      428.47041      2331.2838      315.91856     -88.754471      0.40101743     18421.214      345.6761      -4.3577412     -1494.3687     -1194.0539     -2342.7465      0              0            
    111000   2746.027       402.33849      2343.6885      296.65104     -780.86518      0.40101743     18421.214      346.25147     -4.3577412     -1493.3992     -1194.2012     -2341.349       0              0            
    112000   2741.3157      405.65511      2335.6606      299.09645      265.06178      0.40101743     18421.214      343.20863     -4.3577412     -1487.5515     -1193.7561     -2338.099       0              0            
    113000   2754.5184      405.84804      2348.6703      299.2387      -1930.3138      0.40101743     18421.214      325.88714     -4.3577412     -1476.8315     -1194.8309     -2345.7752      0              0            
    114000   2735.5218      394.99442      2340.5274      291.23614      151.39857      0.40101743     18421.214      338.25991     -4.3577412     -1482.5164     -1194.1496     -2338.406       0              0            
    115000   2805.6329      428.92945      2376.7034      316.25702     -1466.8485      0.40101743     18421.214      337.36822     -4.3577412     -1479.1759     -1194.3929     -2336.2006      0              0            
    116000   2730.7641      402.96513      2327.799       297.11308      1609.1155      0.40101743     18421.214      363.84607     -4.3577412     -1489.2548     -1195.9242     -2321.3329      0              0            
    117000   2739.6689      418.17584      2321.493       308.32819      222.4029       0.40101743     18421.214      348.79247     -4.3577412     -1494.5843     -1192.6668     -2338.4586      0              0            
    118000   2768.8541      426.74391      2342.1102      314.64558      84.292585      0.40101743     18421.214      339.12659     -4.3577412     -1480.4337     -1195.3748     -2336.682       0              0            
    119000   2766.8157      406.97319      2359.8425      300.06829      170.20558      0.40101743     18421.214      347.82852     -4.3577412     -1482.7071     -1194.3907     -2329.2693      0              0            
    120000   2757.0577      428.90491      2328.1528      316.23892     -1141.7479      0.40101743     18421.214      336.6081      -4.3577412     -1489.192      -1195.1609     -2347.7448      0              0            
    121000   2729.2542      403.59274      2325.6615      297.57583     -866.97395      0.40101743     18421.214      343.81988     -4.3577412     -1493.6983     -1194.9958     -2344.8742      0              0            
    122000   2760.3092      410.03046      2350.2788      302.32246      52.685163      0.40101743     18421.214      355.38851     -4.3577412     -1487.9616     -1195.2095     -2327.7827      0              0            
    123000   2761.4055      411.56675      2349.8387      303.4552      -1076.7891      0.40101743     18421.214      329.0909      -4.3577412     -1485.0777     -1194.6774     -2350.6641      0              0            
    124000   2751.7842      402.62347      2349.1607      296.86116      531.19582      0.40101743     18421.214      359.48403     -4.3577412     -1493.7574     -1195.0228     -2329.2962      0              0            
    125000   2726.06        397.3845       2328.6755      292.99839     -458.72715      0.40101743     18421.214      343.27721     -4.3577412     -1481.4467     -1193.1486     -2331.318       0              0            
    126000   2732.4002      412.18718      2320.213       303.91265     -370.68709      0.40101743     18421.214      331.66089     -4.3577412     -1497.0394     -1195.0007     -2360.3793      0              0            
    127000   2748.3248      404.0107       2344.3141      297.884        810.49048      0.40101743     18421.214      346.24243     -4.3577412     -1468.9568     -1194.7791     -2317.4935      0              0            
    128000   2745.4635      420.52688      2324.9366      310.06165      346.29724      0.40101743     18421.214      335.53039     -4.3577412     -1491.3581     -1193.7448     -2349.5726      0              0            
    129000   2746.486       402.48749      2343.9985      296.7609      -100.14631      0.40101743     18421.214      357.03726     -4.3577412     -1483.6553     -1194.4487     -2321.0667      0              0            
    130000   2794.6909      415.20936      2379.4815      306.14096     -766.49527      0.40101743     18421.214      349.34828     -4.3577412     -1487.6        -1194.0644     -2332.3161      0              0            
    131000   2781.2889      445.87953      2335.4094      328.7546       198.77627      0.40101743     18421.214      350.86125     -4.3577412     -1489.2017     -1194.9851     -2333.3255      0              0            
    132000   2764.8483      428.48953      2336.3588      315.93265      849.77429      0.40101743     18421.214      344.57499     -4.3577412     -1505.2928     -1194.8694     -2355.5872      0              0            
    133000   2700.5688      397.84448      2302.7243      293.33754     -209.98374      0.40101743     18421.214      358.8237      -4.3577412     -1496.8856     -1195.8444     -2333.9063      0              0            
    134000   2757.9895      412.08569      2345.9038      303.83782     -182.94978      0.40101743     18421.214      354.84578     -4.3577412     -1491.0016     -1194.5981     -2330.754       0              0            
    135000   2775.5365      411.02041      2364.5161      303.05238     -1148.4874      0.40101743     18421.214      346.90474     -4.3577412     -1483.3547     -1193.536      -2329.986       0              0            
    136000   2725.2081      406.40443      2318.8036      299.64894      617.32802      0.40101743     18421.214      341.23554     -4.3577412     -1487.1097     -1195.055      -2340.9292      0              0            
    137000   2745.8293      406.48838      2339.3409      299.71083     -833.93292      0.40101743     18421.214      344.55718     -4.3577412     -1488.6018     -1194.5402     -2338.5848      0              0            
    138000   2717.3343      400.66305      2316.6712      295.41571      13.795652      0.40101743     18421.214      348.83614     -4.3577412     -1489.8831     -1195.358      -2336.4049      0              0            
    139000   2764.0921      418.86765      2345.2245      308.83828     -905.51073      0.40101743     18421.214      342.67474     -4.3577412     -1472.4605     -1194.1901     -2323.9759      0              0            
    140000   2757.7563      420.29285      2337.4634      309.8891       602.27691      0.40101743     18421.214      353.12263     -4.3577412     -1505.6495     -1195.3878     -2347.9147      0              0            
    141000   2730.6076      403.39551      2327.2121      297.43041     -819.33838      0.40101743     18421.214      323.7694      -4.3577412     -1494.4349     -1194.8359     -2365.5014      0              0            
    142000   2789.85        437.09017      2352.7598      322.27406      707.89029      0.40101743     18421.214      353.47572     -4.3577412     -1499.7916     -1192.8589     -2339.1747      0              0            
    143000   2742.4293      422.08474      2320.3446      311.21029      1183.4075      0.40101743     18421.214      363.29502     -4.3577412     -1490.6155     -1195.1111     -2322.4316      0              0            
    144000   2761.1451      420.46163      2340.6835      310.01354     -94.770568      0.40101743     18421.214      349.50257     -4.3577412     -1496.9799     -1195.7829     -2343.2603      0              0            
    145000   2756.1213      412.02899      2344.0923      303.79602      938.97239      0.40101743     18421.214      366.07447     -4.3577412     -1481.0551     -1192.7824     -2307.763       0              0            
    146000   2784.7037      406.49731      2378.2064      299.71741     -303.87742      0.40101743     18421.214      335.45399     -4.3577412     -1494.0322     -1193.7531     -2352.3313      0              0            
    147000   2743.1285      404.79141      2338.3371      298.45963      2068.3939      0.40101743     18421.214      363.63084     -4.3577412     -1486.3314     -1194.6044     -2317.305       0              0            
    148000   2723.4517      389.47081      2333.9809      287.16349     -1897.6169      0.40101743     18421.214      334.80545     -4.3577412     -1484.8852     -1194.5371     -2344.6169      0              0            
    149000   2784.0533      423.16189      2360.8914      312.00449     -293.8543       0.40101743     18421.214      345.68699     -4.3577412     -1499.3095     -1195.788      -2349.4106      0              0            
    150000   2752.7002      422.09244      2330.6077      311.21597      297.90729      0.40101743     18421.214      336.28726     -4.3577412     -1484.7662     -1193.3754     -2341.8543      0              0            
    151000   2785.0819      408.88487      2376.197       301.4778      -328.84184      0.40101743     18421.214      331.33981     -4.3577412     -1475.0379     -1192.6074     -2336.3055      0              0            
    152000   2790.401       436.20444      2354.1966      321.62099     -606.55002      0.40101743     18421.214      343.16627     -4.3577412     -1489.953      -1194.9861     -2341.7729      0              0            
    153000   2757.2951      416.13214      2341.163       306.82134     -1050.233       0.40101743     18421.214      332.17441     -4.3577412     -1497.4478     -1192.9533     -2358.2266      0              0            
    154000   2732.942       412.59087      2320.3511      304.2103       1722.8587      0.40101743     18421.214      365.99791     -4.3577412     -1478.4662     -1194.4502     -2306.9185      0              0            
    155000   2764.8392      414.32532      2350.5139      305.48914      348.57853      0.40101743     18421.214      350.96893     -4.3577412     -1498.1011     -1194.1631     -2341.2952      0              0            
    156000   2794.4975      426.14323      2368.3543      314.20269     -1796.0197      0.40101743     18421.214      342.30166     -4.3577412     -1491.8932     -1195.2771     -2344.8686      0              0            
    157000   2757.1238      411.22613      2345.8977      303.20406      862.3924       0.40101743     18421.214      363.88867     -4.3577412     -1472.7556     -1194.7999     -2303.6669      0              0            
    158000   2747.1921      390.67913      2356.513       288.0544       853.58209      0.40101743     18421.214      361.47404     -4.3577412     -1499.8584     -1194.295      -2332.6794      0              0            
    159000   2764.7191      424.51786      2340.2012      313.00427      786.72044      0.40101743     18421.214      356.87759     -4.3577412     -1506.9256     -1195.5628     -2345.6108      0              0            
    160000   2724.3798      395.67139      2328.7084      291.73528      1111.3596      0.40101743     18421.214      353.55405     -4.3577412     -1493.0731     -1193.5205     -2333.0396      0              0            
    161000   2708.1492      388.89741      2319.2518      286.74071     -482.84656      0.40101743     18421.214      335.30161     -4.3577412     -1492.1024     -1194.4743     -2351.2751      0              0            
    162000   2747.4054      380.20719      2367.1982      280.33326     -607.45019      0.40101743     18421.214      340.69384     -4.3577412     -1492.7005     -1194.4725     -2346.4791      0              0            
    163000   2744.9255      400.6193       2344.3062      295.38346     -1731.8396      0.40101743     18421.214      333.10641     -4.3577412     -1469.8593     -1194.2081     -2330.961       0              0            
    164000   2731.231       408.26117      2322.9698      301.01794      768.79072      0.40101743     18421.214      352.76369     -4.3577412     -1517.7397     -1195.3134     -2360.2894      0              0            
    165000   2746.538       434.47301      2312.065       320.34438     -237.02468      0.40101743     18421.214      347.93983     -4.3577412     -1488.3849     -1195.3046     -2335.7497      0              0            
    166000   2748.5034      382.88125      2365.6221      282.30489      1309.2683      0.40101743     18421.214      363.35987     -4.3577412     -1492.3784     -1192.7102     -2321.7287      0              0            
    167000   2795.1869      424.53462      2370.6523      313.01663      17.82493       0.40101743     18421.214      358.38303     -4.3577412     -1495.4989     -1193.5225     -2330.6383      0              0            
    168000   2767.6155      411.06631      2356.5491      303.08622      173.83945      0.40101743     18421.214      335.39419     -4.3577412     -1490.9455     -1193.8173     -2349.3686      0              0            
    169000   2707.3589      370.02285      2337.336       272.82417      39.085703      0.40101743     18421.214      341.95872     -4.3577412     -1484.5753     -1194.7809     -2337.3974      0              0            
    170000   2756.1872      413.48927      2342.698       304.8727       947.45999      0.40101743     18421.214      355.03181     -4.3577412     -1489.6411     -1194.191      -2328.8003      0              0            
    171000   2765.4127      410.13798      2355.2748      302.40174     -322.77471      0.40101743     18421.214      350.15347     -4.3577412     -1492.9118     -1197.1262     -2339.8845      0              0            
    172000   2744.0928      389.04712      2355.0457      286.85109      846.76012      0.40101743     18421.214      355.22899     -4.3577412     -1485.4175     -1193.2196     -2323.4081      0              0            
    173000   2702.8412      381.6411       2321.2001      281.39051     -638.86594      0.40101743     18421.214      345.92409     -4.3577412     -1491.3116     -1193.7935     -2339.181       0              0            
    174000   2727.7955      390.04574      2337.7497      287.58739      274.21257      0.40101743     18421.214      352.79105     -4.3577412     -1495.4668     -1195.305      -2337.9808      0              0            
    175000   2755.4659      414.2566       2341.2093      305.43847      831.71483      0.40101743     18421.214      355.62722     -4.3577412     -1488.2772     -1196.0314     -2328.6814      0              0            
    176000   2733.7058      379.32152      2354.3842      279.68024      317.05979      0.40101743     18421.214      368.8279      -4.3577412     -1494.5129     -1195.0174     -2320.7024      0              0            
    177000   2749.3357      408.45277      2340.883       301.15921     -1657.376       0.40101743     18421.214      338.01999     -4.3577412     -1489.8353     -1195.1022     -2346.9175      0              0            
    178000   2792.3015      429.34933      2362.9522      316.5666      -1320.7094      0.40101743     18421.214      342.99459     -4.3577412     -1494.8771     -1195.2136     -2347.0961      0              0            
    179000   2732.9419      405.46781      2327.4741      298.95835     -617.20092      0.40101743     18421.214      351.82121     -4.3577412     -1486.7802     -1195.4142     -2330.3733      0              0            
    180000   2738.8565      404.32668      2334.5298      298.11697      376.8656       0.40101743     18421.214      336.19211     -4.3577412     -1481.0445     -1193.3967     -2338.2491      0              0            
    181000   2767.4297      415.88391      2351.5458      306.63832      410.35574      0.40101743     18421.214      353.61269     -4.3577412     -1490.2753     -1194.0332     -2330.6958      0              0            
    182000   2740.5235      409.91619      2330.6073      302.23821      189.32009      0.40101743     18421.214      346.30736     -4.3577412     -1486.6488     -1193.5836     -2333.9251      0              0            
    183000   2733.1803      396.1657       2337.0146      292.09974      1063.8291      0.40101743     18421.214      350.30885     -4.3577412     -1494.8749     -1194.1674     -2338.7335      0              0            
    184000   2791.6768      431.68476      2359.992       318.28855      60.373558      0.40101743     18421.214      342.2206      -4.3577412     -1482.1659     -1195.6171     -2335.5624      0              0            
    185000   2762.0115      418.85377      2343.1577      308.82805     -91.043229      0.40101743     18421.214      346.88794     -4.3577412     -1484.3409     -1195.6757     -2333.1287      0              0            
    186000   2765.673       432.58578      2333.0872      318.95289      1715.7741      0.40101743     18421.214      361.7552      -4.3577412     -1484.9325     -1195.0319     -2318.2092      0              0            
    187000   2762.5749      422.17546      2340.3995      311.27719      2289.8744      0.40101743     18421.214      368.14082     -4.3577412     -1491.5787     -1195.0352     -2318.4731      0              0            
    188000   2742.8977      407.09819      2335.7995      300.16045     -176.29387      0.40101743     18421.214      339.35642     -4.3577412     -1490.1803     -1194.4609     -2345.2848      0              0            
    189000   2740.7247      406.89974      2333.825       300.01413      1159.0024      0.40101743     18421.214      337.66466     -4.3577412     -1492.4447     -1194.415      -2349.195       0              0            
    190000   2756.9563      414.29236      2342.6639      305.46484     -668.08234      0.40101743     18421.214      345.80462     -4.3577412     -1510.7995     -1195.9626     -2360.9574      0              0            
    191000   2772.6026      428.2407       2344.3619      315.74919      83.733968      0.40101743     18421.214      356.89597     -4.3577412     -1494.3395     -1193.8239     -2331.2674      0              0            
    192000   2748.1783      380.11985      2368.0585      280.26887     -258.71599      0.40101743     18421.214      338.26287     -4.3577412     -1496.8742     -1194.5573     -2353.1687      0              0            
    193000   2751.8127      417.92811      2333.8846      308.14554      50.258952      0.40101743     18421.214      348.18864     -4.3577412     -1496.2828     -1193.8747     -2341.9689      0              0            
    194000   2757.0849      405.78899      2351.2959      299.19516     -462.62118      0.40101743     18421.214      357.30569     -4.3577412     -1478.5381     -1196.0891     -2317.3215      0              0            
    195000   2771.4071      431.57647      2339.8307      318.20871      4.7403061      0.40101743     18421.214      333.48006     -4.3577412     -1493.0842     -1196.258      -2355.8621      0              0            
    196000   2779.7777      446.24817      2333.5296      329.0264       775.88874      0.40101743     18421.214      351.08881     -4.3577412     -1465.6071     -1194.0162     -2308.5345      0              0            
    197000   2755.5794      411.9001       2343.6793      303.70099      547.78489      0.40101743     18421.214      354.99157     -4.3577412     -1476.7658     -1194.3746     -2316.1488      0              0            
    198000   2765.817       408.49661      2357.3203      301.19153     -1453.2909      0.40101743     18421.214      325.27999     -4.3577412     -1492.3126     -1193.4077     -2360.4403      0              0            
    199000   2737.3724      389.47713      2347.8953      287.16815      857.74481      0.40101743     18421.214      359.00826     -4.3577412     -1470.2535     -1194.5565     -2305.8018      0              0            
    200000   2775.7605      416.99586      2358.7647      307.45818      965.0117       0.40101743     18421.214      334.17836     -4.3577412     -1494.8456     -1194.0664     -2354.7336      0              0            
    201000   2742.4454      413.50296      2328.9425      304.8828       830.29239      0.40101743     18421.214      360.12041     -4.3577412     -1476.3271     -1194.2641     -2310.4708      0              0            
    202000   2746.6446      407.93209      2338.7125      300.7753       729.9869       0.40101743     18421.214      352.24475     -4.3577412     -1499.4473     -1195.1248     -2342.3274      0              0            
    203000   2777.7845      409.0682       2368.7163      301.61298      1400.8397      0.40101743     18421.214      350.44463     -4.3577412     -1490.7264     -1193.9572     -2334.239       0              0            
    204000   2776.5423      424.22103      2352.3213      312.78542     -1643.0588      0.40101743     18421.214      334.07475     -4.3577412     -1485.6725     -1194.1582     -2345.756       0              0            
    205000   2724.1         392.00124      2332.0988      289.02921      586.02782      0.40101743     18421.214      343.1139      -4.3577412     -1478.6746     -1193.8938     -2329.4545      0              0            
    206000   2756.9725      411.38664      2345.5859      303.3224       739.64693      0.40101743     18421.214      366.96609     -4.3577412     -1487.7269     -1194.3757     -2315.1365      0              0            
    207000   2769.6025      413.17901      2356.4235      304.64395     -163.66194      0.40101743     18421.214      343.27844     -4.3577412     -1480.1421     -1193.1562     -2330.0199      0              0            
    208000   2721.4568      397.18377      2324.2731      292.85038     -425.95797      0.40101743     18421.214      353.81808     -4.3577412     -1491.4529     -1196.021      -2333.6558      0              0            
    209000   2734.8905      396.59689      2338.2936      292.41766     -463.40159      0.40101743     18421.214      343.40462     -4.3577412     -1501.3184     -1194.3402     -2352.254       0              0            
    210000   2743.9323      410.24059      2333.6918      302.4774       185.57804      0.40101743     18421.214      343.16681     -4.3577412     -1488.9826     -1193.4826     -2339.2983      0              0            
    211000   2811.8924      436.31304      2375.5794      321.70106     -398.69453      0.40101743     18421.214      331.57688     -4.3577412     -1492.7183     -1195.147      -2356.2885      0              0            
    212000   2777.0467      421.32024      2355.7264      310.64661      527.27441      0.40101743     18421.214      334.01274     -4.3577412     -1483.1068     -1194.1519     -2343.2459      0              0            
    213000   2713.8401      386.47159      2327.3685      284.95211      1115.4887      0.40101743     18421.214      356.09564     -4.3577412     -1487.8425     -1194.249      -2325.9959      0              0            
    214000   2765.082       417.47854      2347.6034      307.81407      800.87474      0.40101743     18421.214      346.33897     -4.3577412     -1502.2031     -1194.3489     -2350.213       0              0            
    215000   2734.393       403.64373      2330.7492      297.61342     -87.410218      0.40101743     18421.214      343.2184      -4.3577412     -1494.1925     -1194.6762     -2345.6504      0              0            
    216000   2741.7204      380.07172      2361.6486      280.23338     -648.83401      0.40101743     18421.214      349.00058     -4.3577412     -1492.0718     -1194.8132     -2337.8845      0              0            
    217000   2776.0833      430.35663      2345.7266      317.3093       953.94758      0.40101743     18421.214      356.20141     -4.3577412     -1482.8949     -1192.6243     -2319.3177      0              0            
    218000   2750.5076      392.9362       2357.5714      289.71858      945.56455      0.40101743     18421.214      356.12664     -4.3577412     -1501.2483     -1195.0588     -2340.1805      0              0            
    219000   2775.3017      409.22787      2366.0739      301.7307      -568.37398      0.40101743     18421.214      351.95172     -4.3577412     -1487.085      -1193.4515     -2328.5848      0              0            
    220000   2752.4913      411.99702      2340.4943      303.77245      86.936686      0.40101743     18421.214      345.71423     -4.3577412     -1496.7778     -1194.5966     -2345.6602      0              0            
    221000   2770.5212      416.0408       2354.4804      306.75399      802.74082      0.40101743     18421.214      343.66879     -4.3577412     -1492.1864     -1194.4577     -2342.9753      0              0            
    222000   2753.7336      423.49411      2330.2395      312.24944     -1097.5294      0.40101743     18421.214      323.14346     -4.3577412     -1475.6745     -1192.9876     -2345.5186      0              0            
    223000   2742.1965      415.56746      2326.629       306.40499     -274.51688      0.40101743     18421.214      335.00729     -4.3577412     -1498.8932     -1196.016      -2359.902       0              0            
    224000   2771.2966      428.32113      2342.9755      315.80849      363.79601      0.40101743     18421.214      357.01667     -4.3577412     -1497.0772     -1195.9355     -2335.996       0              0            
    225000   2731.1709      411.69685      2319.474       303.55112      2.521626       0.40101743     18421.214      344.5263      -4.3577412     -1483.3836     -1194.5617     -2333.419       0              0            
    226000   2716.1618      380.04425      2336.1176      280.21312     -713.59045      0.40101743     18421.214      346.35026     -4.3577412     -1478.6563     -1193.9731     -2326.2791      0              0            
    227000   2732.114       382.08998      2350.0241      281.72147     -557.0335       0.40101743     18421.214      338.38018     -4.3577412     -1493.0613     -1194.8422     -2349.5233      0              0            
    228000   2739.9158      408.44066      2331.4752      301.15028     -287.04721      0.40101743     18421.214      341.86818     -4.3577412     -1504.7215     -1194.1102     -2356.9635      0              0            
    229000   2753.0171      413.45194      2339.5652      304.84518      42.901314      0.40101743     18421.214      346.37562     -4.3577412     -1471.0532     -1193.7954     -2318.473       0              0            
    230000   2740.6799      390.39663      2350.2833      287.84611     -144.25217      0.40101743     18421.214      340.25486     -4.3577412     -1490.3037     -1194.7273     -2344.7761      0              0            
    231000   2738.9611      396.82675      2342.1343      292.58715     -317.82039      0.40101743     18421.214      342.35772     -4.3577412     -1488.4448     -1193.4064     -2339.4935      0              0            
    232000   2735.2608      397.14789      2338.1129      292.82393     -241.55887      0.40101743     18421.214      351.01674     -4.3577412     -1487.025      -1193.956      -2329.9643      0              0            
    233000   2772.4543      396.92943      2375.5249      292.66285      357.23677      0.40101743     18421.214      354.01174     -4.3577412     -1491.9705     -1194.4309     -2332.3896      0              0            
    234000   2752.7814      405.82556      2346.9558      299.22212      1021.2903      0.40101743     18421.214      345.34341     -4.3577412     -1481.0603     -1192.8281     -2328.545       0              0            
    235000   2798.5456      421.03607      2377.5095      310.43709     -51.859724      0.40101743     18421.214      348.4715      -4.3577412     -1483.2208     -1194.4951     -2329.2444      0              0            
    236000   2721.6948      397.67229      2324.0225      293.21057      128.78974      0.40101743     18421.214      343.59779     -4.3577412     -1500.6136     -1194.0953     -2351.1111      0              0            
    237000   2780.5812      436.54185      2344.0394      321.86977      1067.8215      0.40101743     18421.214      348.73432     -4.3577412     -1491.6308     -1195.8744     -2338.7708      0              0            
    238000   2775.7293      432.6239       2343.1054      318.98099      1262.6663      0.40101743     18421.214      347.73245     -4.3577412     -1486.6049     -1194.8435     -2333.7159      0              0            
    239000   2758.88        411.94048      2346.9395      303.73075      199.01054      0.40101743     18421.214      346.68005     -4.3577412     -1481.6472     -1194.1017     -2329.0688      0              0            
    240000   2775.6078      411.23004      2364.3778      303.20693     -1131.4021      0.40101743     18421.214      337.53304     -4.3577412     -1478.1617     -1193.7475     -2334.3762      0              0            
    241000   2747.2695      393.96348      2353.306       290.47601     -768.09427      0.40101743     18421.214      339.37336     -4.3577412     -1478.5907     -1195.0244     -2334.2416      0              0            
    242000   2754.3971      400.39862      2353.9985      295.22075      130.6311       0.40101743     18421.214      352.82753     -4.3577412     -1495.3391     -1193.7409     -2336.2525      0              0            
    243000   2751.7508      408.60563      2343.1452      301.27191     -686.11023      0.40101743     18421.214      339.78887     -4.3577412     -1491.2715     -1194.8899     -2346.3726      0              0            
    244000   2783.515       433.11875      2350.3963      319.34586     -969.64342      0.40101743     18421.214      341.13552     -4.3577412     -1475.0878     -1193.9424     -2327.8947      0              0            
    245000   2809.3225      448.43613      2360.8864      330.63963     -293.24103      0.40101743     18421.214      340.97436     -4.3577412     -1491.8297     -1194.0278     -2344.8831      0              0            
    246000   2749.0543      403.21232      2345.842       297.29533      1831.1121      0.40101743     18421.214      365.89727     -4.3577412     -1488.2209     -1194.5014     -2316.825       0              0            
    247000   2778.9629      415.84402      2363.1188      306.6089       21.70018       0.40101743     18421.214      341.33585     -4.3577412     -1501.3713     -1194.9798     -2355.0153      0              0            
    248000   2766.2532      420.0693       2346.1839      309.72428     -431.2768       0.40101743     18421.214      341.22487     -4.3577412     -1490.0435     -1194.8977     -2343.7163      0              0            
    249000   2758.1205      407.21197      2350.9086      300.24435     -566.66853      0.40101743     18421.214      337.07902     -4.3577412     -1476.3495     -1194.5237     -2333.7941      0              0            
    250000   2788.7955      402.20399      2386.5915      296.55188      725.59991      0.40101743     18421.214      370.0132      -4.3577412     -1486.9983     -1192.8673     -2309.8524      0              0            
    251000   2760.0916      434.84874      2325.2429      320.62141     -1006.5355      0.40101743     18421.214      352.36129     -4.3577412     -1495.2316     -1195.4074     -2338.2777      0              0            
    252000   2705.9646      387.96527      2317.9993      286.05342     -920.60006      0.40101743     18421.214      331.05758     -4.3577412     -1479.2295     -1195.2464     -2343.4184      0              0            
    253000   2736.6804      403.3493       2333.3311      297.39633     -534.12412      0.40101743     18421.214      353.48982     -4.3577412     -1478.8081     -1195.366      -2320.6842      0              0            
    254000   2799.9108      427.57829      2372.3325      315.26078      1682.5489      0.40101743     18421.214      361.1377      -4.3577412     -1482.4906     -1194.3636     -2315.7165      0              0            
    255000   2761.407       403.53391      2357.8731      297.53245     -197.9733       0.40101743     18421.214      333.63131     -4.3577412     -1492.6425     -1195.3259     -2354.3371      0              0            
    256000   2784.4679      422.11729      2362.3506      311.23429     -1322.4747      0.40101743     18421.214      345.85402     -4.3577412     -1482.5279     -1192.2269     -2328.9008      0              0            
    257000   2743.4893      409.28775      2334.2016      301.77485      427.44345      0.40101743     18421.214      350.45009     -4.3577412     -1501.6686     -1195.4965     -2346.715       0              0            
    258000   2760.8796      392.6711       2368.2085      289.52311     -410.55481      0.40101743     18421.214      348.37331     -4.3577412     -1503.9532     -1194.7843     -2350.3642      0              0            
    259000   2777.609       406.80807      2370.8009      299.94654     -2460.0557      0.40101743     18421.214      323.06151     -4.3577412     -1485.7184     -1195.7232     -2358.38        0              0            
    260000   2778.1159      421.60285      2356.513       310.85498      684.60632      0.40101743     18421.214      361.92068     -4.3577412     -1490.6467     -1195.1843     -2323.9103      0              0            
    261000   2706.2311      376.29387      2329.9372      277.4479       660.74126      0.40101743     18421.214      365.01823     -4.3577412     -1493.1208     -1193.4072     -2321.5098      0              0            
    262000   2729.0053      378.92411      2350.0811      279.38722      1962.0976      0.40101743     18421.214      362.89597     -4.3577412     -1492.749      -1195.0592     -2324.9123      0              0            
    263000   2727.4141      392.18706      2335.2271      289.16622      1371.6967      0.40101743     18421.214      345.75409     -4.3577412     -1489.4077     -1194.0175     -2337.6711      0              0            
    264000   2727.7006      400.3043       2327.3963      295.1512      -761.07515      0.40101743     18421.214      346.58384     -4.3577412     -1503.6759     -1195.6594     -2352.7514      0              0            
    265000   2747.5403      402.98474      2344.5556      297.12753     -294.62448      0.40101743     18421.214      335.12211     -4.3577412     -1475.0868     -1192.0354     -2332.0001      0              0            
    266000   2758.2759      412.32262      2345.9533      304.01251      234.40851      0.40101743     18421.214      338.58592     -4.3577412     -1478.8902     -1193.5357     -2333.84        0              0            
    267000   2792.0654      432.93897      2359.1264      319.2133      -111.41418      0.40101743     18421.214      341.1042      -4.3577412     -1473.798      -1193.7201     -2326.4139      0              0            
    268000   2731.6326      401.91698      2329.7156      296.34026      476.46223      0.40101743     18421.214      342.16445     -4.3577412     -1484.4873     -1194.6136     -2336.9364      0              0            
    269000   2772.7744      438.98251      2333.7919      323.6693       734.94817      0.40101743     18421.214      348.80045     -4.3577412     -1487.0176     -1193.7821     -2331.9993      0              0            
    270000   2716.612       414.13931      2302.4727      305.35199     -1123.7718      0.40101743     18421.214      334.27683     -4.3577412     -1493.3295     -1194.1109     -2353.1635      0              0            
    271000   2709.4566      396.51062      2312.946       292.35406      267.90582      0.40101743     18421.214      348.90612     -4.3577412     -1490.4244     -1193.2472     -2334.7655      0              0            
    272000   2783.3512      418.60884      2364.7424      308.64745      835.98053      0.40101743     18421.214      355.19825     -4.3577412     -1478.0867     -1194.0237     -2316.9122      0              0            
    273000   2742.7874      410.6906       2332.0968      302.8092      -2425.1235      0.40101743     18421.214      316.32232     -4.3577412     -1493.0085     -1193.4697     -2370.1559      0              0            
    274000   2731.3016      397.45164      2333.85        293.04789     -181.11947      0.40101743     18421.214      340.09211     -4.3577412     -1478.4556     -1193.7324     -2332.0959      0              0            
    275000   2760.4006      419.61478      2340.7858      309.38915     -1212.0924      0.40101743     18421.214      343.69416     -4.3577412     -1495.5399     -1193.404      -2345.2497      0              0            
    276000   2781.4807      435.44635      2346.0344      321.06204      1969.2303      0.40101743     18421.214      373.17412     -4.3577412     -1477.8183     -1194.3273     -2298.9715      0              0            
    277000   2793.8572      420.68997      2373.1672      310.18191     -1267.4236      0.40101743     18421.214      345.92181     -4.3577412     -1505.2941     -1193.7698     -2353.1421      0              0            
    278000   2761.961       410.8111       2351.1499      302.89805      235.83702      0.40101743     18421.214      361.17272     -4.3577412     -1492.8994     -1196.418      -2328.1446      0              0            
    279000   2744.7155      403.35477      2341.3607      297.40037      207.78205      0.40101743     18421.214      351.93074     -4.3577412     -1483.8242     -1194.7064     -2326.5999      0              0            
    280000   2738.3669      405.83172      2332.5352      299.22666      456.4423       0.40101743     18421.214      361.34703     -4.3577412     -1471.2314     -1195.0541     -2304.9385      0              0            
    281000   2735.6286      400.94987      2334.6787      295.62719     -394.3052       0.40101743     18421.214      337.30505     -4.3577412     -1481.4093     -1194.9625     -2339.0668      0              0            
    282000   2802.6401      426.54789      2376.0922      314.50105      275.44136      0.40101743     18421.214      355.93855     -4.3577412     -1464.349      -1194.9833     -2303.3938      0              0            
    283000   2744.902       397.27411      2347.6279      292.91699     -1071.6849      0.40101743     18421.214      344.25082     -4.3577412     -1500.3934     -1194.7417     -2350.8842      0              0            
    284000   2747.6698      418.34903      2329.3208      308.45589      143.29467      0.40101743     18421.214      346.09314     -4.3577412     -1495.3357     -1194.7164     -2343.959       0              0            
    285000   2741.0607      392.9575       2348.1032      289.73428     -2256.7579      0.40101743     18421.214      342.26049     -4.3577412     -1492.4758     -1195.12       -2345.3353      0              0            
    286000   2758.8001      419.724        2339.0761      309.46968      2841.7254      0.40101743     18421.214      372.5027      -4.3577412     -1509.325      -1192.8996     -2329.7219      0              0            
    287000   2725.6432      398.92384      2326.7194      294.13337      1227.1578      0.40101743     18421.214      352.00718     -4.3577412     -1486.3544     -1194.9308     -2329.278       0              0            
    288000   2750.5358      409.72507      2340.8107      302.0973      -886.24393      0.40101743     18421.214      337.22957     -4.3577412     -1482.7672     -1193.5963     -2339.134       0              0            
    289000   2731.5457      403.89837      2327.6473      297.80117     -194.28347      0.40101743     18421.214      345.79231     -4.3577412     -1499.8382     -1194.3623     -2348.4082      0              0            
    290000   2763.9489      425.21689      2338.732       313.51968     -152.92139      0.40101743     18421.214      334.4821      -4.3577412     -1484.4337     -1195.0284     -2344.98        0              0            
    291000   2762.5693      411.48519      2351.0841      303.39506     -1137.1548      0.40101743     18421.214      335.80242     -4.3577412     -1479.487      -1195.4383     -2339.1229      0              0            
    292000   2721.9829      378.02723      2343.9557      278.72594      183.18015      0.40101743     18421.214      350.80326     -4.3577412     -1486.1646     -1193.7056     -2329.0669      0              0            
    293000   2731.4831      407.93951      2323.5436      300.78077      445.9147       0.40101743     18421.214      341.71482     -4.3577412     -1493.0487     -1196.2925     -2347.6264      0              0            
    294000   2756.8881      407.12734      2349.7608      300.18195      905.0483       0.40101743     18421.214      356.62953     -4.3577412     -1498.3572     -1197.8739     -2339.6016      0              0            
    295000   2759.8446      404.00525      2355.8394      297.87998     -1077.4602      0.40101743     18421.214      355.17275     -4.3577412     -1494.14       -1196.6175     -2335.5847      0              0            
    296000   2719.4997      399.81766      2319.6821      294.79239     -18.39056       0.40101743     18421.214      344.70957     -4.3577412     -1493.7963     -1197.8578     -2346.9446      0              0            
    297000   2801.0622      412.47216      2388.59        304.12277     -1076.031       0.40101743     18421.214      350.36868     -4.3577412     -1481.9809     -1195.8308     -2327.443       0              0            
    298000   2731.4659      391.39223      2340.0737      288.58018     -1434.7756      0.40101743     18421.214      325.16097     -4.3577412     -1476.5576     -1195.3486     -2346.7452      0              0            
    299000   2772.3812      407.08937      2365.2918      300.15395     -538.90368      0.40101743     18421.214      349.30918     -4.3577412     -1490.7971     -1194.9448     -2336.4327      0              0            
    300000   2723.9038      411.18219      2312.7216      303.17166      1125.5437      0.40101743     18421.214      357.89322     -4.3577412     -1502.4785     -1196.9818     -2341.5671      0              0            
    301000   2776.7422      449.5617       2327.1805      331.46953     -521.20156      0.40101743     18421.214      347.99988     -4.3577412     -1508.6945     -1198.2118     -2358.9064      0              0            
    302000   2765.2456      414.57168      2350.6739      305.67079     -1394.5608      0.40101743     18421.214      344.01427     -4.3577412     -1491.0302     -1196.1449     -2343.1609      0              0            
    303000   2730.9014      367.86712      2363.0343      271.23472     -892.92468      0.40101743     18421.214      344.67765     -4.3577412     -1489.0476     -1196.3376     -2340.7075      0              0            
    304000   2759.5318      414.52602      2345.0057      305.63712     -828.26404      0.40101743     18421.214      347.25505     -4.3577412     -1480.0308     -1197.5211     -2330.2969      0              0            
    305000   2739.695       391.25987      2348.4351      288.48259     -378.011        0.40101743     18421.214      346.35793     -4.3577412     -1489.672      -1197.3403     -2340.6544      0              0            
    306000   2760.4438      400.85         2359.5938      295.55356     -277.68761      0.40101743     18421.214      348.03699     -4.3577412     -1488.6837     -1196.1587     -2336.8054      0              0            
    307000   2751.9742      409.7978       2342.1764      302.15092      1626.6163      0.40101743     18421.214      358.12515     -4.3577412     -1487.665      -1196.602      -2326.1419      0              0            
    308000   2765.2371      412.35085      2352.8863      304.03333      925.7714       0.40101743     18421.214      354.01298     -4.3577412     -1500.0028     -1196.7704     -2342.7602      0              0            
    309000   2728.7164      397.87233      2330.8441      293.35807      206.80159      0.40101743     18421.214      336.55535     -4.3577412     -1490.8874     -1195.7581     -2350.0901      0              0            
    310000   2755.0631      407.51431      2347.5488      300.46727     -904.11534      0.40101743     18421.214      354.3342      -4.3577412     -1476.4101     -1197.9652     -2320.0411      0              0            
    311000   2737.2363      397.41823      2339.818       293.02326      75.911408      0.40101743     18421.214      353.90688     -4.3577412     -1496.857      -1198.108      -2341.0582      0              0            
    312000   2760.0941      417.61991      2342.4742      307.91829      1695.1253      0.40101743     18421.214      357.16612     -4.3577412     -1496.2157     -1195.4773     -2334.527       0              0            
    313000   2777.3663      423.51862      2353.8476      312.26752     -295.49611      0.40101743     18421.214      343.17512     -4.3577412     -1497.9005     -1196.5142     -2351.2396      0              0            
    314000   2752.3138      389.85395      2362.4599      287.44598     -562.05987      0.40101743     18421.214      337.07294     -4.3577412     -1475.7203     -1197.2283     -2335.8757      0              0            
    315000   2747.6664      430.49724      2317.1692      317.41298     -677.02307      0.40101743     18421.214      355.20022     -4.3577412     -1486.8977     -1198.1884     -2329.8859      0              0            
    316000   2748.461       414.90779      2333.5532      305.9186      -804.92496      0.40101743     18421.214      349.23617     -4.3577412     -1506.6089     -1198.1059     -2355.4787      0              0            
    317000   2720.7191      406.28266      2314.4364      299.55915      745.87955      0.40101743     18421.214      351.81224     -4.3577412     -1497.7314     -1196.4767     -2342.3958      0              0            
    318000   2777.6034      432.04513      2345.5583      318.55426     -41.911932      0.40101743     18421.214      361.10037     -4.3577412     -1504.7858     -1197.6385     -2341.3239      0              0            
    319000   2754.3747      407.79843      2346.5762      300.67675     -708.67396      0.40101743     18421.214      342.59067     -4.3577412     -1487.3023     -1198.1695     -2342.8812      0              0            
    320000   2756.105       414.38375      2341.7213      305.53222      489.81086      0.40101743     18421.214      331.9046      -4.3577412     -1477.4799     -1196.1663     -2341.7417      0              0            
    321000   2799.0182      443.98559      2355.0326      327.35816      892.4495       0.40101743     18421.214      338.71799     -4.3577412     -1499.3321     -1197.7332     -2358.3473      0              0            
    322000   2754.7466      409.54187      2345.2048      301.96222      139.89017      0.40101743     18421.214      351.02317     -4.3577412     -1484.5488     -1195.9578     -2329.4835      0              0            
    323000   2730.7223      414.45315      2316.2692      305.58339      257.82208      0.40101743     18421.214      330.11516     -4.3577412     -1501.382      -1197.3226     -2368.5894      0              0            
    324000   2748.5659      427.61052      2320.9554      315.28454      188.66291      0.40101743     18421.214      341.4343      -4.3577412     -1483.0246     -1198.2664     -2339.8567      0              0            
    325000   2725.278       410.30192      2314.9761      302.52262     -1133.8813      0.40101743     18421.214      348.02692     -4.3577412     -1491.7235     -1197          -2340.6965      0              0            
    326000   2707.4551      396.19018      2311.265       292.11779     -1277.281       0.40101743     18421.214      327.77993     -4.3577412     -1502.5651     -1197.8517     -2372.6368      0              0            
    327000   2742.3772      406.88696      2335.4903      300.00471      104.08449      0.40101743     18421.214      343.06073     -4.3577412     -1472.9235     -1195.6903     -2325.553       0              0            
    328000   2752.6575      405.60899      2347.0485      299.06244     -404.20005      0.40101743     18421.214      348.28262     -4.3577412     -1492.7528     -1197.2562     -2341.7264      0              0            
    329000   2767.787       427.52258      2340.2645      315.21971     -458.05557      0.40101743     18421.214      349.96469     -4.3577412     -1478.673      -1195.5871     -2324.2954      0              0            
    330000   2733.4263      417.77276      2315.6535      308.031       -1391.3909      0.40101743     18421.214      328.92101     -4.3577412     -1491.9698     -1194.965      -2358.0138      0              0            
    331000   2754.4393      417.6226       2336.8167      307.92028     -874.8991       0.40101743     18421.214      342.56609     -4.3577412     -1492.8081     -1194.8484     -2345.0904      0              0            
    332000   2736.5903      395.5261       2341.0642      291.62815     -1501.0608      0.40101743     18421.214      319.5149      -4.3577412     -1484.9439     -1196.1081     -2361.5371      0              0            
    333000   2755.2164      412.0965       2343.1199      303.84579     -1410.8142      0.40101743     18421.214      334.07171     -4.3577412     -1498.3101     -1196.6382     -2360.8765      0              0            
    334000   2720.6884      371.32944      2349.359       273.78755     -204.43835      0.40101743     18421.214      354.4783      -4.3577412     -1486.3161     -1196.6805     -2328.5183      0              0            
    335000   2728.1695      391.16602      2337.0034      288.41339     -792.96855      0.40101743     18421.214      338.9833      -4.3577412     -1498.1567     -1197.5358     -2356.7093      0              0            
    336000   2739.3736      408.27992      2331.0936      301.03176     -193.83378      0.40101743     18421.214      342.3427      -4.3577412     -1490.2486     -1197.0648     -2344.9706      0              0            
    337000   2771.2102      396.69462      2374.5156      292.48972      239.84274      0.40101743     18421.214      352.64599     -4.3577412     -1486.3494     -1198.5358     -2332.2392      0              0            
    338000   2719.576       378.071        2341.505       278.75821      412.9812       0.40101743     18421.214      346.51773     -4.3577412     -1491.5991     -1198.854      -2343.9354      0              0            
    339000   2806.4474      454.68301      2351.7644      335.24555     -361.83751      0.40101743     18421.214      341.91237     -4.3577412     -1489.2338     -1198.1013     -2345.4228      0              0            
    340000   2821.7302      462.63676      2359.0934      341.10999      137.50066      0.40101743     18421.214      344.32785     -4.3577412     -1498.1115     -1197.3629     -2351.1466      0              0            
    341000   2773.3689      425.63679      2347.7321      313.82928     -12.619415      0.40101743     18421.214      347.18804     -4.3577412     -1488.7559     -1196.5081     -2338.076       0              0            
    342000   2771.6142      412.94398      2358.6702      304.47066      196.40729      0.40101743     18421.214      354.0279      -4.3577412     -1491.9747     -1198.1432     -2336.09        0              0            
    343000   2704.1263      386.59999      2317.5263      285.04678     -763.85614      0.40101743     18421.214      321.05186     -4.3577412     -1497.4132     -1196.3202     -2372.6815      0              0            
    344000   2738.7064      408.06377      2330.6426      300.8724      -864.97259      0.40101743     18421.214      342.75755     -4.3577412     -1487.6412     -1195.6665     -2340.5501      0              0            
    345000   2717.1934      397.50038      2319.693       293.08382     -1187.2326      0.40101743     18421.214      340.70079     -4.3577412     -1491.1835     -1197.7569     -2348.2396      0              0            
    346000   2755.8115      408.27107      2347.5404      301.02524      380.90326      0.40101743     18421.214      360.87139     -4.3577412     -1484.4425     -1196.6607     -2320.2318      0              0            
    347000   2734.8788      412.24125      2322.6375      303.95252      326.18061      0.40101743     18421.214      342.72515     -4.3577412     -1487.4914     -1196.2781     -2341.0444      0              0            
    348000   2767.575       429.7443       2337.8307      316.85782      186.95393      0.40101743     18421.214      349.60752     -4.3577412     -1498.4088     -1196.0514     -2344.8526      0              0            
    349000   2781.1834      404.61511      2376.5683      298.32964      17.221331      0.40101743     18421.214      351.92506     -4.3577412     -1497.4687     -1196.8443     -2342.3879      0              0            
    350000   2724.8354      387.00392      2337.8314      285.3446       858.03434      0.40101743     18421.214      363.63063     -4.3577412     -1498.3492     -1198.3864     -2333.1051      0              0            
    351000   2760.9077      416.69044      2344.2173      307.23298      39.125965      0.40101743     18421.214      340.02712     -4.3577412     -1493.4733     -1197.3834     -2350.8296      0              0            
    352000   2716.6444      396.3189       2320.3255      292.2127       1342.694       0.40101743     18421.214      350.48537     -4.3577412     -1496.3868     -1197.6139     -2343.5153      0              0            
    353000   2768.0533      409.96867      2358.0846      302.27691     -299.8288       0.40101743     18421.214      349.64513     -4.3577412     -1501.6881     -1196.9818     -2349.0247      0              0            
    354000   2747.6985      396.62219      2351.0763      292.43632      162.79848      0.40101743     18421.214      356.11113     -4.3577412     -1503.5597     -1198.3414     -2345.79        0              0            
    355000   2796.4648      417.99061      2378.4742      308.19162     -26.857087      0.40101743     18421.214      360.01125     -4.3577412     -1494.2257     -1198.5599     -2332.7743      0              0            
    356000   2726.2571      393.00908      2333.248       289.77231     -1040.3316      0.40101743     18421.214      346.22122     -4.3577412     -1491.3641     -1197.87       -2343.0129      0              0            
    357000   2763.5411      435.31868      2328.2224      320.9679       252.98348      0.40101743     18421.214      343.19258     -4.3577412     -1494.6996     -1196.122      -2347.629       0              0            
    358000   2780.8425      421.73325      2359.1092      310.95114     -1450.1087      0.40101743     18421.214      342.60808     -4.3577412     -1488.5236     -1197.3068     -2343.2224      0              0            
    359000   2749.9662      393.65215      2356.314       290.24646     -1281.5286      0.40101743     18421.214      340.62772     -4.3577412     -1486.0186     -1197.6762     -2343.067       0              0            
    360000   2709.695       385.5717       2324.1233      284.28861     -1513.995       0.40101743     18421.214      345.86947     -4.3577412     -1494.918      -1197.7136     -2346.7621      0              0            
    361000   2735.4816      393.81927      2341.6623      290.36968     -217.76175      0.40101743     18421.214      349.19839     -4.3577412     -1485.376      -1197.2145     -2333.3921      0              0            
    362000   2770.5457      419.09336      2351.4523      309.0047      -994.43214      0.40101743     18421.214      339.32697     -4.3577412     -1486.3808     -1195.6898     -2342.7436      0              0            
    363000   2761.8665      418.52275      2343.3437      308.58398      314.97887      0.40101743     18421.214      352.75452     -4.3577412     -1486.0949     -1195.9244     -2329.2648      0              0            
    364000   2760.4878      419.59967      2340.8881      309.37801     -1540.446       0.40101743     18421.214      333.89088     -4.3577412     -1495.5177     -1198.0899     -2359.7167      0              0            
    365000   2740.9455      412.32322      2328.6222      304.01296      1263.9383      0.40101743     18421.214      358.80625     -4.3577412     -1478.4997     -1196.1479     -2315.8414      0              0            
    366000   2753.5717      402.71556      2350.8561      296.92907     -1411.4073      0.40101743     18421.214      340.51958     -4.3577412     -1495.2998     -1196.9283     -2351.7085      0              0            
    367000   2789.637       431.24982      2358.3872      317.96786     -707.33263      0.40101743     18421.214      337.60506     -4.3577412     -1485.5332     -1197.0394     -2344.9675      0              0            
    368000   2737.1328      396.00855      2341.1242      291.98387     -263.27088      0.40101743     18421.214      346.78679     -4.3577412     -1502.9725     -1196.5224     -2352.7082      0              0            
    369000   2727.2291      396.99047      2330.2386      292.70786     -46.085479      0.40101743     18421.214      348.97123     -4.3577412     -1503.0365     -1198.0688     -2352.134       0              0            
    370000   2714.1511      405.8978       2308.2533      299.27538      127.92494      0.40101743     18421.214      345.55805     -4.3577412     -1486.3647     -1196.973      -2337.7797      0              0            
    371000   2741.8285      394.76942      2347.0591      291.07024      127.53889      0.40101743     18421.214      353.55192     -4.3577412     -1486.4604     -1197.3628     -2330.2713      0              0            
    372000   2766.8776      436.89977      2329.9778      322.13367     -653.56963      0.40101743     18421.214      333.59615     -4.3577412     -1511.6103     -1196.4461     -2374.4603      0              0            
    373000   2734.3712      399.76095      2334.6103      294.75058      446.23392      0.40101743     18421.214      345.79227     -4.3577412     -1514.1591     -1197.6143     -2365.9812      0              0            
    374000   2735.4694      394.53161      2340.9378      290.8949      -475.69542      0.40101743     18421.214      346.45393     -4.3577412     -1500.5503     -1196.8687     -2350.9651      0              0            
    375000   2754.5328      423.79456      2330.7382      312.47097     -1060.7423      0.40101743     18421.214      353.55504     -4.3577412     -1483.763      -1197.4121     -2327.6201      0              0            
    376000   2740.2941      402.36044      2337.9336      296.66723      540.42156      0.40101743     18421.214      344.50369     -4.3577412     -1479.411      -1196.0968     -2331.0041      0              0            
    377000   2728.9543      393.07772      2335.8766      289.82292     -623.02253      0.40101743     18421.214      332.6675      -4.3577412     -1496.5411     -1197.0142     -2360.8878      0              0            
    378000   2762.3141      408.78429      2353.5298      301.40364     -359.46943      0.40101743     18421.214      341.20759     -4.3577412     -1489.2357     -1196.061      -2344.0891      0              0            
    379000   2718.787       392.59344      2326.1936      289.46585     -900.99492      0.40101743     18421.214      329.66208     -4.3577412     -1482.8369     -1196.7337     -2349.9086      0              0            
    380000   2706.1406      384.31756      2321.8231      283.3639      -261.57159      0.40101743     18421.214      343.61624     -4.3577412     -1496.6853     -1197.6953     -2350.7644      0              0            
    381000   2797.1264      451.21002      2345.9163      332.68486     -253.38225      0.40101743     18421.214      340.51457     -4.3577412     -1512.4349     -1198.5339     -2370.4543      0              0            
    382000   2760.0324      408.27739      2351.755       301.0299      -274.65452      0.40101743     18421.214      357.84284     -4.3577412     -1491.7845     -1197.145      -2331.0866      0              0            
    383000   2710.0216      398.42587      2311.5957      293.76621      30.609268      0.40101743     18421.214      343.52418     -4.3577412     -1488.1126     -1195.0341     -2339.6225      0              0            
    384000   2747.4035      404.90765      2342.4958      298.54533     -248.42365      0.40101743     18421.214      340.95143     -4.3577412     -1487.9424     -1198.0522     -2345.0432      0              0            
    385000   2766.8574      416.22915      2350.6283      306.89286     -779.11318      0.40101743     18421.214      339.35856     -4.3577412     -1508.9233     -1197.6334     -2367.1981      0              0            
    386000   2748.1364      422.32206      2325.8144      311.38527     -242.29337      0.40101743     18421.214      345.3755      -4.3577412     -1493.7044     -1198.3897     -2346.7186      0              0            
    387000   2761.7667      411.84736      2349.9193      303.6621       210.16344      0.40101743     18421.214      334.74351     -4.3577412     -1484.8025     -1197.1391     -2347.1981      0              0            
    388000   2767.1063      428.10709      2338.9992      315.65067      281.89218      0.40101743     18421.214      346.20574     -4.3577412     -1498.5047     -1196.5519     -2348.8509      0              0            
    389000   2716.4053      407.41627      2308.989       300.39498      579.81244      0.40101743     18421.214      339.15719     -4.3577412     -1481.0471     -1196.3664     -2338.2563      0              0            
    390000   2765.5891      418.52779      2347.0613      308.5877      -1197.8421      0.40101743     18421.214      339.4074      -4.3577412     -1510.9081     -1195.6511     -2367.1519      0              0            
    391000   2748.7101      403.91596      2344.7941      297.81414      962.9621       0.40101743     18421.214      347.00418     -4.3577412     -1489.7052     -1197.5396     -2340.2406      0              0            
    392000   2720.1932      376.97719      2343.216       277.95173     -376.61771      0.40101743     18421.214      331.18569     -4.3577412     -1475.7447     -1196.5836     -2341.1426      0              0            
    393000   2758.7465      433.07261      2325.6739      319.31184      40.840599      0.40101743     18421.214      341.22579     -4.3577412     -1483.2956     -1197.9273     -2339.9971      0              0            
    394000   2773.6386      397.56027      2376.0783      293.12798      400.11361      0.40101743     18421.214      357.68237     -4.3577412     -1501.9825     -1196.4846     -2340.7847      0              0            
    395000   2738.1762      383.85795      2354.3182      283.02502      666.06909      0.40101743     18421.214      357.8653      -4.3577412     -1488.1912     -1197.0792     -2327.405       0              0            
    396000   2764.6592      416.76833      2347.8909      307.29041     -29.52779       0.40101743     18421.214      341.37906     -4.3577412     -1510.9147     -1198.2132     -2367.7489      0              0            
    397000   2754.347       409.42368      2344.9233      301.87508     -47.990523      0.40101743     18421.214      342.12323     -4.3577412     -1519.3267     -1196.8345     -2374.0379      0              0            
    398000   2721.153       399.18378      2321.9692      294.32502      919.42671      0.40101743     18421.214      358.36757     -4.3577412     -1487.3213     -1196.9924     -2325.9461      0              0            
    399000   2706.8992      400.73475      2306.1644      295.46858      840.23892      0.40101743     18421.214      350.80537     -4.3577412     -1484.6777     -1196.0465     -2329.9188      0              0            
    400000   2769.1801      427.35727      2341.8228      315.09782      725.12871      0.40101743     18421.214      349.23601     -4.3577412     -1486.565      -1196.4352     -2333.7642      0              0            
    401000   2746.3271      402.70614      2343.621       296.92212     -212.01797      0.40101743     18421.214      359.30232     -4.3577412     -1488.6342     -1196.4336     -2325.7655      0              0            
    402000   2748.0842      400.62929      2347.4549      295.39083     -635.19032      0.40101743     18421.214      337.01358     -4.3577412     -1479.2081     -1196.7118     -2338.9063      0              0            
    403000   2742.6959      402.36278      2340.3331      296.66896      120.51302      0.40101743     18421.214      348.41116     -4.3577412     -1490.3232     -1196.0744     -2337.9864      0              0            
    404000   2751.5942      413.40467      2338.1896      304.81033     -769.01571      0.40101743     18421.214      336.4126      -4.3577412     -1503.5204     -1197.7689     -2364.8767      0              0            
    405000   2738.9315      406.86393      2332.0675      299.98773     -181.81971      0.40101743     18421.214      354.9698      -4.3577412     -1484.9613     -1197.2389     -2327.2304      0              0            
    406000   2755.5125      399.26775      2356.2448      294.38694      1577.6278      0.40101743     18421.214      362.41967     -4.3577412     -1479.7157     -1197.7989     -2315.095       0              0            
    407000   2766.9883      417.33443      2349.6539      307.70781      381.92023      0.40101743     18421.214      339.18244     -4.3577412     -1490.8106     -1196.4017     -2348.0299      0              0            
    408000   2764.8974      402.92724      2361.9701      297.08514      1125.9626      0.40101743     18421.214      362.91499     -4.3577412     -1485.8588     -1196.8314     -2319.7752      0              0            
    409000   2748.1524      396.11048      2352.0419      292.05903      1146.7359      0.40101743     18421.214      345.88251     -4.3577412     -1477.5868     -1195.753      -2327.4572      0              0            
    410000   2745.7083      403.5373       2342.171       297.53495      246.00275      0.40101743     18421.214      354.87356     -4.3577412     -1491.3924     -1196.5468     -2333.0656      0              0            
    411000   2766.2513      426.78014      2339.4712      314.67229      1421.0005      0.40101743     18421.214      344.97604     -4.3577412     -1476.3843     -1195.4117     -2326.82        0              0            
    412000   2746.6175      399.51983      2347.0976      294.5728       170.41591      0.40101743     18421.214      350.90838     -4.3577412     -1504.4569     -1197.1768     -2350.7253      0              0            
    413000   2742.1999      415.29825      2326.9016      306.2065       1550.0807      0.40101743     18421.214      353.22272     -4.3577412     -1487.4679     -1196.819      -2331.0641      0              0            
    414000   2760.2893      397.77932      2362.51        293.28949      235.27351      0.40101743     18421.214      343.95172     -4.3577412     -1495.3855     -1196.1176     -2347.5514      0              0            
    415000   2807.4416      414.37525      2393.0663      305.52596     -723.74032      0.40101743     18421.214      338.00154     -4.3577412     -1482.6858     -1196.1284     -2340.8126      0              0            
    416000   2746.3083      425.24666      2321.0616      313.54163      468.64559      0.40101743     18421.214      355.17229     -4.3577412     -1501.9788     -1197.7016     -2344.508       0              0            
    417000   2734.7645      390.20769      2344.5568      287.7068      -496.44205      0.40101743     18421.214      344.80838     -4.3577412     -1495.3295     -1197.3503     -2347.8714      0              0            
    418000   2767.251       410.32848      2356.9225      302.5422      -183.30983      0.40101743     18421.214      345.84084     -4.3577412     -1515.4978     -1195.6151     -2365.2721      0              0            
    419000   2754.3103      410.47633      2343.8339      302.65122      324.11331      0.40101743     18421.214      347.42889     -4.3577412     -1479.6273     -1195.7047     -2327.903       0              0            
    420000   2752.5215      410.80295      2341.7185      302.89203      1578.5538      0.40101743     18421.214      368.84651     -4.3577412     -1490.0623     -1197.6861     -2318.9019      0              0            
    421000   2787.4469      425.43707      2362.0098      313.68202      622.54706      0.40101743     18421.214      355.01716     -4.3577412     -1488.9045     -1196.3187     -2330.2061      0              0            
    422000   2753.2902      406.21832      2347.0719      299.51171      826.15783      0.40101743     18421.214      354.37651     -4.3577412     -1500.7079     -1194.8777     -2341.2091      0              0            
    423000   2735.2221      395.95918      2339.2629      291.94747     -385.01253      0.40101743     18421.214      355.83283     -4.3577412     -1499.3181     -1198.4457     -2341.931       0              0            
    424000   2743.3016      396.13801      2347.1636      292.07933     -1002.1449      0.40101743     18421.214      339.14002     -4.3577412     -1485.4124     -1197.4493     -2343.7217      0              0            
    425000   2781.1378      437.21844      2343.9194      322.36863      1618.5507      0.40101743     18421.214      369.56504     -4.3577412     -1493.1942     -1196.222      -2319.8512      0              0            
    426000   2764.5106      419.97082      2344.5398      309.65167      1035.4046      0.40101743     18421.214      353.39467     -4.3577412     -1496.6019     -1197.7144     -2340.9216      0              0            
    427000   2726.0929      387.69256      2338.4004      285.85235      335.64148      0.40101743     18421.214      343.47273     -4.3577412     -1478.8467     -1196.3076     -2331.6816      0              0            
    428000   2711.4291      378.96782      2332.4613      279.41945     -8.0914166      0.40101743     18421.214      345.14977     -4.3577412     -1487.4733     -1197.4501     -2339.7736      0              0            
    429000   2757.5616      413.33215      2344.2294      304.75686      300.2495       0.40101743     18421.214      349.46164     -4.3577412     -1486.825      -1196.5892     -2333.9525      0              0            
    430000   2733.3515      390.02895      2343.3225      287.57501     -1433.8202      0.40101743     18421.214      329.20245     -4.3577412     -1498.0107     -1196.8586     -2365.6669      0              0            
    431000   2790.1593      410.36022      2379.7991      302.5656      -104.80017      0.40101743     18421.214      344.90758     -4.3577412     -1486.7666     -1197.1196     -2338.9786      0              0            
    432000   2743.9425      385.61889      2358.3237      284.3234       163.61787      0.40101743     18421.214      359.46315     -4.3577412     -1494.6918     -1198.2606     -2333.4892      0              0            
    433000   2772.4869      422.23962      2350.2473      311.32449      192.07205      0.40101743     18421.214      351.82878     -4.3577412     -1481.6265     -1196.2617     -2326.0595      0              0            
    434000   2782.6218      424.83836      2357.7834      313.24059     -7.3072228      0.40101743     18421.214      364.978       -4.3577412     -1491.3835     -1196.7157     -2323.1211      0              0            
    435000   2752.7591      411.41274      2341.3463      303.34165      1568.1484      0.40101743     18421.214      361.33465     -4.3577412     -1495.6604     -1196.448      -2330.7737      0              0            
    436000   2749.373       410.88843      2338.4846      302.95506      684.35594      0.40101743     18421.214      359.26451     -4.3577412     -1489.5066     -1197.8471     -2328.0891      0              0            
    437000   2743.5814      396.05417      2347.5273      292.01751      191.57931      0.40101743     18421.214      362.64206     -4.3577412     -1494.3612     -1197.7658     -2329.485       0              0            
    438000   2757.1668      405.17934      2351.9874      298.74566      2555.277       0.40101743     18421.214      366.56562     -4.3577412     -1504.853      -1196.185      -2334.4724      0              0            
    439000   2764.145       419.02369      2345.1213      308.95333      148.89805      0.40101743     18421.214      338.97452     -4.3577412     -1495.6067     -1195.4559     -2352.088       0              0            
    440000   2725.9348      378.9684       2346.9664      279.41988      288.5556       0.40101743     18421.214      351.90059     -4.3577412     -1482.093      -1196.4018     -2326.5942      0              0            
    441000   2732.6018      405.06618      2327.5356      298.66222     -736.57416      0.40101743     18421.214      337.12584     -4.3577412     -1476.0847     -1196.8446     -2335.8035      0              0            
    442000   2745.1387      411.31274      2333.826       303.26791      1004.8982      0.40101743     18421.214      356.18795     -4.3577412     -1484.2038     -1197.2365     -2325.2524      0              0            
    443000   2771.7244      410.50076      2361.2237      302.66922      87.149338      0.40101743     18421.214      357.11394     -4.3577412     -1478.4375     -1195.1962     -2316.5197      0              0            
    444000   2773.9012      427.79297      2346.1083      315.41907     -469.07774      0.40101743     18421.214      340.30858     -4.3577412     -1500.9597     -1198.5727     -2359.2238      0              0            
    445000   2745.9495      423.96302      2321.9865      312.59518     -909.36221      0.40101743     18421.214      340.89334     -4.3577412     -1485.087      -1195.1143     -2339.3079      0              0            
    446000   2792.0819      418.26882      2373.8131      308.39675     -1587.4169      0.40101743     18421.214      329.1678      -4.3577412     -1484.7133     -1197.0549     -2352.6004      0              0            
    447000   2815.2808      436.29615      2378.9846      321.68861     -50.86108       0.40101743     18421.214      349.25884     -4.3577412     -1495.3405     -1197.2282     -2343.3099      0              0            
    448000   2735.7822      399.89726      2335.8849      294.85108     -1047.1589      0.40101743     18421.214      334.78861     -4.3577412     -1495.7119     -1197.1024     -2358.0257      0              0            
    449000   2741.5239      412.15455      2329.3694      303.8886       86.572542      0.40101743     18421.214      350.18766     -4.3577412     -1478.6506     -1196.3031     -2324.766       0              0            
    450000   2717.473       388.05304      2329.42        286.11814     -47.660271      0.40101743     18421.214      358.92992     -4.3577412     -1492.2009     -1197.053      -2330.324       0              0            
    451000   2751.1857      423.46109      2327.7246      312.2251       650.74823      0.40101743     18421.214      337.82962     -4.3577412     -1499.909      -1195.9976     -2358.0769      0              0            
    452000   2730.8563      405.03957      2325.8167      298.6426      -40.483483      0.40101743     18421.214      339.94255     -4.3577412     -1492.446      -1197.2942     -2349.7977      0              0            
    453000   2697.0596      371.30376      2325.7558      273.76861      1169.448       0.40101743     18421.214      358.06329     -4.3577412     -1493.9175     -1196.5308     -2332.385       0              0            
    454000   2735.3328      395.99733      2339.3355      291.9756      -1343.502       0.40101743     18421.214      349.41829     -4.3577412     -1489.562      -1196.965      -2337.1087      0              0            
    455000   2779.2203      415.9584       2363.2619      306.69324      104.76896      0.40101743     18421.214      345.53717     -4.3577412     -1508.2858     -1197.0991     -2359.8477      0              0            
    456000   2743.6234      421.69546      2321.928       310.92327      2114.4363      0.40101743     18421.214      348.4098      -4.3577412     -1499.4431     -1196.7024     -2347.7357      0              0            
    457000   2761.8197      424.33394      2337.4858      312.86866      251.58117      0.40101743     18421.214      350.55757     -4.3577412     -1489.8169     -1196.9909     -2336.2503      0              0            
    458000   2728.0089      410.10564      2317.9033      302.3779       1010.9299      0.40101743     18421.214      355.70691     -4.3577412     -1501.4781     -1196.7409     -2342.5121      0              0            
    459000   2756.1003      418.94126      2337.1591      308.89255     -1362.712       0.40101743     18421.214      337.43296     -4.3577412     -1494.8912     -1196.632      -2354.0902      0              0            
    460000   2748.9187      387.97225      2360.9465      286.05857      1048.032       0.40101743     18421.214      343.69377     -4.3577412     -1492.8266     -1196.3927     -2345.5256      0              0            
    461000   2714.2389      394.54847      2319.6905      290.90733     -392.62161      0.40101743     18421.214      356.79576     -4.3577412     -1506.8814     -1198.9513     -2349.037       0              0            
    462000   2742.6506      403.70569      2338.9449      297.65911      1273.2151      0.40101743     18421.214      353.25278     -4.3577412     -1501.4077     -1197.5023     -2345.6572      0              0            
    463000   2746.4269      409.57431      2336.8526      301.98614      904.45046      0.40101743     18421.214      358.221       -4.3577412     -1474.7688     -1197.3292     -2313.877       0              0            
    464000   2753.6651      436.20601      2317.459       321.62214     -1389.1975      0.40101743     18421.214      339.45369     -4.3577412     -1485.1745     -1197.4306     -2343.1515      0              0            
    465000   2767.173       404.79554      2362.3775      298.46267      38.516266      0.40101743     18421.214      352.23028     -4.3577412     -1491.6152     -1195.9011     -2335.286       0              0            
    466000   2776.9761      408.64335      2368.3328      301.29973     -480.87767      0.40101743     18421.214      347.41484     -4.3577412     -1464.8308     -1197.5236     -2314.9395      0              0            
    467000   2742.8722      415.65532      2327.2169      306.46977      224.00412      0.40101743     18421.214      338.90386     -4.3577412     -1489.7407     -1197.6625     -2348.4993      0              0            
    468000   2740.1807      399.76997      2340.4108      294.75723     -682.10828      0.40101743     18421.214      344.36189     -4.3577412     -1484.8397     -1195.984      -2336.4619      0              0            
    469000   2724.4202      389.07063      2335.3496      286.86842     -1526.882       0.40101743     18421.214      331.52957     -4.3577412     -1484.6545     -1196.593      -2349.7179      0              0            
    470000   2792.5026      428.70137      2363.8012      316.08885     -560.55177      0.40101743     18421.214      347.25142     -4.3577412     -1476.8046     -1196.5749     -2326.1281      0              0            
    471000   2738.4667      415.25281      2323.2139      306.173        118.26827      0.40101743     18421.214      345.92037     -4.3577412     -1484.4071     -1196.3002     -2334.7869      0              0            
    472000   2739.7338      384.30439      2355.4294      283.3542      -643.88765      0.40101743     18421.214      337.40083     -4.3577412     -1469.2273     -1195.7732     -2327.5996      0              0            
    473000   2808.6598      442.06483      2366.5949      325.94196      1442.8338      0.40101743     18421.214      361.20911     -4.3577412     -1505.0816     -1196.9055     -2340.778       0              0            
    474000   2727.8938      377.62119      2350.2726      278.42656     -1148.2018      0.40101743     18421.214      333.32044     -4.3577412     -1482.1833     -1195.963      -2344.8258      0              0            
    475000   2726.1759      376.61852      2349.5573      277.68727      1159.1192      0.40101743     18421.214      360.2445      -4.3577412     -1484.9463     -1195.1733     -2319.8751      0              0            
    476000   2755.6101      403.40865      2352.2014      297.4401       536.63807      0.40101743     18421.214      356.10068     -4.3577412     -1477.5585     -1197.035      -2318.4928      0              0            
    477000   2730.3581      394.67159      2335.6865      290.99811      3032.1772      0.40101743     18421.214      365.83479     -4.3577412     -1491.2727     -1196.5577     -2321.9956      0              0            
    478000   2746.8485      402.13802      2344.7105      296.50324      608.45953      0.40101743     18421.214      352.10694     -4.3577412     -1504.7869     -1196.7914     -2349.4714      0              0            
    479000   2737.4246      392.12721      2345.2974      289.12209      1071.2185      0.40101743     18421.214      344.86683     -4.3577412     -1501.5138     -1196.7109     -2353.3579      0              0            
    480000   2751.2562      411.44769      2339.8085      303.36741      740.28599      0.40101743     18421.214      349.72456     -4.3577412     -1500.9094     -1197.1248     -2348.3096      0              0            
    481000   2743.366       410.72922      2332.6368      302.83768      122.75552      0.40101743     18421.214      341.01742     -4.3577412     -1490.3441     -1196.9791     -2346.3057      0              0            
    482000   2736.628       415.89871      2320.7293      306.64923     -981.76804      0.40101743     18421.214      322.16954     -4.3577412     -1491.3371     -1197.79       -2366.9575      0              0            
    483000   2754.7856      404.96501      2349.8206      298.58763     -1234.7859      0.40101743     18421.214      333.33485     -4.3577412     -1491.7042     -1197.2679     -2355.6373      0              0            
    484000   2772.7714      415.65306      2357.1183      306.4681      -1732.5312      0.40101743     18421.214      345.70042     -4.3577412     -1515.462      -1197.6756     -2367.4372      0              0            
    485000   2779.9962      446.68275      2333.3135      329.34683      972.44473      0.40101743     18421.214      352.46776     -4.3577412     -1501.4151     -1197.0255     -2345.9728      0              0            
    486000   2726.9082      397.56682      2329.3414      293.13281      71.147091      0.40101743     18421.214      351.54088     -4.3577412     -1493.5752     -1197.5954     -2339.6297      0              0            
    487000   2746.5174      407.13266      2339.3847      300.18587     -1024.8758      0.40101743     18421.214      355.19111     -4.3577412     -1497.1882     -1197.8975     -2339.8945      0              0            
    488000   2762.0007      433.06338      2328.9373      319.30503     -781.08554      0.40101743     18421.214      336.82138     -4.3577412     -1497.9606     -1197.0748     -2358.214       0              0            
    489000   2768.1127      411.86376      2356.249       303.67419     -403.37677      0.40101743     18421.214      339.585       -4.3577412     -1472.8451     -1196.472      -2329.732       0              0            
    490000   2720.8455      382.05289      2338.7926      281.69413      305.07836      0.40101743     18421.214      361.05152     -4.3577412     -1493.8438     -1198.3897     -2331.1821      0              0            
    491000   2717.376       395.22657      2322.1494      291.40731      172.90621      0.40101743     18421.214      348.44993     -4.3577412     -1501.8496     -1198.1075     -2351.5071      0              0            
    492000   2770.2288      425.02444      2345.2044      313.37778      194.89584      0.40101743     18421.214      368.23895     -4.3577412     -1484.4616     -1197.7104     -2313.933       0              0            
    493000   2748.5682      395.12797      2353.4402      291.33461     -1606.0594      0.40101743     18421.214      345.33296     -4.3577412     -1493.3843     -1197.6391     -2345.6904      0              0            
    494000   2738.2233      410.85852      2327.3648      302.93301      1504.3856      0.40101743     18421.214      355.35485     -4.3577412     -1509.1429     -1197.2525     -2351.0406      0              0            
    495000   2704.0549      357.57834      2346.4765      263.64862     -1534.9394      0.40101743     18421.214      335.12599     -4.3577412     -1492.2068     -1196.1071     -2353.1879      0              0            
    496000   2748.4362      418.33799      2330.0982      308.44775      269.58382      0.40101743     18421.214      344.19778     -4.3577412     -1494.5651     -1196.6339     -2347.0012      0              0            
    497000   2712.8787      395.71677      2317.1619      291.76873      1983.5686      0.40101743     18421.214      382.58469     -4.3577412     -1498.2707     -1197.8132     -2313.4992      0              0            
    498000   2766.6603      436.82351      2329.8368      322.07744      665.99303      0.40101743     18421.214      339.34883     -4.3577412     -1500.0432     -1195.8389     -2356.5333      0              0            
    499000   2729.7271      404.9454       2324.7817      298.57317      642.80652      0.40101743     18421.214      353.23266     -4.3577412     -1495.4854     -1197.164      -2339.4167      0              0            
    499999   2724.7879      403.38167      2321.4062      297.4202       136.16439      0.40101743     18421.214      340.12478     -4.3577412     -1487.1729     -1197.4032     -2344.4513      508.90293      2.3078376    
Loop time of 131.717 on 4 procs for 499999 steps with 456 atoms

Performance: 327.974 ns/day, 0.073 hours/ns, 3795.999 timesteps/s
99.4% CPU use with 4 MPI tasks x no OpenMP threads

MPI task timing breakdown:
Section |  min time  |  avg time  |  max time  |%varavg| %total
---------------------------------------------------------------
Pair    | 33.234     | 37.875     | 43.053     |  64.6 | 28.75
Bond    | 4.6298     | 4.7165     | 4.8267     |   3.5 |  3.58
Kspace  | 68.056     | 72.743     | 77.016     |  47.6 | 55.23
Neigh   | 3.2726     | 3.2743     | 3.2759     |   0.1 |  2.49
Comm    | 9.4546     | 10.365     | 11.266     |  22.0 |  7.87
Output  | 0.0056168  | 0.0062732  | 0.008181   |   1.4 |  0.00
Modify  | 2.2258     | 2.2483     | 2.2811     |   1.4 |  1.71
Other   |            | 0.4887     |            |       |  0.37

Nlocal:            114 ave         117 max         109 min
Histogram: 1 0 0 0 0 0 0 2 0 1
Nghost:        2302.75 ave        2339 max        2261 min
Histogram: 1 0 0 0 1 0 0 1 0 1
Neighs:          18141 ave       20580 max       16419 min
Histogram: 2 0 0 0 0 0 1 0 0 1

Total # of neighbors = 72564
Ave neighs/atom = 159.13158
Ave special neighs/atom = 6.3157895
Neighbor list builds = 9125
Dangerous builds = 0
fix             f4 all print 1 "${dE} ${lambda}" title "# dE lambda"                 screen no file forward.dat
run             ${t_s}
run             1000001
Ewald initialization ...
  using 12-bit tables for long-range coulomb (../kspace.cpp:342)
  G vector (1/distance) = 0.23481561
  estimated absolute RMS force accuracy = 0.00037577262
  estimated relative force accuracy = 1.1316281e-06
  KSpace vectors: actual max1d max3d = 458 6 1098
                  kxmax kymax kzmax  = 6 6 6
Generated 0 of 21 mixed pair_coeff terms from arithmetic mixing rule
WARNING: Inconsistent image flags (../domain.cpp:819)
Per MPI rank memory allocation (min/avg/max) = 30.6 | 30.6 | 30.6 Mbytes
   Step         TotEng         KinEng         PotEng          Temp          Press         Density         Volume         E_vdwl         E_tail         E_coul         E_long         E_pair         f_fs1          f_fs2     
    499999   2724.7879      403.38167      2321.4062      297.4202       136.16439      0.40101743     18421.214      340.12478     -4.3577412     -1487.1729     -1197.4032     -2344.4513      508.90293      2.3078376    
    500000   2720.3352      403.56108      2316.7741      297.55248      402.1872       0.40101743     18421.214      339.1083      -4.3577412     -1487.5331     -1197.5273     -2345.9521      508.41333      2.3042621    
    501000   2769.4963      416.88522      2352.611       307.3766      -1950.9408      0.40101743     18421.214      328.63901     -4.3577412     -1488.7748     -1196.5194     -2356.6552      541.74873      2.8399357    
    502000   2748.2016      407.52655      2340.6751      300.47629      119.93854      0.40101743     18421.214      347.43676     -4.3577412     -1498.212      -1196.9558     -2347.731       588.04099      2.7179467    
    503000   2748.5344      391.64391      2356.8905      288.76575     -77.260287      0.40101743     18421.214      346.61939     -4.3577412     -1495.5097     -1197.3602     -2346.2505      538.53249      2.6111646    
    504000   2752.7704      407.73409      2345.0363      300.62931     -1210.0183      0.40101743     18421.214      338.43855     -4.3577412     -1490.7872     -1198.1184     -2350.4671      482.6107       2.7592403    
    505000   2798.7904      438.53063      2360.2598      323.33613      1238.8378      0.40101743     18421.214      363.76656     -4.3577412     -1481.1201     -1196.9993     -2314.3529      640.84129      2.845105     
    506000   2757.5205      400.51967      2357.0009      295.31        -517.62666      0.40101743     18421.214      337.02676     -4.3577412     -1476.8959     -1195.049      -2334.9181      600.96655      3.0965126    
    507000   2731.6631      395.14777      2336.5153      291.34921     -555.79458      0.40101743     18421.214      331.87492     -4.3577412     -1485.9571     -1196.8301     -2350.9123      364.64144      2.8846824    
    508000   2711.1302      395.1957       2315.9345      291.38454     -687.19053      0.40101743     18421.214      335.51726     -4.3577412     -1482.2833     -1195.1688     -2341.9348      495.70341      2.261616     
    509000   2736.5223      412.87199      2323.6503      304.41757     -731.32993      0.40101743     18421.214      337.14699     -4.3577412     -1498.1265     -1198.1555     -2359.135       252.27928      2.7781683    
    510000   2731.7455      400.56157      2331.184       295.34089      1447.567       0.40101743     18421.214      360.97086     -4.3577412     -1486.332      -1197.7206     -2323.0818      200.18867      2.5923586    
    511000   2765.9926      416.43424      2349.5584      307.04408     -769.12169      0.40101743     18421.214      331.47996     -4.3577412     -1472.7405     -1195.6466     -2336.9072      583.33655      2.1561565    
    512000   2720.1077      395.51258      2324.5951      291.61818      782.56167      0.40101743     18421.214      350.67449     -4.3577412     -1486.176      -1196.5641     -2332.0656      429.99057      2.3543998    
    513000   2732.9418      431.50375      2301.438       318.15509     -345.69264      0.40101743     18421.214      347.95685     -4.3577412     -1492.8841     -1196.0247     -2340.9519      496.96994      2.9825861    
    514000   2712.0503      389.19749      2322.8528      286.96196      12.529361      0.40101743     18421.214      341.9982      -4.3577412     -1482.341      -1197.1529     -2337.4957      647.81286      3.8859559    
    515000   2763.2296      422.75811      2340.4715      311.70678     -1467.3417      0.40101743     18421.214      329.52093     -4.3577412     -1483.9841     -1196.1067     -2350.5699      576.25972      2.3376921    
    516000   2707.4742      380.89414      2326.58        280.83976      1513.0616      0.40101743     18421.214      361.01213     -4.3577412     -1486.323      -1196.4063     -2321.7171      554.12099      3.6327371    
    517000   2759.6333      416.29712      2343.3361      306.94298     -748.69086      0.40101743     18421.214      339.97361     -4.3577412     -1494.7378     -1196.7912     -2351.5554      516.19289      2.1472779    
    518000   2791.6584      387.14641      2404.512       285.44967      427.59963      0.40101743     18421.214      344.25392     -4.3577412     -1490.3356     -1197.8187     -2343.9004      647.5531       2.7122876    
    519000   2765.9916      414.90645      2351.0852      305.91762     -542.0339       0.40101743     18421.214      341.92411     -4.3577412     -1478.9425     -1195.1217     -2332.1401      736.86005      2.4980286    
    520000   2751.213       414.26222      2336.9508      305.44261     -51.819006      0.40101743     18421.214      336.36033     -4.3577412     -1495.986      -1195.2414     -2354.8671      459.72015      2.5126038    
    521000   2748.4835      401.12729      2347.3562      295.75801     -1003.7697      0.40101743     18421.214      342.68449     -4.3577412     -1494.9265     -1198.4176     -2350.6595      440.14943      2.3210507    
    522000   2788.4109      418.26565      2370.1452      308.39441     -1084.5216      0.40101743     18421.214      337.44206     -4.3577412     -1480.3733     -1196.9008     -2339.832       698.15972      4.1148506    
    523000   2761.9204      406.74259      2355.1778      299.89826     -1811.6707      0.40101743     18421.214      315.45884     -4.3577412     -1487.1827     -1196.9358     -2368.6597      791.48562      2.8467738    
    524000   2745.4361      392.59321      2352.8429      289.46568      1073.3561      0.40101743     18421.214      358.96192     -4.3577412     -1506.9942     -1197.5984     -2345.6307      470.89277      2.67743      
    525000   2747.617       414.6741       2332.9429      305.7463       112.19235      0.40101743     18421.214      346.34129     -4.3577412     -1492.1721     -1197.2342     -2343.065       552.09935      3.1180907    
    526000   2750.4134      423.71036      2326.7031      312.40889      1257.7886      0.40101743     18421.214      357.50205     -4.3577412     -1484.9438     -1197.501      -2324.9427      491.93352      2.3329396    
    527000   2772.0725      424.97361      2347.0989      313.3403       590.26548      0.40101743     18421.214      362.24339     -4.3577412     -1505.6285     -1198.1755     -2341.5607      450.75121      2.9201771    
    528000   2760.0284      404.9747       2355.0537      298.59477      1029.1474      0.40101743     18421.214      355.09321     -4.3577412     -1489.2536     -1197.9537     -2332.1141      720.54396      1.9447285    
    529000   2766.2719      407.65083      2358.6211      300.56793      252.14001      0.40101743     18421.214      359.57904     -4.3577412     -1491.1027     -1197.4303     -2328.9539      697.92462      2.8965568    
    530000   2791.4437      454.26435      2337.1794      334.93687      166.54027      0.40101743     18421.214      343.73261     -4.3577412     -1494.3103     -1197.4788     -2348.0565      712.35806      2.7460048    
    531000   2766.4896      402.71633      2363.7733      296.92964      108.63719      0.40101743     18421.214      341.03289     -4.3577412     -1488.1339     -1196.4649     -2343.5659      1033.9841      2.5377453    
    532000   2780.8973      427.48879      2353.4085      315.19479     -895.93996      0.40101743     18421.214      327.46549     -4.3577412     -1476.7504     -1197.9318     -2347.2167      1062.4858      2.6528778    
    533000   2748.1046      386.61738      2361.4872      285.0596      -1086.1626      0.40101743     18421.214      340.80121     -4.3577412     -1495.65       -1197.3703     -2352.219       1093.632       2.3761401    
    534000   2751.5131      389.73274      2361.7804      287.35661     -504.76964      0.40101743     18421.214      349.42961     -4.3577412     -1484.8093     -1195.6813     -2331.061       877.7621       2.1739083    
    535000   2748.5921      388.04348      2360.5487      286.11109      681.79266      0.40101743     18421.214      353.92977     -4.3577412     -1500.8162     -1198.0554     -2344.9418      555.72049      2.1630066    
    536000   2755.9258      399.96194      2355.9638      294.89877     -636.87702      0.40101743     18421.214      349.81515     -4.3577412     -1498.1315     -1196.5935     -2344.9098      329.2452       2.6489512    
    537000   2748.4436      430.59182      2317.8518      317.48271      541.58393      0.40101743     18421.214      361.00474     -4.3577412     -1487.5839     -1197.5626     -2324.1418      749.86422      2.7169481    
    538000   2717.7289      399.5668       2318.1621      294.60743      834.39014      0.40101743     18421.214      350.64493     -4.3577412     -1488.0103     -1197.0768     -2334.4421      684.33908      3.1185483    
    539000   2744.7598      414.80453      2329.9552      305.84247      1331.1798      0.40101743     18421.214      363.0353      -4.3577412     -1494.0179     -1197.963      -2328.9456      567.13915      2.9746128    
    540000   2782.1043      435.43363      2346.6706      321.05266      503.33059      0.40101743     18421.214      349.17607     -4.3577412     -1489.7583     -1196.5257     -2337.1079      347.81773      2.3978849    
    541000   2739.6973      397.28311      2342.4141      292.92363      1278.9071      0.40101743     18421.214      370.29573     -4.3577412     -1480.3018     -1196.2292     -2306.2352      577.29695      3.2678743    
    542000   2761.2967      433.58308      2327.7136      319.68822      307.54671      0.40101743     18421.214      343.38518     -4.3577412     -1487.7614     -1195.8877     -2340.2639      809.68343      2.1043243    
    543000   2732.6797      413.55402      2319.1257      304.92045     -808.26769      0.40101743     18421.214      333.36853     -4.3577412     -1491.1323     -1196.8555     -2354.6192      284.33868      2.1145007    
    544000   2767.7645      398.22373      2369.5408      293.61716     -35.282402      0.40101743     18421.214      354.0191      -4.3577412     -1496.3705     -1197.0877     -2339.4391      323.50371      1.9581757    
    545000   2721.451       395.41435      2326.0367      291.54576      1756.0567      0.40101743     18421.214      365.92027     -4.3577412     -1493.9039     -1196.4811     -2324.4647      351.90773      1.8429842    
    546000   2738.415       409.67344      2328.7416      302.05923      468.86158      0.40101743     18421.214      347.88872     -4.3577412     -1488.1502     -1197.8874     -2338.1489      476.41494      2.233111     
    547000   2718.4856      395.10856      2323.3771      291.3203      -321.66618      0.40101743     18421.214      341.3953      -4.3577412     -1480.24       -1196.0753     -2334.9199      525.14859      2.2505548    
    548000   2716.6524      385.03518      2331.6172      283.89302     -283.87396      0.40101743     18421.214      340.30537     -4.3577412     -1500.199      -1196.0397     -2355.9334      636.79065      3.2706997    
    549000   2778.2355      426.21438      2352.0212      314.25514      758.96174      0.40101743     18421.214      347.40316     -4.3577412     -1479.5602     -1195.7424     -2327.8995      556.84435      2.7171033    
    550000   2775.2308      418.45122      2356.7796      308.53124     -172.19967      0.40101743     18421.214      340.9096      -4.3577412     -1491.5358     -1195.1525     -2345.7787      485.45906      2.7534823    
    551000   2761.8192      416.02984      2345.7893      306.74591      155.36562      0.40101743     18421.214      332.78624     -4.3577412     -1480.8677     -1197.166      -2345.2475      484.07205      2.7697025    
    552000   2773.1233      433.30376      2339.8195      319.48227      304.96439      0.40101743     18421.214      340.14975     -4.3577412     -1495.9681     -1196.8896     -2352.708       622.48999      2.7525307    
    553000   2778.5525      413.29211      2365.2604      304.72734      853.68454      0.40101743     18421.214      348.9303      -4.3577412     -1483.353      -1194.7003     -2329.1229      481.75203      3.4149119    
    554000   2728.8125      398.28415      2330.5284      293.66171     -256.05331      0.40101743     18421.214      354.96985     -4.3577412     -1519.4828     -1197.5698     -2362.0827      605.79523      3.4447633    
    555000   2743.3786      400.14271      2343.2359      295.03206      184.42862      0.40101743     18421.214      352.53124     -4.3577412     -1492.6052     -1196.7551     -2336.8291      431.6837       1.8614723    
    556000   2736.9516      402.44595      2334.5057      296.73027     -242.08646      0.40101743     18421.214      339.55918     -4.3577412     -1496.0395     -1195.9166     -2352.397       223.6859       1.7625175    
    557000   2755.9873      408.44064      2347.5467      301.15027      76.611394      0.40101743     18421.214      330.46584     -4.3577412     -1481.1517     -1196.3397     -2347.0256      199.48692      1.8207906    
    558000   2755.0255      396.90406      2358.1214      292.64415      593.6999       0.40101743     18421.214      371.12114     -4.3577412     -1496.9972     -1198.8615     -2324.7375      436.5335       2.936547     
    559000   2733.908       414.00666      2319.9014      305.25418     -1654.9066      0.40101743     18421.214      333.10434     -4.3577412     -1512.1448     -1197.5446     -2376.5851      330.40328      2.0152311    
    560000   2743.8517      415.643        2328.2087      306.46069     -470.55389      0.40101743     18421.214      349.89737     -4.3577412     -1492.6708     -1196.4524     -2339.2258      326.90411      2.9752671    
    561000   2759.6236      396.82148      2362.8021      292.58326      551.99003      0.40101743     18421.214      343.38926     -4.3577412     -1483.3734     -1196.2113     -2336.1955      483.26247      2.8973625    
    562000   2761.5864      430.15137      2331.435       317.15796     -109.58873      0.40101743     18421.214      351.3401      -4.3577412     -1485.1902     -1197.0907     -2330.9408      661.40041      3.4084056    
    563000   2770.3971      412.01996      2358.3771      303.78936     -808.01756      0.40101743     18421.214      347.5225      -4.3577412     -1495.6216     -1197.2897     -2345.3889      643.63667      2.5617853    
    564000   2725.4269      410.83586      2314.591       302.9163       716.33025      0.40101743     18421.214      351.56574     -4.3577412     -1503.9655     -1197.219      -2349.6187      859.05519      2.6426162    
    565000   2725.3057      405.91139      2319.3944      299.28541      560.98894      0.40101743     18421.214      341.16578     -4.3577412     -1488.5262     -1195.9542     -2343.3147      876.74357      2.0181559    
    566000   2749.7764      435.02021      2314.7562      320.74783     -630.39009      0.40101743     18421.214      336.0698      -4.3577412     -1482.2255     -1196.8772     -2343.033       958.08679      2.2453912    
    567000   2768.8881      409.01331      2359.8748      301.57251      741.38417      0.40101743     18421.214      343.626       -4.3577412     -1487.6963     -1198.1262     -2342.1965      507.57761      3.2092317    
    568000   2753.738       427.19799      2326.54        314.98038     -874.35618      0.40101743     18421.214      340.35711     -4.3577412     -1486.6394     -1198.6205     -2344.9028      602.05067      2.9130234    
    569000   2726.1024      396.02759      2330.0748      291.99791      16.228739      0.40101743     18421.214      364.62621     -4.3577412     -1497.1529     -1197.7569     -2330.2835      497.01177      2.6095172    
    570000   2729.3617      376.79965      2352.562       277.82082     -1311.9548      0.40101743     18421.214      330.99613     -4.3577412     -1478.8582     -1196.9073     -2344.7693      481.19285      2.7533943    
    571000   2735.8428      408.92795      2326.9149      301.50957     -493.15004      0.40101743     18421.214      345.36933     -4.3577412     -1489.6947     -1195.9923     -2340.3177      572.44438      2.8947304    
    572000   2775.1804      417.33047      2357.8499      307.70489     -271.11807      0.40101743     18421.214      344.07182     -4.3577412     -1476.4651     -1196.6436     -2329.0369      391.87203      2.2578004    
    573000   2760.7766      404.63964      2356.1369      298.34772     -788.79989      0.40101743     18421.214      348.54617     -4.3577412     -1513.0632     -1197.9937     -2362.5107      649.69573      2.4320879    
    574000   2785.0364      405.68616      2379.3503      299.11934     -1466.7158      0.40101743     18421.214      327.91532     -4.3577412     -1507.0067     -1197.5896     -2376.6811      557.67011      2.3066716    
    575000   2788.224       437.51852      2350.7055      322.58988      1767.3335      0.40101743     18421.214      356.5604      -4.3577412     -1471.1592     -1196.5844     -2311.1832      692.50604      3.2375741    
    576000   2750.1452      398.98025      2351.165       294.17496      1326.9009      0.40101743     18421.214      355.2815      -4.3577412     -1488.2294     -1194.5525     -2327.5004      631.00202      2.3535265    
    577000   2753.7185      435.82739      2317.8912      321.34298     -215.8293       0.40101743     18421.214      342.99214     -4.3577412     -1496.9716     -1198.2004     -2352.1799      547.0492       2.4388908    
    578000   2737.7761      411.51912      2326.257       303.42008     -320.48561      0.40101743     18421.214      343.75269     -4.3577412     -1493.998      -1196.5531     -2346.7985      615.64018      2.1618723    
    579000   2765.1259      403.89657      2361.2294      297.79984     -702.63341      0.40101743     18421.214      339.30899     -4.3577412     -1474.2368     -1197.4365     -2332.3643      556.60163      2.2066054    
    580000   2729.7466      392.38937      2337.3572      289.31539      905.81438      0.40101743     18421.214      356.425       -4.3577412     -1478.8829     -1197.4282     -2319.8861      341.70906      2.4123978    
    581000   2766.6506      424.09065      2342.56        312.68928      829.77708      0.40101743     18421.214      354.57664     -4.3577412     -1498.2478     -1195.66       -2339.3311      470.19349      2.7357832    
    582000   2731.7635      398.07871      2333.6848      293.51024     -478.7436       0.40101743     18421.214      325.92958     -4.3577412     -1492.9708     -1197.182      -2364.2233      633.11918      3.0560133    
    583000   2757.9396      401.91872      2356.0209      296.34154     -855.1873       0.40101743     18421.214      335.70893     -4.3577412     -1490.5782     -1196.8537     -2351.7229      688.70927      2.262704     
    584000   2763.1068      425.97135      2337.1354      314.07596     -175.79784      0.40101743     18421.214      345.7033      -4.3577412     -1474.8207     -1196.7846     -2325.902       731.30476      2.4432451    
    585000   2717.4968      406.32603      2311.1707      299.59112      1231.3165      0.40101743     18421.214      365.02506     -4.3577412     -1479.2398     -1197.8483     -2312.063       790.12284      3.656062     
    586000   2752.4053      394.38879      2358.0165      290.7896      -287.61005      0.40101743     18421.214      339.33833     -4.3577412     -1485.7822     -1197.0976     -2343.5414      819.39782      2.1058672    
    587000   2731.5372      389.17971      2342.3575      286.94885     -161.55603      0.40101743     18421.214      338.72664     -4.3577412     -1473.3139     -1197.5031     -2332.0904      606.48143      2.1644357    
    588000   2727.8253      393.74101      2334.0843      290.31198     -229.06279      0.40101743     18421.214      352.87012     -4.3577412     -1475.4921     -1195.2631     -2317.8851      636.94558      2.4677332    
    589000   2740.6475      405.36042      2335.2871      298.87917     -642.38577      0.40101743     18421.214      336.29581     -4.3577412     -1493.7876     -1195.9655     -2353.4573      489.6142       2.4758433    
    590000   2733.4584      418.86954      2314.5889      308.83967      840.77207      0.40101743     18421.214      356.26534     -4.3577412     -1494.8619     -1197.1359     -2335.7325      350.01172      1.8263196    
    591000   2776.4419      416.17603      2360.2659      306.8537      -477.44358      0.40101743     18421.214      345.48074     -4.3577412     -1497.1892     -1197.8696     -2349.5781      419.78399      3.0270015    
    592000   2754.6352      435.02147      2319.6137      320.74877      283.8476       0.40101743     18421.214      344.16331     -4.3577412     -1484.557      -1196.8496     -2337.2433      443.99247      2.7462266    
    593000   2772.417       406.59423      2365.8228      299.78887     -29.368785      0.40101743     18421.214      356.25401     -4.3577412     -1509.4178     -1198.307      -2351.4708      558.41958      2.1599274    
    594000   2771.3399      418.00459      2353.3353      308.20193     -133.62373      0.40101743     18421.214      345.12172     -4.3577412     -1486.4422     -1197.067      -2338.3874      501.33353      2.3237733    
    595000   2764.4393      399.71764      2364.7216      294.71865      33.692983      0.40101743     18421.214      344.92929     -4.3577412     -1498.6756     -1197.4659     -2351.2122      501.39973      2.8899335    
    596000   2778.6935      433.99705      2344.6965      319.99344      1439.3567      0.40101743     18421.214      354.89319     -4.3577412     -1494.7579     -1196.7374     -2336.6021      600.91833      3.125993     
    597000   2772.0506      413.62846      2358.4221      304.97534     -1095.1945      0.40101743     18421.214      349.6381      -4.3577412     -1492.2108     -1197.875      -2340.4477      919.34182      2.1254465    
    598000   2757.9671      430.13376      2327.8334      317.14497      258.54965      0.40101743     18421.214      331.91497     -4.3577412     -1491.4347     -1196.0216     -2355.5414      592.91877      2.1835818    
    599000   2743.7506      405.24626      2338.5043      298.795       -967.80232      0.40101743     18421.214      345.57163     -4.3577412     -1507.3344     -1198.7121     -2360.4749      421.57357      1.9858494    
    600000   2753.2344      409.38523      2343.8492      301.84673     -840.73878      0.40101743     18421.214      356.18072     -4.3577412     -1490.5892     -1196.4705     -2330.8789      623.33897      2.1519706    
    601000   2780.2009      418.38984      2361.8111      308.48598     -501.30333      0.40101743     18421.214      354.0156      -4.3577412     -1484.8017     -1195.409      -2326.1951      671.15192      3.1949398    
    602000   2762.3673      407.60905      2354.7582      300.53712      1823.5679      0.40101743     18421.214      346.36346     -4.3577412     -1477.8782     -1195.9571     -2327.4718      570.34859      2.721456     
    603000   2757.6911      399.78086      2357.9102      294.76526      1338.4356      0.40101743     18421.214      363.03768     -4.3577412     -1495.0085     -1195.7646     -2327.7354      494.61293      2.5924346    
    604000   2739.1006      396.76913      2342.3315      292.54466     -58.719778      0.40101743     18421.214      364.66921     -4.3577412     -1478.6417     -1196.1308     -2310.1033      376.97688      3.0577311    
    605000   2723.114       388.13569      2334.9783      286.17908     -568.60683      0.40101743     18421.214      362.78976     -4.3577412     -1488.3038     -1198.4044     -2323.9184      537.44852      2.4022956    
    606000   2767.6524      418.25476      2349.3977      308.38638      871.49111      0.40101743     18421.214      346.91987     -4.3577412     -1498.6995     -1196.9931     -2348.7727      417.67075      2.9037826    
    607000   2790.63        407.65512      2382.9749      300.57108     -136.01395      0.40101743     18421.214      326.53985     -4.3577412     -1489.5364     -1197.0365     -2360.033       396.30752      2.5212277    
    608000   2778.1182      428.92904      2349.1891      316.25671      950.65532      0.40101743     18421.214      343.95078     -4.3577412     -1493.4978     -1196.9702     -2346.5172      359.78286      2.5843737    
    609000   2746.6367      404.34339      2342.2933      298.12929     -459.10817      0.40101743     18421.214      330.37897     -4.3577412     -1497.9451     -1196.3431     -2363.9092      348.69417      2.0581801    
    610000   2774.5694      397.1079       2377.4615      292.79444     -804.85296      0.40101743     18421.214      357.99957     -4.3577412     -1506.4172     -1197.7442     -2346.1618      346.00606      2.3229024    
    611000   2759.8807      417.58784      2342.2928      307.89465      857.11659      0.40101743     18421.214      349.53382     -4.3577412     -1484.2764     -1196.8535     -2331.596       348.88057      2.5469126    
    612000   2734.6251      404.35892      2330.2661      298.14074     -1631.4332      0.40101743     18421.214      343.12203     -4.3577412     -1503.0257     -1198.6588     -2358.5625      432.51413      1.6519215    
    613000   2730.5749      399.15637      2331.4185      294.30481     -1108.2277      0.40101743     18421.214      351.00122     -4.3577412     -1490.2735     -1197.7202     -2336.9924      244.13127      2.7710939    
    614000   2723.2787      389.6104       2333.6683      287.26641     -1147.8134      0.40101743     18421.214      334.31221     -4.3577412     -1487.4886     -1198.007      -2351.1834      425.62969      3.3526817    
    615000   2767.8291      407.8895       2359.9396      300.7439      -883.64439      0.40101743     18421.214      332.80829     -4.3577412     -1489.8776     -1196.3627     -2353.432       272.6558       2.4336067    
    616000   2776.6371      427.43497      2349.2021      315.15511      588.08886      0.40101743     18421.214      342.13433     -4.3577412     -1484.3773     -1195.8635     -2338.1065      291.13751      2.0095464    
    617000   2742.6139      405.18941      2337.4245      298.75308      436.60942      0.40101743     18421.214      359.17647     -4.3577412     -1494.4415     -1198.3124     -2333.5774      214.48279      2.1077482    
    618000   2745.4283      398.41934      2347.009       293.76139      332.26004      0.40101743     18421.214      341.91742     -4.3577412     -1480.0461     -1196.2697     -2334.3984      456.07801      2.9407027    
    619000   2757.8058      418.67743      2339.1284      308.69803      216.45912      0.40101743     18421.214      345.37032     -4.3577412     -1486.0023     -1197.4706     -2338.1026      335.93611      2.8728185    
    620000   2730.4279      414.0075       2316.4204      305.25481      294.6259       0.40101743     18421.214      342.75055     -4.3577412     -1495.214      -1195.574      -2348.0374      196.37495      2.0982912    
    621000   2742.4037      401.89693      2340.5068      296.32548      1329.3343      0.40101743     18421.214      356.7887      -4.3577412     -1490.9478     -1196.3654     -2330.5246      364.47836      2.1279389    
    622000   2806.328       428.88305      2377.445       316.2228      -389.09147      0.40101743     18421.214      347.40768     -4.3577412     -1476.2731     -1196.903      -2325.7684      276.07123      2.6513765    
    623000   2784.712       426.32961      2358.3823      314.34011     -253.60164      0.40101743     18421.214      354.64413     -4.3577412     -1504.9222     -1197.9344     -2348.2125      425.61077      2.4548306    
    624000   2781.3923      423.21812      2358.1742      312.04595      45.563884      0.40101743     18421.214      344.22748     -4.3577412     -1490.8975     -1197.6283     -2344.2983      269.33171      2.2689106    
    625000   2780.1092      432.28557      2347.8236      318.73154     -813.44211      0.40101743     18421.214      326.73296     -4.3577412     -1498.9682     -1196.4814     -2368.7166      252.88743      2.4931829    
    626000   2781.3078      414.64133      2366.6664      305.72214     -1267.2634      0.40101743     18421.214      341.32281     -4.3577412     -1488.2729     -1198.0726     -2345.0227      466.21932      1.8939796    
    627000   2774.7145      421.44281      2353.2716      310.73699      551.77768      0.40101743     18421.214      346.81179     -4.3577412     -1490.093      -1195.7298     -2339.0111      516.95743      2.998369     
    628000   2766.1587      435.02381      2331.1349      320.75049      1150.701       0.40101743     18421.214      357.65836     -4.3577412     -1490.9667     -1197.2144     -2330.5228      461.81928      1.7832315    
    629000   2747.6342      406.98603      2340.6481      300.07776      448.70413      0.40101743     18421.214      353.4081      -4.3577412     -1494.9367     -1196.3327     -2337.8613      450.64694      2.6790007    
    630000   2749.3548      396.41977      2352.935       292.28708      394.63355      0.40101743     18421.214      355.85476     -4.3577412     -1474.9586     -1197.5082     -2316.612       351.28014      2.9061709    
    631000   2738.5431      402.98266      2335.5604      297.126        728.79908      0.40101743     18421.214      358.58048     -4.3577412     -1501.688      -1195.6693     -2338.7768      251.23904      2.588066     
    632000   2722.3485      393.46246      2328.886       290.1066      -1348.1758      0.40101743     18421.214      336.27566     -4.3577412     -1501.2775     -1198.2884     -2363.2902      234.27659      2.5526414    
    633000   2741.6677      400.29464      2341.3731      295.14408     -519.88824      0.40101743     18421.214      342.24149     -4.3577412     -1503.0744     -1197.8165     -2358.6494      242.25093      2.7979352    
    634000   2720.1713      397.25969      2322.9116      292.90636      964.03198      0.40101743     18421.214      363.85151     -4.3577412     -1507.2122     -1196.4401     -2339.8008      220.30129      2.2796392    
    635000   2742.3224      396.95572      2345.3667      292.68224      1492.8015      0.40101743     18421.214      365.7771      -4.3577412     -1504.5129     -1197.0883     -2335.8241      292.11101      2.2444614    
    636000   2725.1768      386.15837      2339.0185      284.72117      359.41156      0.40101743     18421.214      346.72863     -4.3577412     -1497.7238     -1196.6485     -2347.6436      251.61265      3.469165     
    637000   2712.7142      393.48533      2319.2288      290.12346      128.43995      0.40101743     18421.214      339.00334     -4.3577412     -1475.0302     -1195.6865     -2331.7133      340.63521      2.6036205    
    638000   2748.1405      426.05989      2322.0806      314.14124      703.26908      0.40101743     18421.214      346.66627     -4.3577412     -1496.585      -1195.8813     -2345.8         397.8012       2.8175131    
    639000   2738.1191      394.95378      2343.1654      291.20617     -463.12066      0.40101743     18421.214      337.11956     -4.3577412     -1485.9795     -1196.7444     -2345.6044      394.41583      3.865334     
    640000   2789.524       435.3063       2354.2177      320.95877     -436.08527      0.40101743     18421.214      350.41534     -4.3577412     -1502.1239     -1197.7891     -2349.4977      376.61758      2.9073386    
    641000   2735.7995      408.20272      2327.5968      300.97484     -313.31961      0.40101743     18421.214      338.82306     -4.3577412     -1489.0576     -1196.1129     -2346.3474      397.34078      1.7347966    
    642000   2772.1487      430.66692      2341.4818      317.53808      410.36102      0.40101743     18421.214      339.08816     -4.3577412     -1468.2818     -1195.7136     -2324.9072      371.26798      3.0357033    
    643000   2745.3402      404.45903      2340.8812      298.21455     -505.36939      0.40101743     18421.214      350.26992     -4.3577412     -1484.5529     -1196.3712     -2330.6542      227.10407      2.0662128    
    644000   2733.1887      414.40562      2318.7831      305.54834     -41.365292      0.40101743     18421.214      344.6105      -4.3577412     -1487.9927     -1197.0015     -2340.3836      234.36701      2.3448363    
    645000   2798.3376      457.07184      2341.2658      337.00688      1079.3615      0.40101743     18421.214      343.94232     -4.3577412     -1496.8523     -1196.7235     -2349.6335      306.21324      2.8302694    
    646000   2758.7275      406.93092      2351.7966      300.03712      412.79005      0.40101743     18421.214      355.28605     -4.3577412     -1492.6237     -1197.3984     -2334.7361      447.48462      2.1139545    
    647000   2757.0653      432.6794       2324.386       319.02191     -214.5689       0.40101743     18421.214      346.93402     -4.3577412     -1492.4554     -1197.1363     -2342.6577      282.0097       2.1362472    
    648000   2751.4286      418.8926       2332.536       308.85667      375.13003      0.40101743     18421.214      355.69002     -4.3577412     -1498.2101     -1196.7148     -2339.2349      260.37884      2.1109292    
    649000   2756.7776      411.41336      2345.3643      303.34211      1430.8483      0.40101743     18421.214      352.83829     -4.3577412     -1481.8625     -1195.4628     -2324.487       363.21262      2.6622574    
    650000   2787.9499      422.09343      2365.8564      311.2167       768.55292      0.40101743     18421.214      340.73085     -4.3577412     -1480.3349     -1196.7182     -2336.3223      503.63895      2.4336693    
    651000   2743.2252      411.34355      2331.8816      303.29063      700.03335      0.40101743     18421.214      339.75278     -4.3577412     -1489.296      -1195.8017     -2345.3449      679.55119      2.7124707    
    652000   2788.2138      441.04035      2347.1734      325.18659     -1638.1962      0.40101743     18421.214      340.36611     -4.3577412     -1515.6443     -1195.9912     -2371.2694      441.72548      2.2550281    
    653000   2729.8336      391.40183      2338.4318      288.58726     -543.84113      0.40101743     18421.214      339.12279     -4.3577412     -1483.3015     -1196.6832     -2340.8619      265.83251      2.5572241    
    654000   2777.4969      432.37553      2345.1213      318.79787      1861.3407      0.40101743     18421.214      359.58267     -4.3577412     -1507.3217     -1197.5024     -2345.2415      382.76008      3.7191116    
    655000   2724.1279      396.13997      2327.9879      292.08077      847.06924      0.40101743     18421.214      367.39279     -4.3577412     -1495.0454     -1196.8052     -2324.4578      304.79928      3.130126     
    656000   2771.3745      413.96717      2357.4073      305.22507      312.35654      0.40101743     18421.214      357.52966     -4.3577412     -1486.2091     -1196.4381     -2325.1175      331.84244      2.3177377    
    657000   2787.0799      417.66743      2369.4125      307.95334     -235.81925      0.40101743     18421.214      355.79128     -4.3577412     -1490.2526     -1197.0714     -2331.5327      489.91184      2.9289852    
    658000   2768.493       429.82654      2338.6664      316.91846      829.92968      0.40101743     18421.214      362.78977     -4.3577412     -1480.8725     -1195.4954     -2313.5782      310.79236      2.4078275    
    659000   2756.4723      404.57689      2351.8954      298.30145      942.66931      0.40101743     18421.214      358.63357     -4.3577412     -1481.5151     -1197.2243     -2320.1058      398.38419      1.8812719    
    660000   2762.2342      413.13795      2349.0963      304.61368      388.94948      0.40101743     18421.214      353.30663     -4.3577412     -1498.6093     -1197.8267     -2343.1294      225.67062      2.8124815    
    661000   2765.9286      408.43771      2357.4909      301.1481      -187.64507      0.40101743     18421.214      346.9169      -4.3577412     -1479.1926     -1196.3465     -2328.6222      361.4584       2.8285093    
    662000   2687.0028      371.46166      2315.5412      273.88503      368.46021      0.40101743     18421.214      348.19695     -4.3577412     -1500.0778     -1197.7997     -2349.6806      340.92031      2.4763869    
    663000   2760.7076      412.28632      2348.4213      303.98575      396.91303      0.40101743     18421.214      352.13417     -4.3577412     -1496.7276     -1197.0944     -2341.6879      269.04878      2.2167079    
    664000   2720.6766      404.26315      2316.4135      298.07013      766.8973       0.40101743     18421.214      356.71372     -4.3577412     -1492.9436     -1198.0888     -2334.3186      288.76139      2.1582765    
    665000   2757.184       418.79008      2338.3939      308.78108     -1431.7406      0.40101743     18421.214      338.83198     -4.3577412     -1479.749      -1196.6894     -2337.6064      304.95665      1.811273     
    666000   2763.3927      425.52409      2337.8686      313.74619      2227.2386      0.40101743     18421.214      358.78151     -4.3577412     -1488.133      -1197.7369     -2327.0884      220.33002      1.9167048    
    667000   2741.1468      416.79336      2324.3534      307.30887      1097.5816      0.40101743     18421.214      352.21878     -4.3577412     -1493.398      -1195.838      -2337.0172      240.77217      2.2220716    
    668000   2735.7973      410.06592      2325.7314      302.34861      288.40262      0.40101743     18421.214      341.58433     -4.3577412     -1490.3117     -1195.8642     -2344.5916      280.78951      3.2876446    
    669000   2764.1756      401.27115      2362.9045      295.86408      167.33356      0.40101743     18421.214      350.18189     -4.3577412     -1488.3958     -1197.691      -2335.9049      482.74418      2.8656033    
    670000   2765.3773      411.90434      2353.4729      303.70411      510.20179      0.40101743     18421.214      364.6877      -4.3577412     -1480.0578     -1195.5505     -2310.9206      301.11189      2.1078712    
    671000   2733.9537      407.13226      2326.8214      300.18557     -538.63305      0.40101743     18421.214      330.43502     -4.3577412     -1478.5273     -1196.5471     -2344.6393      285.01694      2.7266087    
    672000   2743.2009      427.33448      2315.8664      315.08102      704.5977       0.40101743     18421.214      354.70089     -4.3577412     -1495.9794     -1198.0926     -2339.3711      182.11217      2.3070598    
    673000   2754.9433      412.47421      2342.4691      304.12428     -273.34922      0.40101743     18421.214      348.58882     -4.3577412     -1493.1631     -1196.4132     -2340.9875      278.50897      1.9489352    
    674000   2736.5302      396.35767      2340.1726      292.24128     -736.861        0.40101743     18421.214      337.34331     -4.3577412     -1485.3625     -1196.3634     -2344.3826      249.86933      3.2577397    
    675000   2772.2261      417.04751      2355.1786      307.49626     -908.01292      0.40101743     18421.214      349.12467     -4.3577412     -1488.467      -1197.5028     -2336.8452      221.75236      1.8781288    
    676000   2732.5697      391.98417      2340.5855      289.01663     -501.66203      0.40101743     18421.214      354.21853     -4.3577412     -1506.7115     -1196.7711     -2349.264       306.17662      2.5818993    
    677000   2709.2938      390.22669      2319.0671      287.72081      501.79156      0.40101743     18421.214      360.35005     -4.3577412     -1488.5406     -1197.0887     -2325.2793      211.08802      2.2346306    
    678000   2762.4288      410.88513      2351.5437      302.95263      477.61611      0.40101743     18421.214      352.95221     -4.3577412     -1488.8333     -1196.6575     -2332.5385      322.58021      2.4803799    
    679000   2696.0792      378.59738      2317.4819      279.14632     -491.24028      0.40101743     18421.214      335.05021     -4.3577412     -1488.4614     -1198.1851     -2351.5964      307.96637      2.1500117    
    680000   2755.8152      408.41163      2347.4036      301.12887     -622.2209       0.40101743     18421.214      341.10651     -4.3577412     -1503.8294     -1195.9052     -2358.6281      425.87699      2.3964892    
    681000   2722.2253      397.60197      2324.6233      293.15873      74.881232      0.40101743     18421.214      339.76371     -4.3577412     -1504.7212     -1197.0186     -2361.9761      213.20931      1.4657945    
    682000   2760.5077      412.26682      2348.2409      303.97137     -363.77556      0.40101743     18421.214      349.71465     -4.3577412     -1470.219      -1196.3892     -2316.8936      185.68401      2.133224     
    683000   2728.3022      409.77392      2318.5283      302.13331      323.30126      0.40101743     18421.214      343.98035     -4.3577412     -1505.054      -1198.3862     -2359.4599      182.07213      2.1695934    
    684000   2781.9648      440.03773      2341.9271      324.44734      235.03571      0.40101743     18421.214      349.50106     -4.3577412     -1498.185      -1198.3226     -2347.0066      277.23915      2.1132774    
    685000   2736.2397      408.87556      2327.3641      301.47094     -356.94263      0.40101743     18421.214      352.93728     -4.3577412     -1499.5003     -1196.1658     -2342.7288      172.52579      2.234609     
    686000   2759.9239      410.77142      2349.1525      302.86879      556.1693       0.40101743     18421.214      347.08549     -4.3577412     -1501.2534     -1196.1089     -2350.2768      281.77953      2.5559522    
    687000   2756.1154      413.40739      2342.708       304.81233     -19.810015      0.40101743     18421.214      345.94218     -4.3577412     -1495.2609     -1195.3396     -2344.6583      266.29757      3.2564094    
    688000   2809.0256      447.38548      2361.6401      329.86496     -116.06503      0.40101743     18421.214      335.91159     -4.3577412     -1495.3135     -1196.445      -2355.8469      358.51137      1.974649     
    689000   2716.1275      399.70205      2316.4255      294.70715      118.93046      0.40101743     18421.214      349.61677     -4.3577412     -1497.2524     -1196.7126     -2344.3482      271.3392       1.7639175    
    690000   2749.6175      399.19978      2350.4177      294.33682      1290.2261      0.40101743     18421.214      337.96124     -4.3577412     -1492.5364     -1196.8946     -2351.4697      183.38384      2.0180642    
    691000   2730.1102      400.77226      2329.3379      295.49624      343.14941      0.40101743     18421.214      347.16229     -4.3577412     -1480.6227     -1195.8757     -2329.336       344.98526      1.9973771    
    692000   2748.2995      413.34827      2334.9513      304.76875     -63.303068      0.40101743     18421.214      347.11413     -4.3577412     -1488.6037     -1197.6451     -2339.1347      210.83754      2.8896222    
    693000   2729.5047      399.66792      2329.8368      294.68199     -1427.8938      0.40101743     18421.214      345.21914     -4.3577412     -1508.9492     -1196.9795     -2360.7096      288.08022      3.0843176    
    694000   2740.8985      412.79697      2328.1015      304.36226      1285.8088      0.40101743     18421.214      344.43699     -4.3577412     -1494.1657     -1196.9212     -2346.65        304.74386      2.7664514    
    695000   2764.3559      434.66597      2329.69        320.48665      851.5918       0.40101743     18421.214      350.31856     -4.3577412     -1483.2886     -1196.3205     -2329.2905      222.41741      3.1714564    
    696000   2761.3127      423.67041      2337.6423      312.37943      241.73593      0.40101743     18421.214      359.00779     -4.3577412     -1503.4893     -1197.3199     -2341.8014      190.14855      2.1936064    
    697000   2770.3048      428.90285      2341.402       316.2374       1565.3723      0.40101743     18421.214      347.82773     -4.3577412     -1502.0078     -1197.2247     -2351.4047      219.44004      2.7903076    
    698000   2724.6746      404.81369      2319.8609      298.47605     -512.16616      0.40101743     18421.214      341.40488     -4.3577412     -1494.5658     -1197.5579     -2350.7188      294.03414      3.0790125    
    699000   2741.2717      399.09767      2342.174       294.26153      1985.3312      0.40101743     18421.214      360.44281     -4.3577412     -1489.8615     -1195.9255     -2325.3442      280.00993      2.9996214    
    700000   2746.2835      394.38233      2351.9012      290.78484      1055.7836      0.40101743     18421.214      359.19598     -4.3577412     -1493.5231     -1196.8185     -2331.1456      241.29384      2.3854316    
    701000   2779.2147      420.3917       2358.823       309.96199     -77.880229      0.40101743     18421.214      341.03573     -4.3577412     -1489.8284     -1196.7865     -2345.5792      221.36394      1.8265532    
    702000   2756.5818      411.64764      2344.9342      303.51484     -542.40734      0.40101743     18421.214      341.40017     -4.3577412     -1508.4039     -1196.7191     -2363.7228      225.0163       2.2850239    
    703000   2766.6941      423.56262      2343.1314      312.29996      181.68765      0.40101743     18421.214      345.18554     -4.3577412     -1502.6268     -1196.1785     -2353.6197      257.98871      2.2003181    
    704000   2746.8453      413.96359      2332.8817      305.22243      1571.5032      0.40101743     18421.214      359.22432     -4.3577412     -1502.5557     -1198.3301     -2341.6615      238.79461      2.1821264    
    705000   2743.3333      426.40256      2316.9307      314.3939      -59.714519      0.40101743     18421.214      330.18217     -4.3577412     -1485.0825     -1197.2491     -2352.1495      312.85636      2.7627022    
    706000   2798.4311      439.43199      2358.9992      324.00072     -420.15768      0.40101743     18421.214      349.4854      -4.3577412     -1482.3898     -1197.8073     -2330.7117      280.78248      2.1573807    
    707000   2728.4926      400.22055      2328.2721      295.08946     -252.9025       0.40101743     18421.214      357.90302     -4.3577412     -1485.0711     -1197.5324     -2324.7004      190.43367      1.6099162    
    708000   2717.9724      414.64768      2303.3247      305.72682     -123.2824       0.40101743     18421.214      331.57683     -4.3577412     -1490.0864     -1197.9724     -2356.4819      235.68124      2.0853604    
    709000   2735.0069      401.68477      2333.3221      296.16905      126.41682      0.40101743     18421.214      346.87547     -4.3577412     -1499.7871     -1197.719      -2350.6306      258.94958      2.7521213    
    710000   2749.3149      404.66025      2344.6547      298.36292      205.52015      0.40101743     18421.214      366.44193     -4.3577412     -1499.5599     -1198.9807     -2332.0987      230.89406      2.30603      
    711000   2747.0979      404.92298      2342.1749      298.55663      811.55191      0.40101743     18421.214      348.31759     -4.3577412     -1490.2108     -1196.9337     -2338.827       291.24761      2.3215161    
    712000   2693.4072      391.12709      2302.2801      288.38469     -568.42091      0.40101743     18421.214      348.11075     -4.3577412     -1497.6487     -1198.0279     -2347.5659      167.44952      2.523585     
    713000   2769.3026      426.85883      2342.4438      314.73031     -1237.0152      0.40101743     18421.214      343.52435     -4.3577412     -1507.3781     -1197.1392     -2360.9929      221.64766      2.1710737    
    714000   2740.3978      418.41307      2321.9848      308.50311      1141.6833      0.40101743     18421.214      354.82147     -4.3577412     -1512.1327     -1197.8151     -2355.1264      182.39759      1.9744199    
    715000   2766.0727      399.20211      2366.8706      294.33854     -1454.3208      0.40101743     18421.214      346.28167     -4.3577412     -1488.4457     -1197.0811     -2339.2452      175.54253      2.6555636    
    716000   2750.242       405.45856      2344.7834      298.95153      380.08181      0.40101743     18421.214      354.34897     -4.3577412     -1492.1835     -1198.7534     -2336.588       276.14928      2.894428     
    717000   2770.4767      406.64901      2363.8277      299.82926     -1478.2072      0.40101743     18421.214      327.30024     -4.3577412     -1479.2737     -1195.4427     -2347.4161      220.42565      1.9891163    
    718000   2767.9097      445.03735      2322.8723      328.13364     -331.62287      0.40101743     18421.214      336.6628      -4.3577412     -1498.8768     -1196.7367     -2358.9507      176.62626      2.7207146    
    719000   2751.0557      408.01308      2343.0426      300.83502      71.702413      0.40101743     18421.214      347.92943     -4.3577412     -1501.2215     -1194.8216     -2348.1136      212.05549      1.876088     
    720000   2742.2225      399.31654      2342.9059      294.42291      14.086204      0.40101743     18421.214      353.69584     -4.3577412     -1498.0817     -1196.9843     -2341.3702      200.51595      2.8598486    
    721000   2753.8726      410.93398      2342.9387      302.98865      160.48777      0.40101743     18421.214      350.10515     -4.3577412     -1504.0232     -1196.5169     -2350.435       234.56663      2.3966661    
    722000   2720.0962      383.73812      2336.3581      282.93667      135.91662      0.40101743     18421.214      338.91499     -4.3577412     -1485.5217     -1196.6892     -2343.2958      230.16707      2.700495     
    723000   2740.0064      397.99913      2342.0072      293.45156      1622.3742      0.40101743     18421.214      355.51437     -4.3577412     -1496.2079     -1195.3015     -2335.9951      174.55395      2.2207869    
    724000   2744.3519      414.48744      2329.8644      305.60867     -597.1646       0.40101743     18421.214      336.23471     -4.3577412     -1480.6036     -1197.4121     -2341.781       208.35926      3.1598764    
    725000   2729.9004      407.96075      2321.9396      300.79643     -70.623688      0.40101743     18421.214      347.25061     -4.3577412     -1488.3581     -1197.5568     -2338.6643      266.90766      2.5157074    
    726000   2760.2738      442.61449      2317.6593      326.34723      1320.8861      0.40101743     18421.214      351.76397     -4.3577412     -1503.3299     -1196.7439     -2348.3098      241.50965      3.1073575    
    727000   2731.6826      417.35846      2314.3241      307.72553     -742.64133      0.40101743     18421.214      358.06804     -4.3577412     -1494.3263     -1195.7325     -2331.9908      233.55221      2.4213311    
    728000   2752.6537      413.68849      2338.9652      305.0196      -475.83269      0.40101743     18421.214      357.58504     -4.3577412     -1501.3224     -1197.2079     -2340.9452      288.92339      3.3307077    
    729000   2754.6579      408.8322       2345.8257      301.43897      288.16397      0.40101743     18421.214      349.97166     -4.3577412     -1490.5738     -1197.817      -2338.4191      245.77903      2.2176255    
    730000   2767.2523      431.59392      2335.6584      318.22157     -83.896703      0.40101743     18421.214      347.07742     -4.3577412     -1480.8593     -1197.0956     -2330.8775      212.13925      2.7965291    
    731000   2732.2627      387.78225      2344.4805      285.91848      1171.2006      0.40101743     18421.214      354.00659     -4.3577412     -1509.3603     -1199.2817     -2354.6355      241.52025      2.4445368    
    732000   2737.6751      415.35641      2322.3187      306.24938     -261.2467       0.40101743     18421.214      346.85081     -4.3577412     -1499.9863     -1196.8778     -2350.0132      255.81634      2.2589337    
    733000   2708.4739      388.931        2319.5429      286.76547      1107.5688      0.40101743     18421.214      347.34319     -4.3577412     -1487.0907     -1197.5148     -2337.2623      236.34014      2.9641628    
    734000   2754.422       422.85277      2331.5693      311.77657      606.95907      0.40101743     18421.214      343.22783     -4.3577412     -1495.1539     -1196.1915     -2348.1176      238.9994       1.8362988    
    735000   2735.3897      402.49148      2332.8982      296.76385      1017.9566      0.40101743     18421.214      362.86667     -4.3577412     -1488.994      -1198.3493     -2324.4767      188.20573      3.5101091    
    736000   2753.4501      420.86736      2332.5827      310.3127      -599.02024      0.40101743     18421.214      342.06651     -4.3577412     -1491.3911     -1197.1524     -2346.477       216.39874      2.2386721    
    737000   2773.4262      416.4027       2357.0235      307.02083      1158.3234      0.40101743     18421.214      351.07106     -4.3577412     -1497.4039     -1197.4602     -2343.793       243.42306      2.9349999    
    738000   2787.3861      444.06523      2343.3209      327.41688      1359.3674      0.40101743     18421.214      359.04014     -4.3577412     -1499.5135     -1197.0615     -2337.5349      262.78599      2.77992      
    739000   2755.344       404.34059      2351.0034      298.12723      613.85479      0.40101743     18421.214      349.32968     -4.3577412     -1472.4408     -1195.9194     -2319.0305      213.70614      1.4962164    
    740000   2758.3177      424.79162      2333.5261      313.20612     -237.6047       0.40101743     18421.214      347.63476     -4.3577412     -1492.3062     -1197.3696     -2342.041       202.291        2.0952197    
    741000   2733.2297      382.63761      2350.5921      282.12525      253.44213      0.40101743     18421.214      344.73453     -4.3577412     -1495.4544     -1197.9127     -2348.6326      262.33121      2.7652014    
    742000   2738.664       421.28225      2317.3817      310.6186       1411.4373      0.40101743     18421.214      365.3028      -4.3577412     -1495.8991     -1196.708      -2327.3042      222.77738      3.1016352    
    743000   2748.232       431.82741      2316.4046      318.39373      1081.6481      0.40101743     18421.214      356.32543     -4.3577412     -1493.2952     -1196.3977     -2333.3675      223.78359      2.2064261    
    744000   2753.7644      410.08563      2343.6788      302.36315      538.68196      0.40101743     18421.214      357.34166     -4.3577412     -1508.2772     -1197.6011     -2348.5366      171.50016      1.995532     
    745000   2694.444       395.0132       2299.4308      291.24999      722.75014      0.40101743     18421.214      339.02078     -4.3577412     -1487.2571     -1196.6057     -2344.8421      188.04074      1.35233      
    746000   2763.1281      425.09508      2338.033       313.42987     -219.0776       0.40101743     18421.214      350.04525     -4.3577412     -1498.5991     -1197.936      -2346.4898      188.48169      2.6673621    
    747000   2746.5326      421.48662      2325.046       310.76929      1081.7777      0.40101743     18421.214      364.93698     -4.3577412     -1480.7904     -1198.4059     -2314.2594      231.80804      2.8163584    
    748000   2681.3767      381.11883      2300.2579      281.00543     -332.26551      0.40101743     18421.214      344.22678     -4.3577412     -1489.0694     -1197.3587     -2342.2013      174.00876      2.1673057    
    749000   2785.3473      446.88565      2338.4617      329.49643      460.41411      0.40101743     18421.214      354.92218     -4.3577412     -1498.8415     -1197.4241     -2341.3434      197.48498      2.7315615    
    750000   2730.3545      405.77101      2324.5835      299.1819      -513.03768      0.40101743     18421.214      343.64002     -4.3577412     -1487.1937     -1196.8925     -2340.4462      164.8838       1.583908     
    751000   2721.7213      410.24316      2311.4781      302.4793      -329.49289      0.40101743     18421.214      351.21962     -4.3577412     -1497.5605     -1196.548      -2342.8889      164.41148      2.3296283    
    752000   2771.6305      429.32308      2342.3074      316.54725     -145.08884      0.40101743     18421.214      350.37853     -4.3577412     -1489.0114     -1196.0502     -2334.6831      271.25932      2.4158858    
    753000   2727.0532      402.09053      2324.9627      296.46822      420.79735      0.40101743     18421.214      343.23575     -4.3577412     -1488.0267     -1195.7543     -2340.5452      206.66167      2.0103004    
    754000   2743.6937      408.78015      2334.9136      301.40059      1259.6619      0.40101743     18421.214      362.75437     -4.3577412     -1481.5423     -1196.3552     -2315.1431      194.84212      3.2982826    
    755000   2757.2291      426.49821      2330.7309      314.46442      43.282441      0.40101743     18421.214      350.68835     -4.3577412     -1493.0149     -1195.5098     -2337.8364      262.21272      3.4854662    
    756000   2725.7113      398.7506       2326.9607      294.00563      1111.1105      0.40101743     18421.214      359.28881     -4.3577412     -1493.212      -1197.0047     -2330.9279      197.05442      2.5304594    
    757000   2724.8895      407.98261      2316.9069      300.81255     -624.40837      0.40101743     18421.214      334.59339     -4.3577412     -1507.9654     -1197.1778     -2370.5498      228.70156      1.9384848    
    758000   2776.7244      418.80322      2357.9212      308.79077      133.99952      0.40101743     18421.214      336.88461     -4.3577412     -1502.2726     -1197.1107     -2362.4986      254.51854      2.6067448    
    759000   2765.6809      451.01593      2314.665       332.54175     -918.42134      0.40101743     18421.214      335.8156      -4.3577412     -1499.0727     -1198.1191     -2361.3762      192.70805      2.312746     
    760000   2746.8806      407.33597      2339.5446      300.33577      282.14517      0.40101743     18421.214      344.50647     -4.3577412     -1486.0011     -1195.978      -2337.4727      250.51924      1.7451127    
    761000   2731.5663      420.92229      2310.644       310.3532       390.08566      0.40101743     18421.214      340.95797     -4.3577412     -1500.5706     -1196.2428     -2355.8554      186.69283      1.7864829    
    762000   2790.328       432.76024      2357.5678      319.08152     -351.65331      0.40101743     18421.214      346.57144     -4.3577412     -1478.2343     -1196.3135     -2327.9763      221.43154      2.5128931    
    763000   2739.4045      424.35125      2315.0532      312.88143     -165.24902      0.40101743     18421.214      360.12332     -4.3577412     -1508.8379     -1197.8447     -2346.5592      150.67326      1.9867966    
    764000   2719.3526      384.60666      2334.746       283.57707     -429.50894      0.40101743     18421.214      345.77188     -4.3577412     -1485.3801     -1196.6521     -2336.2603      245.67675      3.1132811    
    765000   2699.5421      399.33493      2300.2071      294.43647      1035.3194      0.40101743     18421.214      364.58483     -4.3577412     -1492.5464     -1198.0981     -2326.0596      151.97059      1.9797954    
    766000   2750.5158      403.08711      2347.4287      297.20301      475.78427      0.40101743     18421.214      356.01087     -4.3577412     -1496.7265     -1197.0984     -2337.814       274.62896      3.0525093    
    767000   2749.7695      417.4101       2332.3594      307.7636       352.52808      0.40101743     18421.214      363.51118     -4.3577412     -1491.2466     -1197.6613     -2325.3967      139.20782      1.4137216    
    768000   2761.9533      418.7581       2343.1952      308.7575       302.16988      0.40101743     18421.214      359.03954     -4.3577412     -1499.9993     -1197.9197     -2338.8795      212.46772      1.7817742    
    769000   2748.2127      401.11888      2347.0938      295.75181      1113.2314      0.40101743     18421.214      347.6436      -4.3577412     -1506.9892     -1196.4494     -2355.795       145.38271      2.5933857    
    770000   2733.2233      394.12848      2339.0948      290.59767     -304.32846      0.40101743     18421.214      350.11191     -4.3577412     -1502.1055     -1197.8618     -2349.8554      203.97214      3.0339911    
    771000   2746.7529      401.80126      2344.9516      296.25494      244.14138      0.40101743     18421.214      351.87595     -4.3577412     -1495.6355     -1198.0851     -2341.8447      159.56132      2.2358838    
    772000   2752.8736      420.46252      2332.411       310.01421      187.68428      0.40101743     18421.214      355.96251     -4.3577412     -1488.6731     -1197.348      -2330.0585      153.4314       2.6417762    
    773000   2756.0406      433.96511      2322.0755      319.96989     -496.76124      0.40101743     18421.214      336.74566     -4.3577412     -1492.0235     -1196.408      -2351.6859      153.96431      2.2726702    
    774000   2731.3215      416.00004      2315.3214      306.72394     -2075.7508      0.40101743     18421.214      340.45243     -4.3577412     -1478.3095     -1196.5658     -2334.4229      135.33328      2.2709867    
    775000   2747.8473      418.52738      2329.3199      308.58739      235.95463      0.40101743     18421.214      344.47958     -4.3577412     -1494.0261     -1197.0924     -2346.6389      121.97895      1.6956123    
    776000   2757.8859      425.96012      2331.9258      314.06768      249.97227      0.40101743     18421.214      334.45925     -4.3577412     -1496.7465     -1197.1388     -2359.4261      141.82809      2.103515     
    777000   2728.5255      406.38002      2322.1455      299.63094      139.16245      0.40101743     18421.214      351.84762     -4.3577412     -1490.2907     -1197.7096     -2336.1527      184.63578      3.1430879    
    778000   2717.3507      398.15342      2319.1973      293.56532      341.22887      0.40101743     18421.214      347.32719     -4.3577412     -1485.5005     -1196.327      -2334.5003      133.81568      2.195932     
    779000   2782.0077      439.07156      2342.9361      323.73497      872.40135      0.40101743     18421.214      348.86796     -4.3577412     -1488.6525     -1195.2331     -2335.0177      142.85302      3.0637914    
    780000   2695.0282      385.95036      2309.0778      284.5678       639.53284      0.40101743     18421.214      338.30396     -4.3577412     -1490.0795     -1195.9529     -2347.7284      168.97235      2.2265896    
    781000   2739.0718      423.15466      2315.9172      311.99917     -218.73018      0.40101743     18421.214      347.857       -4.3577412     -1489.1035     -1197.6351     -2338.8816      150.88889      3.5005201    
    782000   2749.6585      417.18298      2332.4755      307.59614      761.32662      0.40101743     18421.214      351.5426      -4.3577412     -1503.5987     -1197.128      -2349.1841      158.97074      2.4934752    
    783000   2790.404       416.26206      2374.142       306.91713     -222.01213      0.40101743     18421.214      358.40371     -4.3577412     -1490.9627     -1195.9946     -2328.5536      158.01442      2.7040212    
    784000   2730.9563      395.68625      2335.2701      291.74623     -47.897764      0.40101743     18421.214      348.7334      -4.3577412     -1504.0651     -1197.8439     -2353.1755      175.71339      2.2892581    
    785000   2751.0889      427.89864      2323.1903      315.49698     -384.80849      0.40101743     18421.214      341.15314     -4.3577412     -1490.0778     -1196.1559     -2345.0805      184.93388      2.6468669    
    786000   2758.5144      413.89628      2344.6181      305.1728       689.3733       0.40101743     18421.214      356.75091     -4.3577412     -1497.6142     -1197.1608     -2338.0241      172.09154      2.2408494    
    787000   2737.8612      416.21457      2321.6466      306.88212     -84.958918      0.40101743     18421.214      356.34566     -4.3577412     -1480.0519     -1197.8527     -2321.5589      157.42163      2.3443744    
    788000   2769.4798      424.89735      2344.5825      313.28408     -1036.1224      0.40101743     18421.214      340.09993     -4.3577412     -1483.9737     -1196.8868     -2340.7605      190.69612      1.921265     
    789000   2745.0614      426.9266       2318.1348      314.78028     -313.25874      0.40101743     18421.214      345.44532     -4.3577412     -1504.5815     -1198.0206     -2357.1568      134.84692      2.294737     
    790000   2718.878       424.75834      2294.1197      313.18158     -562.44475      0.40101743     18421.214      338.11943     -4.3577412     -1495.2219     -1197.2547     -2354.3572      166.27298      2.2243827    
    791000   2789.0901      447.69562      2341.3945      330.09363      26.812896      0.40101743     18421.214      353.24557     -4.3577412     -1487.2795     -1195.8498     -2329.8837      102.01028      2.0531186    
    792000   2736.9866      397.2423       2339.7442      292.89354     -1531.7772      0.40101743     18421.214      334.58777     -4.3577412     -1479.2578     -1196.5244     -2341.1944      138.72992      3.0954457    
    793000   2747.0795      424.04921      2323.0303      312.65873     -723.21637      0.40101743     18421.214      333.58003     -4.3577412     -1491.0275     -1196.6536     -2354.101       141.36126      1.715247     
    794000   2754.2336      422.47135      2331.7622      311.49535      1102.8493      0.40101743     18421.214      351.98395     -4.3577412     -1499.6821     -1195.6544     -2343.3525      130.2285       2.256336     
    795000   2781.7502      411.93668      2369.8136      303.72795     -357.78559      0.40101743     18421.214      345.60071     -4.3577412     -1495.6902     -1196.0946     -2346.1841      124.19503      2.1655942    
    796000   2756.3859      396.21099      2360.1749      292.13313     -449.0295       0.40101743     18421.214      352.91383     -4.3577412     -1491.2103     -1196.9791     -2335.2756      115.05883      2.0302208    
    797000   2753.3517      395.50913      2357.8426      291.61564     -1422.2071      0.40101743     18421.214      337.21193     -4.3577412     -1495.0663     -1196.974      -2354.8283      146.20938      2.4252387    
    798000   2774.0051      437.55568      2336.4494      322.61728      79.89681       0.40101743     18421.214      343.2146      -4.3577412     -1490.3781     -1194.7989     -2341.9625      115.43728      2.7748052    
    799000   2760.2217      414.37745      2345.8442      305.52758      397.46617      0.40101743     18421.214      362.92786     -4.3577412     -1501.215      -1196.4133     -2334.7005      143.58638      1.7899592    
    800000   2772.7091      427.222        2345.4871      314.99808     -843.73772      0.40101743     18421.214      328.74165     -4.3577412     -1479.1394     -1196.4805     -2346.8782      146.59943      1.8757738    
    801000   2737.5772      418.6761       2318.9011      308.69704     -697.7631       0.40101743     18421.214      340.03115     -4.3577412     -1493.7392     -1197.3041     -2351.0121      140.87063      2.6166696    
    802000   2727.9508      390.56349      2337.3873      287.96914     -626.77483      0.40101743     18421.214      357.45719     -4.3577412     -1484.7399     -1197.9308     -2325.2135      131.26549      2.4172962    
    803000   2684.2585      371.66695      2312.5916      274.0364      -96.601504      0.40101743     18421.214      348.52598     -4.3577412     -1506.7882     -1197.9736     -2356.2358      135.29012      1.8519331    
    804000   2729.9089      420.54667      2309.3622      310.07625     -53.543656      0.40101743     18421.214      345.88541     -4.3577412     -1509.1422     -1196.9634     -2360.2202      111.79688      2.0511075    
    805000   2740.2859      412.67281      2327.6131      304.27071      421.90678      0.40101743     18421.214      352.45635     -4.3577412     -1491.5717     -1198.3681     -2337.4834      111.39933      2.1898749    
    806000   2735.3311      397.35273      2337.9783      292.97496     -1102.281       0.40101743     18421.214      343.18342     -4.3577412     -1488.1351     -1196.7169     -2341.6685      120.17808      2.1219389    
    807000   2738.3217      407.13099      2331.1907      300.18464     -91.010749      0.40101743     18421.214      348.19696     -4.3577412     -1489.7074     -1197.4504     -2338.9608      127.07207      2.710257     
    808000   2769.0894      428.32033      2340.769       315.8079       565.88168      0.40101743     18421.214      347.77714     -4.3577412     -1485.9657     -1196.29       -2334.4786      138.97693      1.8793186    
    809000   2745.3445      401.72429      2343.6202      296.19819      816.8853       0.40101743     18421.214      347.96973     -4.3577412     -1483.4522     -1196.5684     -2332.0509      138.57419      2.055459     
    810000   2737.0478      404.67291      2332.3749      298.37225     -983.75441      0.40101743     18421.214      344.00933     -4.3577412     -1493.3085     -1197.8423     -2347.1414      111.82744      2.5086254    
    811000   2708.7253      407.73036      2300.995       300.62657      808.63587      0.40101743     18421.214      357.09453     -4.3577412     -1502.5331     -1196.0623     -2341.5009      100.91365      2.9521541    
    812000   2742.2163      432.99268      2309.2236      319.2529      -86.428763      0.40101743     18421.214      338.35053     -4.3577412     -1496.962      -1195.6823     -2354.2938      104.22792      2.2482645    
    813000   2737.3809      398.77883      2338.6021      294.02645      802.06899      0.40101743     18421.214      370.66196     -4.3577412     -1489.3786     -1196.8474     -2315.564       110.83394      2.5186019    
    814000   2690.944       393.58174      2297.3623      290.19454      278.50222      0.40101743     18421.214      356.38523     -4.3577412     -1489.6205     -1197.199      -2330.4343      169.8859       2.4843813    
    815000   2733.8927      401.08439      2332.8083      295.72638     -792.27736      0.40101743     18421.214      348.64237     -4.3577412     -1489.6592     -1197.3036     -2338.3204      100.80124      2.1974272    
    816000   2716.0199      385.50215      2330.5177      284.23732     -836.37056      0.40101743     18421.214      363.174       -4.3577412     -1493.9372     -1198.4909     -2329.254       128.39453      2.6406462    
    817000   2728.3059      412.41795      2315.888       304.08281     -168.67551      0.40101743     18421.214      345.53169     -4.3577412     -1505.4967     -1197.5908     -2357.5558      132.62632      3.2858393    
    818000   2731.7085      409.86196      2321.8465      302.19823      39.629864      0.40101743     18421.214      349.57624     -4.3577412     -1486.7043     -1197.6384     -2334.7664      144.88355      2.7155993    
    819000   2719.0907      384.39808      2334.6926      283.42327     -819.42832      0.40101743     18421.214      336.30607     -4.3577412     -1511.0224     -1197.8936     -2372.6099      125.75007      1.9101184    
    820000   2708.4901      399.26809      2309.222       294.38719     -147.75759      0.40101743     18421.214      343.92271     -4.3577412     -1493.449      -1196.9899     -2346.5162      95.190948      2.5011692    
    821000   2744.7303      417.15532      2327.5749      307.57575     -859.37699      0.40101743     18421.214      325.80947     -4.3577412     -1491.4036     -1196.3375     -2361.9316      155.56616      2.3333639    
    822000   2735.886       408.97162      2326.9144      301.54176     -372.86779      0.40101743     18421.214      346.19291     -4.3577412     -1506.291      -1197.4216     -2357.5197      96.148199      2.5689095    
    823000   2694.5733      377.40023      2317.1731      278.26364     -883.38693      0.40101743     18421.214      353.29303     -4.3577412     -1504.1795     -1196.8818     -2347.7683      111.07295      2.0323256    
    824000   2712.9412      385.73915      2327.202       284.41207     -1164.7424      0.40101743     18421.214      320.66824     -4.3577412     -1492.256      -1196.2255     -2367.8133      117.06131      2.0213007    
    825000   2718.0774      402.22057      2315.8568      296.5641      -169.64757      0.40101743     18421.214      344.73896     -4.3577412     -1496.0936     -1198.8156     -2350.1702      97.079867      2.6089637    
    826000   2768.1794      434.37368      2333.8057      320.27114     -1230.8055      0.40101743     18421.214      341.99516     -4.3577412     -1489.9361     -1196.1846     -2344.1256      117.02956      2.204649     
    827000   2702.9739      384.77424      2318.1996      283.70062      438.59023      0.40101743     18421.214      347.64342     -4.3577412     -1501.6096     -1196.6176     -2350.5837      81.146622      2.9992584    
    828000   2752.5255      417.86439      2334.6611      308.09856     -592.69113      0.40101743     18421.214      346.80056     -4.3577412     -1481.0997     -1195.8835     -2330.1826      131.91411      2.0621245    
    829000   2779.4935      428.4661       2351.0274      315.91538     -189.36002      0.40101743     18421.214      369.436       -4.3577412     -1501.3063     -1197.9847     -2329.855       88.304613      2.0841492    
    830000   2734.074       377.18392      2356.8901      278.10415     -1251.4752      0.40101743     18421.214      342.10713     -4.3577412     -1505.8006     -1197.6784     -2361.3719      116.54534      2.203951     
    831000   2736.2095      427.17603      2309.0335      314.96419      346.24446      0.40101743     18421.214      353.33729     -4.3577412     -1491.2595     -1196.0588     -2333.981       94.786358      2.5678319    
    832000   2721.4405      412.11183      2309.3287      303.85709     -656.01159      0.40101743     18421.214      339.70525     -4.3577412     -1504.8358     -1196.686      -2361.8165      111.58561      2.7302039    
    833000   2753.7355      434.31669      2319.4188      320.22912     -787.51855      0.40101743     18421.214      345.09689     -4.3577412     -1473.2787     -1195.6436     -2323.8254      122.50374      1.8036142    
    834000   2742.5923      413.72058      2328.8717      305.04325      340.82275      0.40101743     18421.214      350.05785     -4.3577412     -1484.1415     -1196.148      -2330.2316      93.969145      2.3292369    
    835000   2730.8734      392.23648      2338.6369      289.20266      734.08881      0.40101743     18421.214      352.7848      -4.3577412     -1497.6367     -1197.9292     -2342.7811      109.72096      2.4292447    
    836000   2712.9429      395.79783      2317.1451      291.82851     -197.04081      0.40101743     18421.214      347.78015     -4.3577412     -1503.5104     -1196.7696     -2352.4999      118.93781      1.8673592    
    837000   2714.5617      401.22174      2313.34        295.82765      1016.6529      0.40101743     18421.214      355.5232      -4.3577412     -1497.312      -1197.142      -2338.9307      91.920459      1.9796679    
    838000   2700.8422      381.01573      2319.8265      280.92941      136.26579      0.40101743     18421.214      351.47628     -4.3577412     -1491.4632     -1195.5799     -2335.5669      119.57939      3.0171454    
    839000   2753.1201      407.31604      2345.8041      300.32107      782.44811      0.40101743     18421.214      353.72008     -4.3577412     -1498.9842     -1197.3361     -2342.6002      90.719489      2.2408572    
    840000   2730.5158      406.46902      2324.0468      299.69656     -209.30266      0.40101743     18421.214      350.79028     -4.3577412     -1487.19       -1195.9948     -2332.3945      98.720874      2.3815614    
    841000   2763.0399      417.90677      2345.1331      308.12981      377.75948      0.40101743     18421.214      352.91805     -4.3577412     -1475.4464     -1196.9072     -2319.4355      100.40385      2.9075139    
    842000   2728.2199      404.78003      2323.4399      298.45123     -877.54918      0.40101743     18421.214      336.67794     -4.3577412     -1498.5433     -1198.1543     -2360.0197      106.83456      2.3046225    
    843000   2721.0346      412.55714      2308.4774      304.18543     -343.3859       0.40101743     18421.214      347.61744     -4.3577412     -1493.9368     -1196.7007     -2343.02        92.012714      2.4770802    
    844000   2752.6457      425.44474      2327.201       313.68768     -28.926808      0.40101743     18421.214      345.282       -4.3577412     -1502.8576     -1196.7725     -2354.3481      121.84377      1.83304      
    845000   2705.4572      377.57349      2327.8837      278.39139      540.85617      0.40101743     18421.214      364.6721      -4.3577412     -1484.2068     -1195.6439     -2315.1786      89.982913      2.4447044    
    846000   2726.5234      414.39621      2312.1271      305.54141      757.29902      0.40101743     18421.214      353.23213     -4.3577412     -1489.2874     -1196.9784     -2333.0337      106.06554      2.39977      
    847000   2739.8436      412.50171      2327.3419      304.14456     -489.42795      0.40101743     18421.214      354.94712     -4.3577412     -1504.6028     -1197.3676     -2347.0233      97.876815      2.3480866    
    848000   2753.1683      414.58608      2338.5822      305.6814      -466.57232      0.40101743     18421.214      351.40398     -4.3577412     -1502.9708     -1196.8671     -2348.434       85.961478      2.6181553    
    849000   2717.141       410.85884      2306.2822      302.93325     -629.72718      0.40101743     18421.214      340.40332     -4.3577412     -1487.4305     -1196.9782     -2344.0054      92.558429      2.2834656    
    850000   2756.4764      419.06589      2337.4105      308.98445     -97.553611      0.40101743     18421.214      352.13876     -4.3577412     -1493.4973     -1196.1011     -2337.4596      85.700209      2.2555713    
    851000   2737.8715      419.9879       2317.8836      309.66426     -627.15425      0.40101743     18421.214      343.92065     -4.3577412     -1496.9256     -1197.1673     -2350.1723      87.461917      2.6707141    
    852000   2724.0743      419.46182      2304.6125      309.27637      311.54959      0.40101743     18421.214      353.19434     -4.3577412     -1501.8197     -1197.6135     -2346.2388      77.697999      2.2953144    
    853000   2745.7744      431.7476       2314.0268      318.33488     -532.80099      0.40101743     18421.214      360.24071     -4.3577412     -1496.566      -1197.8769     -2334.2022      81.821136      3.2502663    
    854000   2724.2982      407.298        2317.0002      300.30778      28.622434      0.40101743     18421.214      354.70807     -4.3577412     -1470.773      -1197.461      -2313.5259      100.05257      3.5666735    
    855000   2747.9134      425.6684       2322.245       313.85259      258.32389      0.40101743     18421.214      337.73201     -4.3577412     -1498.0063     -1197.8672     -2358.1414      90.750037      2.1658175    
    856000   2756.1174      430.20747      2325.9099      317.19932     -1401.2454      0.40101743     18421.214      346.86248     -4.3577412     -1499.5391     -1198.179      -2350.8556      94.845493      2.3433356    
    857000   2722.8866      388.51901      2334.3675      286.46171     -580.35193      0.40101743     18421.214      352.8945      -4.3577412     -1507.1421     -1198.0813     -2352.3289      101.71824      1.9419384    
    858000   2737.5052      434.30079      2303.2044      320.2174      -681.21359      0.40101743     18421.214      336.09387     -4.3577412     -1493.0607     -1196.8605     -2353.8274      100.60202      1.9545091    
    859000   2757.7311      419.88907      2337.8421      309.59139     -1034.635       0.40101743     18421.214      344.05176     -4.3577412     -1495.6918     -1196.7388     -2348.3789      99.564357      1.5473827    
    860000   2746.6591      438.70053      2307.9586      323.4614       494.36096      0.40101743     18421.214      340.65534     -4.3577412     -1501.7934     -1196.419      -2357.5571      109.50538      1.9435102    
    861000   2706.2167      396.29266      2309.924       292.19335     -827.22867      0.40101743     18421.214      336.98959     -4.3577412     -1507.9896     -1198.4321     -2369.4321      87.180373      2.1790068    
    862000   2733.9884      426.5547       2307.4337      314.50607     -730.01139      0.40101743     18421.214      354.27503     -4.3577412     -1482.6149     -1196.4377     -2324.7776      101.29273      1.4138005    
    863000   2722.5909      415.5197       2307.0712      306.36978     -724.11875      0.40101743     18421.214      336.96116     -4.3577412     -1494.0505     -1197.8252     -2354.9146      110.54134      3.0180261    
    864000   2737.867       406.24913      2331.6179      299.53443     -7.7329831      0.40101743     18421.214      347.48038     -4.3577412     -1501.3276     -1197.541      -2351.3882      83.069354      2.5455214    
    865000   2747.6671      400.76339      2346.9037      295.4897      -1678.758       0.40101743     18421.214      349.3832      -4.3577412     -1478.5378     -1196.7828     -2325.9375      79.491222      2.2622933    
    866000   2740.902       424.19571      2316.7063      312.76674     -891.59091      0.40101743     18421.214      333.65645     -4.3577412     -1510.6485     -1195.6818     -2372.6739      76.806585      2.3372457    
    867000   2730.2469      401.35599      2328.8909      295.92663      127.43907      0.40101743     18421.214      359.83306     -4.3577412     -1497.5121     -1197.7943     -2335.4734      94.458698      2.5323629    
    868000   2744.0068      418.82216      2325.1846      308.80474      602.1574       0.40101743     18421.214      348.05804     -4.3577412     -1503.7267     -1195.5375     -2351.2061      100.27557      1.9504415    
    869000   2733.9329      406.95337      2326.9796      300.05368      433.56066      0.40101743     18421.214      358.12572     -4.3577412     -1498.3388     -1197.5997     -2337.8128      81.989448      2.7729391    
    870000   2741.9477      408.13944      2333.8083      300.92819      156.1443       0.40101743     18421.214      329.02613     -4.3577412     -1494.6462     -1196.8937     -2362.5137      100.55573      2.2765806    
    871000   2698.3545      404.22605      2294.1284      298.04277      47.864551      0.40101743     18421.214      354.36503     -4.3577412     -1505.7107     -1196.8022     -2348.1479      86.974957      2.302808     
    872000   2790.7921      426.96775      2363.8244      314.81062     -611.743        0.40101743     18421.214      344.17446     -4.3577412     -1493.4196     -1196.503      -2345.7481      82.590897      2.5179348    
    873000   2726.4068      411.68392      2314.7229      303.54159      146.94027      0.40101743     18421.214      352.47701     -4.3577412     -1504.125      -1198.5359     -2350.184       85.751726      2.3249917    
    874000   2715.3023      394.47132      2320.831       290.85044     -1444.4206      0.40101743     18421.214      340.57632     -4.3577412     -1518.6443     -1196.8599     -2374.9279      98.900579      2.544496     
    875000   2734.2546      417.17699      2317.0776      307.59172      728.00596      0.40101743     18421.214      362.04335     -4.3577412     -1498.0727     -1196.8479     -2332.8773      83.46812       2.3705077    
    876000   2729.4747      384.39739      2345.0773      283.42277      616.70395      0.40101743     18421.214      351.3575      -4.3577412     -1489.5794     -1196.7234     -2334.9453      86.781034      2.1257351    
    877000   2764.0669      422.66627      2341.4006      311.63907     -761.41831      0.40101743     18421.214      359.73147     -4.3577412     -1496.4641     -1199.1896     -2335.9223      100.2826       1.9148112    
    878000   2768.1383      415.95912      2352.1791      306.69377      699.14012      0.40101743     18421.214      344.37279     -4.3577412     -1481.6862     -1197.0684     -2334.3818      99.035107      2.0517249    
    879000   2771.6458      427.85661      2343.7892      315.46599     -802.13759      0.40101743     18421.214      336.67192     -4.3577412     -1491.2864     -1195.807      -2350.4215      94.993843      2.2769997    
    880000   2755.9281      420.12089      2335.8072      309.76231     -1002.1555      0.40101743     18421.214      341.78933     -4.3577412     -1488.4655     -1197.0046     -2343.6808      88.720979      1.6646239    
    881000   2712.9522      402.49142      2310.4608      296.7638      -554.32467      0.40101743     18421.214      339.22954     -4.3577412     -1495.9987     -1196.801      -2353.5702      93.469341      2.9400978    
    882000   2735.4098      424.6809       2310.7289      313.12449     -732.55671      0.40101743     18421.214      333.36372     -4.3577412     -1503.5202     -1197.8781     -2368.0347      89.876241      2.0460621    
    883000   2753.1629      423.79953      2329.3634      312.47464      34.269705      0.40101743     18421.214      348.19637     -4.3577412     -1495.3438     -1196.8774     -2344.0249      77.066322      2.2996026    
    884000   2715.8893      389.29553      2326.5937      287.03425     -1325.8687      0.40101743     18421.214      340.50379     -4.3577412     -1475.7346     -1197.5329     -2332.7637      81.476109      2.1214838    
    885000   2755.5411      414.4356       2341.1055      305.57045      324.39447      0.40101743     18421.214      345.70145     -4.3577412     -1500.0873     -1197.0422     -2351.4281      83.113542      1.6197867    
    886000   2724.1899      412.1696       2312.0203      303.89969     -806.23967      0.40101743     18421.214      341.92953     -4.3577412     -1492.0593     -1193.9732     -2344.103       77.591779      2.0325387    
    887000   2710.9573      403.45407      2307.5032      297.47358     -147.0058       0.40101743     18421.214      342.63626     -4.3577412     -1490.1228     -1197.1921     -2344.6787      62.222594      2.3691908    
    888000   2744.439       419.6559       2324.7831      309.41947     -965.14777      0.40101743     18421.214      333.26335     -4.3577412     -1503.2963     -1197.9565     -2367.9894      75.957537      2.5852918    
    889000   2679.9962      348.13102      2331.8652      256.68295     -1427.893       0.40101743     18421.214      336.47913     -4.3577412     -1509.9855     -1196.9424     -2370.4488      91.82525       1.7760154    
    890000   2755.3587      433.7475       2321.6112      319.80945      205.08351      0.40101743     18421.214      352.18247     -4.3577412     -1496.5924     -1197.5281     -2341.9381      83.232487      2.5916285    
    891000   2729.9452      413.35682      2316.5883      304.77505     -43.284347      0.40101743     18421.214      346.51823     -4.3577412     -1480.073      -1196.682      -2330.2368      89.666733      2.3218932    
    892000   2731.491       428.79221      2302.6988      316.15582     -793.72087      0.40101743     18421.214      338.08428     -4.3577412     -1496.0501     -1197.8567     -2355.8225      91.826472      2.1176233    
    893000   2715.3814      406.869        2308.5124      299.99147     -941.65699      0.40101743     18421.214      340.98889     -4.3577412     -1492.4397     -1197.2959     -2348.7467      82.955153      2.2345357    
    894000   2755.4527      438.51634      2316.9364      323.32559     -180.80976      0.40101743     18421.214      343.04349     -4.3577412     -1478.2632     -1197.1703     -2332.39        62.655501      2.1486734    
    895000   2748.0932      420.52937      2327.5638      310.06349     -238.78556      0.40101743     18421.214      358.01855     -4.3577412     -1506.5766     -1197.3489     -2345.907       83.89022       1.8672732    
    896000   2768.8306      423.77459      2345.056       312.45625     -495.74104      0.40101743     18421.214      346.3117      -4.3577412     -1488.2677     -1197.1531     -2339.1091      71.307088      2.1073227    
    897000   2714.6808      408.43023      2306.2505      301.14259     -413.13513      0.40101743     18421.214      351.40875     -4.3577412     -1490.904      -1197.4121     -2336.9073      58.652715      1.9600712    
    898000   2718.5027      402.77004      2315.7326      296.96924     -521.51662      0.40101743     18421.214      342.43399     -4.3577412     -1499.4325     -1197.2029     -2354.2014      75.695612      1.7480761    
    899000   2719.0679      407.06525      2312.0027      300.13617      502.00603      0.40101743     18421.214      338.69516     -4.3577412     -1495.6156     -1196.5257     -2353.4461      74.73227       2.1355277    
    900000   2751.6515      424.72889      2326.9226      313.15987      1014.8976      0.40101743     18421.214      354.53727     -4.3577412     -1494.6729     -1197.5969     -2337.7326      62.126225      2.2095378    
    901000   2736.2685      409.36904      2326.8995      301.83479     -766.46613      0.40101743     18421.214      348.6329      -4.3577412     -1489.5269     -1197.7544     -2338.6484      77.497752      2.2899584    
    902000   2728.4163      413.41844      2314.9979      304.82048     -222.77614      0.40101743     18421.214      344.67567     -4.3577412     -1487.5319     -1197.3196     -2340.1758      71.156035      2.149833     
    903000   2706.5482      394.67718      2311.871       291.00223     -204.43943      0.40101743     18421.214      354.49535     -4.3577412     -1495.1522     -1198.0548     -2338.7116      66.474369      2.7964398    
    904000   2747.1616      414.68424      2332.4774      305.75378     -149.25064      0.40101743     18421.214      352.93364     -4.3577412     -1490.9056     -1196.3493     -2334.3213      65.575184      2.3676615    
    905000   2782.5312      444.92625      2337.6049      328.05173     -165.96286      0.40101743     18421.214      357.95253     -4.3577412     -1490.106      -1199.4016     -2331.5551      76.734933      2.8424465    
    906000   2734.3973      397.70785      2336.6894      293.23679      328.58268      0.40101743     18421.214      359.76715     -4.3577412     -1494.0669     -1197.0146     -2331.3144      80.740033      2.1869103    
    907000   2743.2122      398.53715      2344.675       293.84825     -360.0614       0.40101743     18421.214      343.65292     -4.3577412     -1489.8081     -1197.1096     -2343.2648      80.018133      2.1424573    
    908000   2764.3084      431.66444      2332.644       318.27357     -361.3462       0.40101743     18421.214      344.41494     -4.3577412     -1503.6733     -1197.5153     -2356.7738      77.938341      1.9170299    
    909000   2723.2937      422.93922      2300.3545      311.84031      654.49085      0.40101743     18421.214      352.9313      -4.3577412     -1504.5837     -1197.0436     -2348.6961      71.011497      2.4066238    
    910000   2721.1803      395.48875      2325.6915      291.60061     -343.56388      0.40101743     18421.214      359.30069     -4.3577412     -1498.2626     -1196.591      -2335.5528      70.51176       2.657885     
    911000   2759.2307      440.83711      2318.3936      325.03674     -26.966701      0.40101743     18421.214      347.62468     -4.3577412     -1495.7466     -1197.9638     -2346.0857      76.418223      2.4445232    
    912000   2707.0874      397.30191      2309.7855      292.93749     -534.74271      0.40101743     18421.214      343.95415     -4.3577412     -1496.288      -1197.9385     -2350.2723      79.822598      2.174159     
    913000   2744.101       426.51773      2317.5833      314.47881      1602.1483      0.40101743     18421.214      362.02703     -4.3577412     -1496.1249     -1197.0488     -2331.1467      69.59324       2.1934956    
    914000   2739.446       417.06554      2322.3804      307.50955     -522.84002      0.40101743     18421.214      331.49864     -4.3577412     -1468.5256     -1195.1898     -2332.2167      85.851588      1.9000215    
    915000   2741.8577      417.40687      2324.4508      307.76122     -628.76185      0.40101743     18421.214      347.12604     -4.3577412     -1500.939      -1197.8378     -2351.6507      74.89647       1.4831088    
    916000   2736.9728      413.1314       2323.8414      304.60884     -1654.9285      0.40101743     18421.214      328.82836     -4.3577412     -1485.8691     -1194.7853     -2351.826       77.909314      1.8517885    
    917000   2732.7503      415.24095      2317.5093      306.16425     -443.78368      0.40101743     18421.214      339.41019     -4.3577412     -1497.2282     -1196.7181     -2354.5361      59.908387      1.7993801    
    918000   2730.4402      423.15935      2307.2808      312.00262      1197.0361      0.40101743     18421.214      350.74632     -4.3577412     -1495.8255     -1197.8029     -2342.8821      73.574207      2.1048218    
    919000   2754.4138      428.77407      2325.6397      316.14245      78.729064      0.40101743     18421.214      346.07907     -4.3577412     -1492.5548     -1197.0698     -2343.5456      66.086941      2.4375178    
    920000   2706.7065      392.03408      2314.6724      289.05343     -981.3871       0.40101743     18421.214      340.16712     -4.3577412     -1496.7173     -1196.633      -2353.1832      77.009783      2.8530903    
    921000   2733.1059      404.62515      2328.4807      298.33704      339.72429      0.40101743     18421.214      367.02587     -4.3577412     -1494.6955     -1198.627      -2326.2967      77.498802      2.088553     
    922000   2728.9243      408.81737      2320.1069      301.42804      158.90141      0.40101743     18421.214      351.5749      -4.3577412     -1487.7208     -1196.8528     -2332.9988      72.871981      1.9511998    
    923000   2736.7501      425.92498      2310.8251      314.04177     -363.43512      0.40101743     18421.214      349.87796     -4.3577412     -1501.6966     -1197.9905     -2349.8091      70.933042      2.0737116    
    924000   2727.8867      404.2973       2323.5894      298.09531      870.75796      0.40101743     18421.214      366.00536     -4.3577412     -1493.2695     -1197.1152     -2324.3794      62.857267      1.8510934    
    925000   2772.9747      430.62182      2342.3529      317.50483      1474.4009      0.40101743     18421.214      357.76917     -4.3577412     -1493.2632     -1196.584      -2332.078       69.838589      1.8638061    
    926000   2750.9465      412.61274      2338.3337      304.22643     -262.8474       0.40101743     18421.214      349.11536     -4.3577412     -1507.3322     -1196.702      -2354.9188      67.348551      2.0519942    
    927000   2726.6469      413.99085      2312.656       305.24253     -841.10006      0.40101743     18421.214      342.25316     -4.3577412     -1493.2462     -1196.6166     -2347.6096      73.295138      1.7193952    
    928000   2734.7066      418.86482      2315.8418      308.83619     -309.12226      0.40101743     18421.214      344.37054     -4.3577412     -1501.5832     -1196.9917     -2354.2044      62.128921      2.3386912    
    929000   2743.0138      427.10745      2315.9064      314.91362      241.75635      0.40101743     18421.214      356.17562     -4.3577412     -1474.8136     -1197.4781     -2316.1161      72.374073      2.4870076    
    930000   2711.3039      422.14734      2289.1566      311.25645      625.19972      0.40101743     18421.214      357.74826     -4.3577412     -1481.85       -1196.2692     -2320.3709      75.405633      1.6776358    
    931000   2732.86        412.21663      2320.6433      303.93437     -211.09834      0.40101743     18421.214      355.00586     -4.3577412     -1500.1931     -1197.084      -2342.2712      71.018993      2.1847762    
    932000   2740.9822      413.58769      2327.3945      304.94527      318.06901      0.40101743     18421.214      351.70442     -4.3577412     -1496.1115     -1197.383      -2341.7901      59.897676      2.4422103    
    933000   2703.3349      391.07892      2312.256       288.34917      1379.3494      0.40101743     18421.214      343.8809      -4.3577412     -1503.254      -1197.2613     -2356.6344      68.974492      2.0954031    
    934000   2739.4488      423.44134      2316.0075      312.21053     -543.03715      0.40101743     18421.214      345.6657      -4.3577412     -1486.0395     -1197.1392     -2337.5131      75.173441      1.8143649    
    935000   2732.6294      417.7575       2314.8719      308.01975      26.485447      0.40101743     18421.214      353.56676     -4.3577412     -1511.8516     -1197.8806     -2356.1654      82.522099      2.4208669    
    936000   2726.8251      388.56059      2338.2645      286.49237     -1507.3752      0.40101743     18421.214      341.26638     -4.3577412     -1496.9665     -1197.5057     -2353.2059      84.922396      2.2136389    
    937000   2766.2945      429.78621      2336.5083      316.88872     -406.75301      0.40101743     18421.214      340.28773     -4.3577412     -1508.5831     -1197.6443     -2365.9397      71.444747      2.0513424    
    938000   2727.4833      423.10292      2304.3804      311.96102     -45.364865      0.40101743     18421.214      344.45137     -4.3577412     -1493.1364     -1195.9679     -2344.653       72.171935      2.2268116    
    939000   2710.7551      395.88506      2314.87        291.89282     -762.20579      0.40101743     18421.214      344.42967     -4.3577412     -1488.6191     -1197.0156     -2341.205       56.700497      2.7881945    
    940000   2718.9348      425.27798      2293.6568      313.56473     -116.75075      0.40101743     18421.214      347.15433     -4.3577412     -1504.6168     -1196.8675     -2354.33        69.774155      1.67376      
    941000   2730.5848      405.91162      2324.6732      299.28558     -1181.6309      0.40101743     18421.214      342.03068     -4.3577412     -1501.1603     -1196.2645     -2355.3941      71.155062      2.0702407    
    942000   2733.1385      409.45309      2323.6854      301.89676      247.22363      0.40101743     18421.214      349.06912     -4.3577412     -1496.345      -1197.382      -2344.6579      64.235824      1.8115674    
    943000   2713.7984      411.87323      2301.9252      303.68118     -124.99811      0.40101743     18421.214      352.85085     -4.3577412     -1506.8213     -1196.0229     -2349.9933      54.62529       1.7070813    
    944000   2717.1469      410.28108      2306.8658      302.50725      1150.4749      0.40101743     18421.214      347.32094     -4.3577412     -1486.7065     -1196.9251     -2336.3107      73.879313      2.6872889    
    945000   2748.0914      434.18222      2313.9092      320.12997     -88.818011      0.40101743     18421.214      352.22506     -4.3577412     -1500.3063     -1197.287      -2345.3682      73.693409      1.9758101    
    946000   2709.5589      386.25309      2323.3058      284.79101     -393.72242      0.40101743     18421.214      350.88775     -4.3577412     -1499.7942     -1197.7207     -2346.6271      64.510284      2.0807604    
    947000   2730.3966      419.978        2310.4186      309.65696      724.1488       0.40101743     18421.214      364.23676     -4.3577412     -1501.7737     -1196.6551     -2334.192       51.902903      2.5731802    
    948000   2702.0259      392.83205      2309.1939      289.64179     -550.55876      0.40101743     18421.214      344.95931     -4.3577412     -1499.9534     -1197.0825     -2352.0766      70.707387      2.0324917    
    949000   2762.423       423.4712       2338.9518      312.23255      516.06642      0.40101743     18421.214      352.50206     -4.3577412     -1485.68       -1196.1125     -2329.2904      64.246411      2.3182551    
    950000   2749.3953      439.01514      2310.3801      323.69337      141.69829      0.40101743     18421.214      357.32748     -4.3577412     -1482.0041     -1195.3165     -2319.9932      57.29655       2.2497434    
    951000   2764.6748      419.49074      2345.1841      309.29769     -29.003888      0.40101743     18421.214      355.43934     -4.3577412     -1481.9855     -1197.648      -2324.1942      64.582551      2.2172778    
    952000   2761.3506      418.30039      2343.0503      308.42002     -1205.721       0.40101743     18421.214      334.58118     -4.3577412     -1494.1606     -1197.4841     -2357.0635      69.375761      1.8443775    
    953000   2742.1494      412.69206      2329.4573      304.28491      347.08991      0.40101743     18421.214      347.60901     -4.3577412     -1478.1622     -1195.9288     -2326.4819      47.640398      2.1843231    
    954000   2752.8657      410.62089      2342.2449      302.7578      -338.12796      0.40101743     18421.214      363.06501     -4.3577412     -1491.7774     -1197.0943     -2325.8067      70.693042      2.7533558    
    955000   2728.1274      416.12609      2312.0013      306.81688      708.49137      0.40101743     18421.214      358.00132     -4.3577412     -1507.2884     -1197.3348     -2346.6219      71.275589      1.7285446    
    956000   2718.5322      405.89241      2312.6398      299.27141     -473.2352       0.40101743     18421.214      347.78957     -4.3577412     -1485.3041     -1197.9695     -2335.4841      68.064674      1.7553946    
    957000   2716.7826      400.2688       2316.5138      295.12503     -32.268299      0.40101743     18421.214      361.84566     -4.3577412     -1493.5993     -1198.4375     -2330.1911      63.056749      2.1783309    
    958000   2704.2497      403.19118      2301.0586      297.27975     -1288.3954      0.40101743     18421.214      337.25055     -4.3577412     -1480.3091     -1197.0975     -2340.1561      51.905484      1.9593927    
    959000   2738.383       415.67406      2322.7089      306.48359      669.4486       0.40101743     18421.214      369.17632     -4.3577412     -1497.5976     -1198.4255     -2326.8468      81.964058      1.9407821    
    960000   2759.4171      432.68542      2326.7316      319.02636     -636.80797      0.40101743     18421.214      358.95031     -4.3577412     -1506.4011     -1197.4763     -2344.9271      56.458021      1.9068611    
    961000   2701.714       393.4525       2308.2615      290.09925      361.81719      0.40101743     18421.214      350.74667     -4.3577412     -1508.4832     -1197.37       -2355.1065      48.818032      2.0036316    
    962000   2716.9314      414.13947      2302.792       305.35211      1558.0301      0.40101743     18421.214      350.36225     -4.3577412     -1480.4496     -1195.2219     -2325.3092      52.939513      2.0968251    
    963000   2759.9216      434.09691      2325.8246      320.06707      670.60291      0.40101743     18421.214      354.94906     -4.3577412     -1491.7722     -1197.949      -2334.7722      53.689821      2.0719156    
    964000   2765.2284      407.37057      2357.8578      300.36129      233.05125      0.40101743     18421.214      350.22372     -4.3577412     -1491.5795     -1195.9093     -2337.2651      65.174509      2.3306483    
    965000   2780.8639      430.09718      2350.7668      317.118       -1538.5231      0.40101743     18421.214      345.97599     -4.3577412     -1474.8609     -1195.6926     -2324.5775      70.689346      1.6105403    
    966000   2747.3137      400.48257      2346.8312      295.28264     -558.44914      0.40101743     18421.214      357.87878     -4.3577412     -1489.5176     -1197.2322     -2328.871       80.23573       2.0599671    
    967000   2745.7358      426.35227      2319.3836      314.35681      136.55062      0.40101743     18421.214      350.27819     -4.3577412     -1494.3205     -1197.7331     -2341.7753      61.887362      1.7574589    
    968000   2704.0084      410.81448      2293.1939      302.90054     -545.50188      0.40101743     18421.214      343.95046     -4.3577412     -1504.7765     -1197.4427     -2358.2688      52.267767      1.6204298    
    969000   2707.2908      403.07642      2304.2143      297.19513     -1348.8247      0.40101743     18421.214      352.73631     -4.3577412     -1504.9858     -1198.2604     -2350.5099      61.796438      2.1158852    
    970000   2718.1026      392.29197      2325.8106      289.24357      1986.0078      0.40101743     18421.214      351.59206     -4.3577412     -1495.6196     -1197.2769     -2341.3044      57.761947      2.5526341    
    971000   2741.9168      410.52316      2331.3936      302.68574      263.40709      0.40101743     18421.214      360.07701     -4.3577412     -1507.558      -1198.4276     -2345.9085      59.567724      1.8667853    
    972000   2701.8747      395.05856      2306.8161      291.28343     -776.65612      0.40101743     18421.214      341.65787     -4.3577412     -1487.9219     -1196.0537     -2342.3177      55.568775      2.4487497    
    973000   2731.0627      405.5638       2325.4989      299.02912     -996.01078      0.40101743     18421.214      347.2044      -4.3577412     -1508.1321     -1197.5225     -2358.4502      59.855568      2.3282542    
    974000   2706.436       398.7234       2307.7126      293.98558      464.42577      0.40101743     18421.214      357.01222     -4.3577412     -1501.8598     -1197.9608     -2342.8084      60.095168      2.2014387    
    975000   2747.8749      421.58191      2326.293       310.83955      1188.5152      0.40101743     18421.214      362.29558     -4.3577412     -1501.0345     -1198.0309     -2336.7698      59.435633      2.4251834    
    976000   2763.4129      437.8646       2325.5483      322.84505     -472.7274       0.40101743     18421.214      341.39404     -4.3577412     -1498.0086     -1198.3568     -2354.9714      59.424736      2.129752     
    977000   2696.839       376.11515      2320.7238      277.31613      738.78203      0.40101743     18421.214      349.41677     -4.3577412     -1488.8808     -1196.4899     -2335.954       59.108037      2.3764641    
    978000   2738.0504      425.00397      2313.0464      313.36269      405.81168      0.40101743     18421.214      342.87395     -4.3577412     -1492.2748     -1198.4058     -2347.8067      52.467487      2.3951522    
    979000   2726.3721      406.9059       2319.4662      300.01867     -208.15794      0.40101743     18421.214      350.13327     -4.3577412     -1490.0639     -1196.1407     -2336.0714      56.779739      2.6639786    
    980000   2703.2833      392.04175      2311.2415      289.05908     -433.88473      0.40101743     18421.214      350.43108     -4.3577412     -1492.1615     -1197.7285     -2339.4589      66.384949      2.3418518    
    981000   2722.5318      402.16994      2320.3618      296.52677     -668.8621       0.40101743     18421.214      351.97877     -4.3577412     -1518.791      -1198.6558     -2365.4681      53.292831      1.8785941    
    982000   2702.7075      391.26005      2311.4475      288.48272     -116.75851      0.40101743     18421.214      356.74971     -4.3577412     -1502.6109     -1197.6526     -2343.5138      56.671853      1.7966376    
    983000   2749.4364      433.04033      2316.3961      319.28804      193.904        0.40101743     18421.214      342.54659     -4.3577412     -1507.3397     -1195.9655     -2360.7587      56.260541      1.8051468    
    984000   2732.5665      420.45744      2312.1091      310.01046     -445.29508      0.40101743     18421.214      346.23343     -4.3577412     -1497.2741     -1197.9236     -2348.9643      61.620619      2.0736979    
    985000   2747.4053      427.74948      2319.6558      315.38701      601.06108      0.40101743     18421.214      347.00691     -4.3577412     -1509.264      -1197.3116     -2359.5687      58.740373      1.8922416    
    986000   2744.1717      425.13342      2319.0383      313.45814      47.859356      0.40101743     18421.214      333.27611     -4.3577412     -1499.8257     -1197.1454     -2363.6949      48.68391       2.3214179    
    987000   2684.2822      412.90205      2271.3802      304.43974      683.99213      0.40101743     18421.214      342.83756     -4.3577412     -1496.2936     -1197.0236     -2350.4796      56.212619      1.8567529    
    988000   2707.7205      402.06224      2305.6583      296.44736      187.29151      0.40101743     18421.214      344.07113     -4.3577412     -1486.1518     -1197.206      -2339.2867      61.58452       2.4975492    
    989000   2735.3789      408.93124      2326.4476      301.51199      154.32706      0.40101743     18421.214      351.19896     -4.3577412     -1490.2725     -1198.1706     -2337.2441      66.035488      2.4109063    
    990000   2724.3229      413.69464      2310.6283      305.02413      818.40313      0.40101743     18421.214      350.55264     -4.3577412     -1494.6201     -1196.7612     -2340.8287      56.030662      2.4146972    
    991000   2728.8053      419.68995      2309.1154      309.44458     -913.08215      0.40101743     18421.214      333.85279     -4.3577412     -1496.7723     -1196.7378     -2359.6573      54.908611      2.1785842    
    992000   2710.2571      399.29727      2310.9598      294.4087       1095.2933      0.40101743     18421.214      356.69659     -4.3577412     -1495.4773     -1198.1174     -2336.8981      52.473132      2.1224108    
    993000   2709.5822      399.62556      2309.9566      294.65076      227.8749       0.40101743     18421.214      354.05637     -4.3577412     -1495.5161     -1197.2377     -2338.6974      51.788068      2.1845968    
    994000   2705.8075      409.63293      2296.1746      302.02936      166.7395       0.40101743     18421.214      342.51857     -4.3577412     -1484.0348     -1196.2026     -2337.7188      68.474102      2.5068944    
    995000   2712.8918      411.19986      2301.6919      303.18469      180.31498      0.40101743     18421.214      343.87554     -4.3577412     -1494.7862     -1196.4301     -2347.3408      52.340778      1.888675     
    996000   2701.8033      426.4631       2275.3402      314.43853     -1567.6571      0.40101743     18421.214      348.20566     -4.3577412     -1501.7413     -1197.8631     -2351.3987      52.937387      1.9970164    
    997000   2719.2842      408.36159      2310.9226      301.09198     -591.95538      0.40101743     18421.214      348.83453     -4.3577412     -1496.0059     -1197.8485     -2345.0199      50.845109      1.850032     
    998000   2708.7812      402.84064      2305.9406      297.02129     -1513.7581      0.40101743     18421.214      328.86181     -4.3577412     -1499.7538     -1196.4594     -2367.3514      52.294181      1.9209044    
    999000   2720.2816      395.86829      2324.4133      291.88046     -658.37957      0.40101743     18421.214      350.76842     -4.3577412     -1499.1053     -1197.8163     -2346.1532      58.495953      2.3265986    
   1000000   2694.9435      404.96801      2289.9755      298.58983      45.388255      0.40101743     18421.214      345.21014     -4.3577412     -1497.3803     -1197.8316     -2350.0018      60.998416      2.101504     
   1001000   2714.694       409.24112      2305.4529      301.74047      918.66492      0.40101743     18421.214      355.32589     -4.3577412     -1486.7494     -1198.9632     -2330.3868      53.204578      1.8529555    
   1002000   2740.0122      420.75123      2319.261       310.22707     -442.4725       0.40101743     18421.214      350.13021     -4.3577412     -1500.7473     -1196.8709     -2347.4879      54.433295      2.50575      
   1003000   2733.4572      413.44172      2320.0154      304.83765      217.76751      0.40101743     18421.214      343.5623      -4.3577412     -1496.0848     -1196.0603     -2348.5827      55.258827      2.2936304    
   1004000   2724.6473      410.57057      2314.0767      302.7207      -1397.0447      0.40101743     18421.214      352.44863     -4.3577412     -1509.0656     -1198.1725     -2354.7895      52.524929      2.0196548    
   1005000   2789.7832      443.07073      2346.7124      326.68362      607.97731      0.40101743     18421.214      344.64114     -4.3577412     -1511.8228     -1196.8709     -2364.0525      56.504765      1.8848649    
   1006000   2709.6447      402.77322      2306.8715      296.97158     -35.041836      0.40101743     18421.214      344.99571     -4.3577412     -1501.773      -1196.0511     -2352.8284      66.067258      2.0362462    
   1007000   2710.2524      409.73322      2300.5192      302.10331      343.40021      0.40101743     18421.214      347.07482     -4.3577412     -1499.3377     -1197.0762     -2349.3391      50.058419      1.5336195    
   1008000   2711.2143      403.29336      2307.9209      297.35509     -30.270172      0.40101743     18421.214      351.7887      -4.3577412     -1491.5577     -1196.4713     -2336.2403      47.506926      2.3163892    
   1009000   2686.2371      398.41224      2287.8248      293.75616     -538.39249      0.40101743     18421.214      334.25451     -4.3577412     -1492.7292     -1195.919      -2354.3937      45.716354      1.8065089    
   1010000   2725.9352      425.74931      2300.1859      313.91224     -487.45775      0.40101743     18421.214      344.77993     -4.3577412     -1503.7527     -1195.9838     -2354.9565      52.726963      2.5185202    
   1011000   2695.4399      389.24243      2306.1975      286.9951      -77.741628      0.40101743     18421.214      348.69199     -4.3577412     -1494.3354     -1197.3358     -2342.9792      53.568368      2.77678      
   1012000   2739.3584      394.59664      2344.7618      290.94285     -1934.2121      0.40101743     18421.214      337.1828      -4.3577412     -1494.5126     -1197.6453     -2354.9751      47.177545      2.4402029    
   1013000   2750.3797      416.17575      2334.204       306.85349      1128.7788      0.40101743     18421.214      346.98202     -4.3577412     -1483.2465     -1196.2802     -2332.5447      58.579359      2.5078846    
   1014000   2739.9405      407.94744      2331.9931      300.78662      523.75428      0.40101743     18421.214      350.83197     -4.3577412     -1484.3278     -1196.7203     -2330.2162      59.994162      3.1585184    
   1015000   2737.535       415.04823      2322.4868      306.02215      233.76999      0.40101743     18421.214      345.81659     -4.3577412     -1499.4921     -1197.2712     -2350.9467      45.059817      2.3875909    
   1016000   2752.3513      427.50364      2324.8477      315.20574     -337.91353      0.40101743     18421.214      344.72157     -4.3577412     -1495.8823     -1196.0536     -2347.2143      49.501732      2.0115025    
   1017000   2730.299       403.64705      2326.652       297.61587     -897.51077      0.40101743     18421.214      353.92037     -4.3577412     -1505.8343     -1197.6731     -2349.5871      58.97949       2.1122547    
   1018000   2757.7114      436.72453      2320.9869      322.00446      364.62706      0.40101743     18421.214      347.23126     -4.3577412     -1496.1744     -1197.7773     -2346.7204      57.031892      1.773807     
   1019000   2727.0163      404.33258      2322.6837      298.12132     -810.04738      0.40101743     18421.214      334.72393     -4.3577412     -1492.0634     -1196.588      -2353.9275      46.312921      2.2484018    
   1020000   2759.9811      414.52384      2345.4572      305.63551      1772.0901      0.40101743     18421.214      359.12425     -4.3577412     -1495.0431     -1196.3862     -2332.3051      59.565473      1.6166317    
   1021000   2706.4844      405.13902      2301.3454      298.71593     -1207.1066      0.40101743     18421.214      332.38269     -4.3577412     -1506.3238     -1197.3003     -2371.2414      63.600548      2.0911715    
   1022000   2709.4335      380.70939      2328.7241      280.70354     -776.85835      0.40101743     18421.214      347.67864     -4.3577412     -1510.859      -1197.0373     -2360.2177      53.654123      1.8113664    
   1023000   2731.7663      400.8749       2330.8914      295.57192      17.753476      0.40101743     18421.214      353.00464     -4.3577412     -1509.7443     -1197.4779     -2354.2176      50.667311      1.9178647    
   1024000   2721.9204      423.82926      2298.0912      312.49656      767.81695      0.40101743     18421.214      349.02897     -4.3577412     -1505.5295     -1197.3181     -2353.8186      51.954522      2.313867     
   1025000   2721.339       405.79035      2315.5487      299.19616     -281.56701      0.40101743     18421.214      340.77664     -4.3577412     -1491.2529     -1196.936      -2347.4123      59.475162      1.838602     
   1026000   2720.5724      402.24644      2318.326       296.58318     -1045.2596      0.40101743     18421.214      342.05847     -4.3577412     -1505.6847     -1195.9849     -2359.6111      54.69044       2.0986973    
   1027000   2731.1097      415.2413       2315.8684      306.16451      1358.5272      0.40101743     18421.214      357.54514     -4.3577412     -1498.7643     -1197.1023     -2338.3215      52.268482      1.9616993    
   1028000   2713.5256      399.1153       2314.4103      294.27454     -295.15273      0.40101743     18421.214      361.31114     -4.3577412     -1488.2581     -1197.5658     -2324.5128      57.031432      2.3918058    
   1029000   2718.838       399.4903       2319.3477      294.55103      1355.2666      0.40101743     18421.214      369.99789     -4.3577412     -1492.5904     -1195.1704     -2317.7629      45.751988      2.5574489    
   1030000   2710.1246      398.85845      2311.2661      294.08516     -1245.6362      0.40101743     18421.214      346.44653     -4.3577412     -1503.0217     -1199.1487     -2355.7239      51.075771      2.2144961    
   1031000   2736.8695      396.05812      2340.8114      292.02042     -458.73431      0.40101743     18421.214      339.78828     -4.3577412     -1490.41       -1196.9674     -2347.5891      53.476871      2.419134     
   1032000   2676.6166      376.66634      2299.9503      277.72253      845.47778      0.40101743     18421.214      356.56223     -4.3577412     -1505.991      -1197.3124     -2346.7411      50.96614       2.1736223    
   1033000   2716.2698      395.93772      2320.3321      291.93165      177.54471      0.40101743     18421.214      353.30784     -4.3577412     -1507.0527     -1196.9229     -2350.6678      51.677868      2.1460402    
   1034000   2731.8158      417.55069      2314.2651      307.86726     -164.82506      0.40101743     18421.214      352.16218     -4.3577412     -1494.1648     -1197.1151     -2339.1177      52.665957      2.0692154    
   1035000   2743.5949      421.30624      2322.2887      310.6363      -115.25712      0.40101743     18421.214      345.06175     -4.3577412     -1500.0944     -1198.4423     -2353.4749      56.663771      2.030626     
   1036000   2731.5192      417.51901      2314.0001      307.8439      -698.61541      0.40101743     18421.214      344.29766     -4.3577412     -1508.5186     -1197.5713     -2361.7922      48.899405      2.1631176    
   1037000   2717.3427      388.47378      2328.8689      286.42836     -824.29184      0.40101743     18421.214      346.81259     -4.3577412     -1502.6845     -1196.6571     -2352.529       47.712666      1.944565     
   1038000   2739.0578      421.0042       2318.0536      310.41359      59.741986      0.40101743     18421.214      342.05687     -4.3577412     -1490.9236     -1198.6352     -2347.5018      58.614583      1.6997997    
   1039000   2693.0615      393.82008      2299.2415      290.37028     -565.7887       0.40101743     18421.214      350.95585     -4.3577412     -1504.989      -1196.9529     -2350.9861      50.831758      2.0079876    
   1040000   2751.7058      421.58179      2330.124       310.83946     -99.640183      0.40101743     18421.214      352.02398     -4.3577412     -1489.3397     -1197.1429     -2334.4586      47.862277      2.0879991    
   1041000   2729.3145      414.86474      2314.4497      305.88687      43.621051      0.40101743     18421.214      340.25174     -4.3577412     -1495.3905     -1195.5347     -2350.6735      53.529095      2.1736706    
   1042000   2735.8935      412.98526      2322.9083      304.50109      223.0418       0.40101743     18421.214      345.16743     -4.3577412     -1492.9586     -1196.6964     -2344.4876      59.970673      1.8994968    
   1043000   2707.3859      384.38722      2322.9987      283.41526     -491.32325      0.40101743     18421.214      350.15763     -4.3577412     -1480.7903     -1196.5506     -2327.1833      58.160479      1.736224     
   1044000   2738.9335      397.84137      2341.0922      293.33524     -643.88513      0.40101743     18421.214      346.35886     -4.3577412     -1490.4154     -1196.4881     -2340.5446      53.468211      2.1293181    
   1045000   2728.6957      404.71646      2323.9792      298.40436      1562.7365      0.40101743     18421.214      353.84241     -4.3577412     -1486.6215     -1197.4197     -2330.1988      51.177999      1.9312781    
   1046000   2676.3632      384.48815      2291.875       283.48969     -896.10545      0.40101743     18421.214      351.76476     -4.3577412     -1484.3996     -1198.8722     -2331.5071      44.574872      3.030051     
   1047000   2714.2602      390.73648      2323.5237      288.09669     -50.338598      0.40101743     18421.214      357.27438     -4.3577412     -1495.2703     -1196.7346     -2334.7306      61.141854      1.8884107    
   1048000   2718.4658      422.47698      2295.9888      311.4995      -393.50222      0.40101743     18421.214      339.80375     -4.3577412     -1492.7895     -1197.2809     -2350.2666      44.882686      1.7578361    
   1049000   2709.0107      406.9588       2302.0519      300.05768     -150.51426      0.40101743     18421.214      356.14764     -4.3577412     -1517.7253     -1198.3763     -2359.9539      51.268005      2.36863      
   1050000   2714.1784      408.91249      2305.2659      301.49817      866.86496      0.40101743     18421.214      359.29288     -4.3577412     -1499.1178     -1197.5508     -2337.3757      44.61964       2.8232748    
   1051000   2713.9422      426.59599      2287.3462      314.53651      176.38986      0.40101743     18421.214      338.97909     -4.3577412     -1493.4556     -1196.751      -2351.2275      50.346583      2.2325773    
   1052000   2694.7029      400.11268      2294.5902      295.00992      1205.2338      0.40101743     18421.214      358.19764     -4.3577412     -1471.6733     -1197.0824     -2310.5581      47.627679      1.6567864    
   1053000   2737.7549      403.8733       2333.8816      297.78268     -397.19282      0.40101743     18421.214      343.34328     -4.3577412     -1494.274      -1197.335      -2348.2657      41.449686      2.0339614    
   1054000   2723.1734      404.10365      2319.0697      297.95253     -603.38816      0.40101743     18421.214      346.50149     -4.3577412     -1484.7598     -1196.6121     -2334.8704      60.005161      1.9429774    
   1055000   2732.3861      412.70407      2319.682       304.29376     -1411.0534      0.40101743     18421.214      353.78446     -4.3577412     -1482.1951     -1197.7678     -2326.1784      51.436928      1.7925861    
   1056000   2753.0603      433.96914      2319.0912      319.97287      576.82546      0.40101743     18421.214      354.08728     -4.3577412     -1484.9749     -1197.3013     -2328.1889      59.669064      2.4036206    
   1057000   2733.439       409.01941      2324.4195      301.577        559.01447      0.40101743     18421.214      346.93753     -4.3577412     -1483.8463     -1196.7242     -2333.633       41.263715      2.1180664    
   1058000   2708.5959      404.93872      2303.6571      298.56824     -1308.5397      0.40101743     18421.214      336.35958     -4.3577412     -1480.2118     -1197.418      -2341.2703      48.144727      1.5002399    
   1059000   2698.425       421.08257      2277.3425      310.47137      585.39359      0.40101743     18421.214      345.55501     -4.3577412     -1501.1809     -1197.1023     -2352.7281      48.180542      1.8721156    
   1060000   2741.4604      436.9629       2304.4975      322.18022     -586.41282      0.40101743     18421.214      344.50801     -4.3577412     -1501.1674     -1196.8224     -2353.4818      47.178263      2.0692519    
   1061000   2702.8532      389.97336      2312.8798      287.53403      396.78175      0.40101743     18421.214      353.14821     -4.3577412     -1496.6735     -1197.5397     -2341.065       50.755119      1.8112075    
   1062000   2726.0466      412.62962      2313.417       304.23887     -387.8055       0.40101743     18421.214      343.90981     -4.3577412     -1490.0459     -1196.6466     -2342.7826      47.627488      2.3602082    
   1063000   2700.9962      393.4431       2307.5531      290.09232      671.75593      0.40101743     18421.214      354.11546     -4.3577412     -1491.2166     -1197.6826     -2334.7837      53.853901      2.1234343    
   1064000   2698.994       410.39306      2288.601       302.58982      281.05584      0.40101743     18421.214      344.50953     -4.3577412     -1488.9661     -1198.2198     -2342.6763      49.788887      1.7691308    
   1065000   2715.4067      404.99437      2310.4123      298.60927     -220.00325      0.40101743     18421.214      359.15057     -4.3577412     -1492.7703     -1197.7307     -2331.3504      49.064748      1.9673706    
   1066000   2729.0662      422.10874      2306.9574      311.22799     -1098.1255      0.40101743     18421.214      349.48167     -4.3577412     -1499.2388     -1197.1268     -2346.8839      46.181606      2.2203685    
   1067000   2686.4152      394.48062      2291.9346      290.85731     -321.18962      0.40101743     18421.214      347.79403     -4.3577412     -1501.4815     -1196.4853     -2350.1728      49.159809      2.4769594    
   1068000   2728.5599      413.74789      2314.812       305.06339      1178.6074      0.40101743     18421.214      357.91925     -4.3577412     -1481.7407     -1196.3652     -2320.1867      46.81836       1.591506     
   1069000   2708.5943      400.68987      2307.9044      295.43549      129.07115      0.40101743     18421.214      348.70531     -4.3577412     -1499.5898     -1197.0761     -2347.9605      41.468562      1.8534095    
   1070000   2714.8404      402.135        2312.7054      296.50101      420.10222      0.40101743     18421.214      335.94004     -4.3577412     -1491.6328     -1196.6475     -2352.3403      40.763111      2.4311263    
   1071000   2718.3354      412.1081       2306.2273      303.85435     -488.02671      0.40101743     18421.214      342.11171     -4.3577412     -1482.3966     -1196.4818     -2336.7667      46.893474      1.8180417    
   1072000   2706.6351      389.91018      2316.7249      287.48744      291.84736      0.40101743     18421.214      350.55437     -4.3577412     -1489.8937     -1197.5947     -2336.934       40.019118      2.3016941    
   1073000   2752.4963      411.26403      2341.2323      303.232        430.62428      0.40101743     18421.214      360.60862     -4.3577412     -1502.8926     -1197.4811     -2339.765       54.038681      2.0430536    
   1074000   2697.1141      409.15386      2287.9603      301.67613     -674.32035      0.40101743     18421.214      336.40955     -4.3577412     -1495.0902     -1197.4985     -2356.1792      43.607284      1.8523614    
   1075000   2735.9534      397.1459       2338.8075      292.82246      326.33971      0.40101743     18421.214      351.05375     -4.3577412     -1485.9785     -1197.3909     -2332.3156      62.539094      2.2800219    
   1076000   2744.641       417.71512      2326.9259      307.9885      -211.15093      0.40101743     18421.214      342.55949     -4.3577412     -1495.6982     -1197.1041     -2350.2428      54.106803      2.058467     
   1077000   2682.162       395.0965       2287.0655      291.3114      -293.67384      0.40101743     18421.214      358.57824     -4.3577412     -1479.6445     -1197.9021     -2318.9683      44.426939      2.2072442    
   1078000   2728.5614      421.80635      2306.755       311.00503      1202.3535      0.40101743     18421.214      342.98878     -4.3577412     -1481.9702     -1196.9963     -2335.9777      44.724703      2.1976679    
   1079000   2723.561       410.86741      2312.6936      302.93957     -280.93216      0.40101743     18421.214      353.67487     -4.3577412     -1484.7801     -1197.781      -2328.8863      36.845915      2.0613181    
   1080000   2751.0357      426.35011      2324.6856      314.35522      1123.5846      0.40101743     18421.214      355.07009     -4.3577412     -1493.2619     -1197.2614     -2335.4532      43.979204      1.7361675    
   1081000   2756.3391      419.8183       2336.5208      309.5392      -1350.4846      0.40101743     18421.214      338.40996     -4.3577412     -1486.2855     -1197.5292     -2345.4047      47.083612      1.9634966    
   1082000   2755.3042      408.84351      2346.4607      301.44731     -1063.8697      0.40101743     18421.214      360.75095     -4.3577412     -1483.9599     -1197.8804     -2321.0894      54.742175      2.4933619    
   1083000   2692.3041      399.57182      2292.7323      294.61113     -168.18152      0.40101743     18421.214      341.55818     -4.3577412     -1493.0069     -1195.8893     -2347.338       46.607151      1.5446899    
   1084000   2753.0865      417.53496      2335.5516      307.85566     -1282.0837      0.40101743     18421.214      345.03737     -4.3577412     -1503.9778     -1196.58       -2355.5205      55.661452      2.8298558    
   1085000   2708.438       374.34918      2334.0889      276.01405      444.73031      0.40101743     18421.214      344.15206     -4.3577412     -1505.9911     -1195.2664     -2357.1054      41.898934      1.530017     
   1086000   2720.1015      428.00344      2292.098       315.57425     -406.26508      0.40101743     18421.214      333.98506     -4.3577412     -1490.6652     -1195.6116     -2352.2918      39.328332      2.1214512    
   1087000   2719.2756      421.87003      2297.4056      311.05198      634.15977      0.40101743     18421.214      356.25614     -4.3577412     -1492.5712     -1195.7226     -2332.0377      42.578126      1.8119447    
   1088000   2732.3346      418.01707      2314.3175      308.21113     -1100.8565      0.40101743     18421.214      341.08865     -4.3577412     -1484.201      -1197.3509     -2340.4632      41.862993      1.6483197    
   1089000   2765.4143      432.52218      2332.8921      318.906        111.87832      0.40101743     18421.214      347.34258     -4.3577412     -1489.4779     -1196.5512     -2338.6865      47.144929      2.7989656    
   1090000   2735.5903      436.77205      2298.8183      322.03949     -123.58535      0.40101743     18421.214      347.64483     -4.3577412     -1500.4673     -1195.7894     -2348.6119      39.954165      2.2944883    
   1091000   2719.968       423.31761      2296.6504      312.11931      540.86429      0.40101743     18421.214      355.2124      -4.3577412     -1509.5124     -1196.9747     -2351.2748      43.668291      2.5386107    
   1092000   2732.9092      444.10131      2288.8079      327.44348      320.98886      0.40101743     18421.214      344.85986     -4.3577412     -1495.6649     -1197.2262     -2348.0313      40.261835      2.4663087    
   1093000   2769.5106      432.94856      2336.562       319.22038     -920.90379      0.40101743     18421.214      339.24623     -4.3577412     -1500.1807     -1197.3551     -2358.2896      43.432635      1.352742     
   1094000   2690.5042      396.29173      2294.2125      292.19266      466.70617      0.40101743     18421.214      346.95485     -4.3577412     -1505.6025     -1197.3443     -2355.9919      49.056382      2.0219524    
   1095000   2726.865       443.33922      2283.5258      326.88158      575.30317      0.40101743     18421.214      340.98388     -4.3577412     -1490.8171     -1197.7246     -2347.5579      42.562242      2.2181928    
   1096000   2751.1954      429.29334      2321.902       316.52532     -198.09623      0.40101743     18421.214      347.02116     -4.3577412     -1487.8101     -1196.7909     -2337.5798      48.408717      1.9334333    
   1097000   2738.1111      413.4711       2324.64        304.85931     -119.8204       0.40101743     18421.214      358.06624     -4.3577412     -1521.0259     -1198.3406     -2361.3002      49.996959      2.1342544    
   1098000   2722.362       398.09974      2324.2622      293.52574      658.72505      0.40101743     18421.214      353.04677     -4.3577412     -1507.3485     -1197.233      -2351.5348      47.048594      3.0337324    
   1099000   2736.1546      416.87314      2319.2814      307.36769      794.76799      0.40101743     18421.214      358.83881     -4.3577412     -1500.0872     -1197.2063     -2338.4547      45.874         2.1143202    
   1100000   2700.4153      409.34637      2291.069       301.81807     -922.68825      0.40101743     18421.214      345.62089     -4.3577412     -1505.9201     -1197.5232     -2357.8225      43.943426      1.8301985    
   1101000   2724.3831      412.1153       2312.2678      303.85965      462.86455      0.40101743     18421.214      345.04425     -4.3577412     -1497.4984     -1196.6267     -2349.0808      52.732092      1.7593593    
   1102000   2682.2379      400.50728      2281.7307      295.30086      1513.7868      0.40101743     18421.214      356.65385     -4.3577412     -1510.7633     -1196.928      -2351.0375      43.068699      2.1328444    
   1103000   2751.7036      401.08622      2350.6174      295.72773     -258.6967       0.40101743     18421.214      361.33638     -4.3577412     -1482.4143     -1196.7296     -2317.8075      45.285288      2.1330338    
   1104000   2775.0048      439.70266      2335.3022      324.20029      472.71371      0.40101743     18421.214      347.6189      -4.3577412     -1497.5694     -1196.5743     -2346.5248      45.730363      2.0089789    
   1105000   2694.7708      398.02108      2296.7497      293.46775      1238.9378      0.40101743     18421.214      372.92273     -4.3577412     -1492.8394     -1197.7875     -2317.7042      42.143827      1.9076449    
   1106000   2711.5827      402.36261      2309.2201      296.66883     -1492.9526      0.40101743     18421.214      331.72926     -4.3577412     -1496.5712     -1197.0318     -2361.8738      44.347025      1.6100616    
   1107000   2711.142       410.7115       2300.4305      302.82461     -1287.9784      0.40101743     18421.214      343.52668     -4.3577412     -1514.32       -1198.4773     -2369.2706      38.865735      2.1314742    
   1108000   2713.5689      415.03157      2298.5373      306.00987     -317.0498       0.40101743     18421.214      350.49057     -4.3577412     -1489.3486     -1197.2071     -2336.0652      39.404094      1.84513      
   1109000   2713.4536      423.27695      2290.1766      312.08933      201.15816      0.40101743     18421.214      350.40443     -4.3577412     -1491.9143     -1196.9756     -2338.4855      45.213143      2.1698079    
   1110000   2733.8966      435.97588      2297.9208      321.45247      418.10808      0.40101743     18421.214      352.11376     -4.3577412     -1501.5522     -1199.4152     -2348.8536      43.366869      2.1198165    
   1111000   2729.1388      429.48108      2299.6577      316.66374     -615.07133      0.40101743     18421.214      344.0937      -4.3577412     -1497.4679     -1197.0482     -2350.4224      41.888658      1.5386355    
   1112000   2683.2467      382.8049       2300.4418      282.24859     -1136.7634      0.40101743     18421.214      339.16568     -4.3577412     -1503.6161     -1197.7317     -2362.1821      39.683401      2.4763331    
   1113000   2743.9787      396.15757      2347.8211      292.09374     -1565.2695      0.40101743     18421.214      337.6484      -4.3577412     -1483.9274     -1196.915      -2343.194       59.260895      2.3830106    
   1114000   2724.5265      408.55173      2315.9748      301.23217      531.45903      0.40101743     18421.214      359.88269     -4.3577412     -1499.8891     -1195.874      -2335.8804      42.572652      2.0793332    
   1115000   2737.5705      426.83371      2310.7367      314.71179      578.42379      0.40101743     18421.214      364.67007     -4.3577412     -1496.7332     -1197.0266     -2329.0898      47.723405      1.9913565    
   1116000   2705.5459      409.01958      2296.5264      301.57713      393.63542      0.40101743     18421.214      347.55533     -4.3577412     -1490.3018     -1196.8872     -2339.6337      43.310658      1.8415039    
   1117000   2712.957       411.30594      2301.6511      303.2629       428.86113      0.40101743     18421.214      347.57954     -4.3577412     -1487.0611     -1196.5736     -2336.0551      56.253798      1.4654018    
   1118000   2776.8303      437.58692      2339.2434      322.64031     -382.48563      0.40101743     18421.214      355.69469     -4.3577412     -1500.9413     -1196.6563     -2341.9029      50.403559      1.9427397    
   1119000   2726.3248      426.15759      2300.1672      314.21328     -132.85906      0.40101743     18421.214      341.47318     -4.3577412     -1504.1713     -1196.3291     -2359.0272      42.674818      1.6433991    
   1120000   2777.4748      444.32974      2333.1451      327.61191     -1181.2356      0.40101743     18421.214      331.93891     -4.3577412     -1495.5581     -1196.7934     -2360.4127      55.097781      1.9096919    
   1121000   2726.9604      404.99536      2321.965       298.61        -867.27251      0.40101743     18421.214      341.63165     -4.3577412     -1500.1602     -1196.8567     -2355.3852      42.351405      1.8887571    
   1122000   2735.8887      406.96335      2328.9253      300.06103     -252.19218      0.40101743     18421.214      344.17356     -4.3577412     -1500.3704     -1196.5675     -2352.7643      40.491496      1.9349739    
   1123000   2700.8183      404.74655      2296.0718      298.42655     -723.75206      0.40101743     18421.214      342.37401     -4.3577412     -1487.43       -1197.0322     -2342.0881      45.130962      1.5927065    
   1124000   2732.0835      427.61608      2304.4674      315.28865     -1352.8471      0.40101743     18421.214      332.33389     -4.3577412     -1488.4422     -1196.7724     -2352.8807      43.288923      1.5815018    
   1125000   2732.9742      419.8145       2313.1597      309.53641      683.2844       0.40101743     18421.214      348.35843     -4.3577412     -1494.0582     -1196.4987     -2342.1984      40.722996      2.0628465    
   1126000   2706.6688      410.51722      2296.1515      302.68136     -679.60594      0.40101743     18421.214      341.11429     -4.3577412     -1512.6877     -1197.5169     -2369.0903      42.488294      2.4517543    
   1127000   2709.329       413.79074      2295.5382      305.09498      312.16451      0.40101743     18421.214      345.57411     -4.3577412     -1511.5476     -1196.9593     -2362.9328      42.767802      1.7664546    
   1128000   2754.8299      435.37143      2319.4585      321.0068       285.64265      0.40101743     18421.214      349.70995     -4.3577412     -1503.9641     -1196.7324     -2350.9865      38.486111      1.7060847    
   1129000   2725.0107      401.56165      2323.4491      296.07827      748.50537      0.40101743     18421.214      356.33681     -4.3577412     -1489.3297     -1195.5766     -2328.5695      42.972871      2.0560439    
   1130000   2719.6988      418.76276      2300.936       308.76094     -628.21062      0.40101743     18421.214      335.90123     -4.3577412     -1503.3726     -1196.5644     -2364.0358      46.717149      1.5676654    
   1131000   2717.6164      419.89928      2297.7172      309.59891      785.75853      0.40101743     18421.214      352.77636     -4.3577412     -1483.7204     -1197.9066     -2328.8506      38.14305       1.8333693    
   1132000   2679.3447      379.53717      2299.8076      279.83924     -1633.2163      0.40101743     18421.214      348.34005     -4.3577412     -1492.1439     -1197.5889     -2341.3928      39.491795      2.0347942    
   1133000   2687.1841      386.93337      2300.2507      285.29259      1195.0211      0.40101743     18421.214      359.81366     -4.3577412     -1497.2228     -1197.3068     -2334.7159      41.416197      1.8026434    
   1134000   2731.0699      408.42822      2322.6417      301.14111      793.62467      0.40101743     18421.214      353.48127     -4.3577412     -1490.5734     -1197.1488     -2334.241       43.845936      2.2767355    
   1135000   2713.359       403.96206      2309.397       297.84813     -175.45874      0.40101743     18421.214      344.47047     -4.3577412     -1500.9761     -1197.3944     -2353.9001      41.377076      1.6669515    
   1136000   2714.1352      422.57509      2291.5601      311.57183     -157.02424      0.40101743     18421.214      342.42541     -4.3577412     -1501.5146     -1196.9758     -2356.065       41.663864      1.8690265    
   1137000   2710.3539      403.18521      2307.1686      297.27535      334.16142      0.40101743     18421.214      349.34267     -4.3577412     -1486.9856     -1197.1185     -2334.7614      42.899108      1.6590276    
   1138000   2728.4964      423.80883      2304.6876      312.48149      442.80907      0.40101743     18421.214      343.11874     -4.3577412     -1497.3595     -1197.202      -2351.4428      44.656627      1.8909765    
   1139000   2690.091       377.61245      2312.4786      278.42011      833.45136      0.40101743     18421.214      379.39436     -4.3577412     -1498.4757     -1198.8605     -2317.9418      41.949741      2.0585779    
   1140000   2702.764       415.53286      2287.2312      306.37948      234.90677      0.40101743     18421.214      343.27037     -4.3577412     -1511.3351     -1198.5795     -2366.6442      43.961629      2.6585834    
   1141000   2698.3697      402.78601      2295.5837      296.98101      396.99889      0.40101743     18421.214      351.26908     -4.3577412     -1498.7962     -1197.3859     -2344.913       40.131078      2.1707112    
   1142000   2754.1057      421.43762      2332.6681      310.73316     -652.86836      0.40101743     18421.214      338.12548     -4.3577412     -1497.9085     -1198.5097     -2358.2928      38.886389      1.574173     
   1143000   2735.1073      421.28296      2313.8244      310.61913      231.39081      0.40101743     18421.214      341.76424     -4.3577412     -1494.4682     -1196.8893     -2349.5933      46.291186      2.757416     
   1144000   2697.9108      413.5187       2284.3921      304.89441      1655.382       0.40101743     18421.214      354.98204     -4.3577412     -1501.2073     -1197.2126     -2343.4378      39.229133      1.8845604    
   1145000   2740.7541      405.93181      2334.8223      299.30047      278.1029       0.40101743     18421.214      352.87526     -4.3577412     -1502.4195     -1196.4061     -2345.9503      46.000218      1.4613222    
   1146000   2736.8451      427.70551      2309.1396      315.35459      657.4399       0.40101743     18421.214      352.00153     -4.3577412     -1487.7805     -1197.2024     -2332.9814      47.274679      2.1178176    
   1147000   2698.983       406.24078      2292.7422      299.52827     -869.39857      0.40101743     18421.214      337.16803     -4.3577412     -1499.3857     -1197.6249     -2359.8426      40.272054      1.9411246    
   1148000   2726.4614      389.33739      2337.1241      287.06512     -479.14459      0.40101743     18421.214      351.83308     -4.3577412     -1487.9724     -1196.9506     -2333.0899      38.259759      1.8702607    
   1149000   2728.309       412.48565      2315.8233      304.13272      172.32427      0.40101743     18421.214      349.10965     -4.3577412     -1508.8996     -1197.8141     -2357.6041      37.382036      1.743328     
   1150000   2732.3042      407.69779      2324.6064      300.60255     -872.09705      0.40101743     18421.214      338.59523     -4.3577412     -1494.9553     -1195.683      -2352.0431      45.990225      2.9759421    
   1151000   2691.5884      398.05644      2293.532       293.49382      1015.8123      0.40101743     18421.214      359.86783     -4.3577412     -1498.6504     -1196.9873     -2335.7699      46.411062      1.8640607    
   1152000   2707.4599      404.03122      2303.4286      297.89913     -300.12019      0.40101743     18421.214      347.42573     -4.3577412     -1488.7874     -1197.8222     -2339.1838      40.704166      1.9201716    
   1153000   2702.6308      397.28306      2305.3477      292.92359      831.84194      0.40101743     18421.214      352.07625     -4.3577412     -1499.3203     -1197.1729     -2344.4169      39.327254      1.7685104    
   1154000   2727.859       422.29584      2305.5631      311.36594     -44.018355      0.40101743     18421.214      340.19376     -4.3577412     -1489.7053     -1196.6566     -2346.1682      35.342935      1.9922123    
   1155000   2719.65        414.50866      2305.1413      305.62432     -938.58724      0.40101743     18421.214      342.29835     -4.3577412     -1488.7577     -1196.2342     -2342.6935      35.64102       2.67958      
   1156000   2751.1363      433.1555       2317.9808      319.37295      996.52769      0.40101743     18421.214      363.6663      -4.3577412     -1491.0668     -1197.4189     -2324.8194      38.473357      2.0384965    
   1157000   2687.196       404.71905      2282.477       298.40627      281.75065      0.40101743     18421.214      361.1352      -4.3577412     -1508.7778     -1197.4268     -2345.0694      42.491449      2.3860222    
   1158000   2743.9593      416.16874      2327.7905      306.84832      566.65867      0.40101743     18421.214      355.05607     -4.3577412     -1488.2519     -1197.2813     -2330.4772      43.435792      2.0970784    
   1159000   2731.5895      413.0638       2318.5257      304.559       -422.79028      0.40101743     18421.214      342.1597      -4.3577412     -1479.2232     -1197.3118     -2334.3753      40.799807      2.017431     
   1160000   2738.8087      407.48685      2331.3219      300.44702     -237.71262      0.40101743     18421.214      349.02739     -4.3577412     -1495.9669     -1196.3933     -2343.3328      46.171574      2.2470836    
   1161000   2721.0722      407.79031      2313.2818      300.67077      355.38546      0.40101743     18421.214      336.84981     -4.3577412     -1505.8759     -1196.9657     -2365.9919      47.236248      2.0807905    
   1162000   2750.8319      440.01141      2310.8205      324.42794      4.1383662      0.40101743     18421.214      343.86432     -4.3577412     -1502.7017     -1197.2618     -2356.0992      42.20304       2.4073282    
   1163000   2735.8587      422.78591      2313.0728      311.72727      851.94442      0.40101743     18421.214      356.47241     -4.3577412     -1503.7528     -1197.0654     -2344.3458      39.435249      2.0702541    
   1164000   2687.0435      388.45958      2298.584       286.41789      477.56166      0.40101743     18421.214      347.54719     -4.3577412     -1498.0827     -1197.1166     -2347.6521      44.791538      2.1327901    
   1165000   2771.5445      450.7004       2320.8441      332.30911      442.13596      0.40101743     18421.214      353.20965     -4.3577412     -1491.6453     -1196.5104     -2334.946       44.280259      1.645263     
   1166000   2726.7021      413.45216      2313.25        304.84535     -1486.3868      0.40101743     18421.214      339.78278     -4.3577412     -1480.0486     -1195.8047     -2336.0705      42.363253      2.2955489    
   1167000   2724.6965      430.87654      2293.8199      317.69264      740.46911      0.40101743     18421.214      352.4092      -4.3577412     -1476.6861     -1196.1619     -2320.4388      36.265379      2.3211307    
   1168000   2744.5166      413.70803      2330.8085      305.034       -474.56474      0.40101743     18421.214      345.14027     -4.3577412     -1506.5102     -1196.8693     -2358.2392      43.839063      1.8510834    
   1169000   2736.3735      421.09486      2315.2786      310.48044      470.11208      0.40101743     18421.214      349.36629     -4.3577412     -1475.9618     -1195.5263     -2322.1218      33.522619      1.8579942    
   1170000   2757.0134      428.99696      2328.0165      316.30679     -841.05219      0.40101743     18421.214      347.12157     -4.3577412     -1502.3854     -1197.4846     -2352.7483      45.910293      1.9702793    
   1171000   2729.9973      426.88109      2303.1162      314.74672      485.13954      0.40101743     18421.214      355.69242     -4.3577412     -1497.1073     -1197.8978     -2339.3126      41.041276      1.8373287    
   1172000   2711.4226      412.99173      2298.4308      304.50586     -471.09722      0.40101743     18421.214      346.37281     -4.3577412     -1491.0319     -1196.7253     -2341.3844      43.946397      2.1675989    
   1173000   2714.4568      402.63283      2311.824       296.86807     -664.51122      0.40101743     18421.214      351.73037     -4.3577412     -1509.8429     -1199.2602     -2357.3727      40.304001      1.9575329    
   1174000   2711.8873      418.25671      2293.6306      308.38782     -804.33359      0.40101743     18421.214      347.34216     -4.3577412     -1486.2807     -1197.1072     -2336.0457      45.847034      1.7589034    
   1175000   2734.4916      407.9278       2326.5638      300.77214     -1736.4877      0.40101743     18421.214      335.31753     -4.3577412     -1495.3792     -1196.4427     -2356.5044      45.399282      1.7137868    
   1176000   2689.8148      398.54881      2291.266       293.85685     -1421.0568      0.40101743     18421.214      344.20183     -4.3577412     -1481.3844     -1197.0943     -2334.2769      39.578843      1.692983     
   1177000   2681.9819      389.85818      2292.1237      287.4491       72.928509      0.40101743     18421.214      345.86062     -4.3577412     -1507.0121     -1198.439      -2359.5905      38.93852       1.8056187    
   1178000   2716.9005      431.74087      2285.1597      318.32993      514.37964      0.40101743     18421.214      352.87512     -4.3577412     -1508.549      -1198.3026     -2353.9764      43.073152      2.3203945    
   1179000   2724.833       429.54555      2295.2875      316.71127     -130.20191      0.40101743     18421.214      342.94957     -4.3577412     -1488.4245     -1197.5284     -2343.0033      43.041663      2.1003288    
   1180000   2718.2475      412.14491      2306.1026      303.88148      689.81138      0.40101743     18421.214      347.20061     -4.3577412     -1514.2809     -1198.9187     -2365.9989      48.812555      2.0101879    
   1181000   2715.0426      394.32158      2320.721       290.74004     -60.543007      0.40101743     18421.214      353.41349     -4.3577412     -1492.0352     -1196.6403     -2335.262       42.964784      2.0942517    
   1182000   2751.3933      423.31956      2328.0738      312.12075      382.97212      0.40101743     18421.214      357.5543      -4.3577412     -1484.1485     -1197.8507     -2324.4449      38.156059      1.8469122    
   1183000   2733.0684      402.70845      2330.36        296.92382     -1427.2842      0.40101743     18421.214      340.28796     -4.3577412     -1480.3244     -1196.6032     -2336.6396      39.247388      1.7037441    
   1184000   2716.0974      398.79198      2317.3054      294.03615      403.6605       0.40101743     18421.214      357.95147     -4.3577412     -1492.8019     -1198.2692     -2333.1196      39.008879      1.5403494    
   1185000   2699.4732      388.44557      2311.0276      286.40756     -148.07569      0.40101743     18421.214      350.69301     -4.3577412     -1505.5243     -1198.0202     -2352.8515      48.555791      1.8083761    
   1186000   2684.6003      384.63471      2299.9655      283.59774      458.95025      0.40101743     18421.214      352.04879     -4.3577412     -1495.2963     -1197.2061     -2340.4536      43.622799      1.5576223    
   1187000   2726.8834      419.46318      2307.4202      309.27737      732.57841      0.40101743     18421.214      352.03551     -4.3577412     -1507.8927     -1197.2968     -2353.154       41.655577      2.1410646    
   1188000   2743.2351      424.70384      2318.5312      313.1414       436.03388      0.40101743     18421.214      355.82891     -4.3577412     -1491.9269     -1198.1853     -2334.2832      39.905755      1.9900021    
   1189000   2702.3253      414.09896      2288.2263      305.32224      410.93508      0.40101743     18421.214      346.21652     -4.3577412     -1496.9072     -1197.7992     -2348.4898      42.212669      1.5349263    
   1190000   2768.3358      440.03944      2328.2964      324.4486      -346.83893      0.40101743     18421.214      349.29029     -4.3577412     -1500.8195     -1198.2488     -2349.778       34.046218      2.0719973    
   1191000   2689.243       395.89354      2293.3495      291.89907      150.35741      0.40101743     18421.214      350.44845     -4.3577412     -1496.2606     -1197.7132     -2343.5253      42.975081      2.0854009    
   1192000   2749.5238      423.24496      2326.2789      312.06574      503.12557      0.40101743     18421.214      352.05394     -4.3577412     -1495.8996     -1195.261      -2339.1067      46.162367      1.7506102    
   1193000   2705.2527      405.02692      2300.2258      298.63327      137.86236      0.40101743     18421.214      345.33616     -4.3577412     -1505.7177     -1198.1393     -2358.5209      38.871011      2.5054321    
   1194000   2711.4918      412.79987      2298.6919      304.3644       1977.8442      0.40101743     18421.214      362.908       -4.3577412     -1484.1221     -1197.3752     -2318.5893      34.751046      1.5686414    
   1195000   2713.8889      407.8709       2306.018       300.73019      566.18961      0.40101743     18421.214      342.84867     -4.3577412     -1498.7786     -1197.022      -2352.9519      38.817265      2.1189511    
   1196000   2725.6599      425.59498      2300.065       313.79845      138.09147      0.40101743     18421.214      344.00029     -4.3577412     -1480.8235     -1196.3438     -2333.167       44.849338      1.6635104    
   1197000   2678.677       379.06108      2299.616       279.48822     -500.6455       0.40101743     18421.214      340.78193     -4.3577412     -1486.9348     -1197.3028     -2343.4558      41.222463      2.3383829    
   1198000   2727.8435      423.68099      2304.1625      312.38724     -1143.5294      0.40101743     18421.214      335.03154     -4.3577412     -1482.0571     -1196.7332     -2343.7588      40.487591      2.640117     
   1199000   2719.699       407.48437      2312.2146      300.44519      175.23524      0.40101743     18421.214      339.43975     -4.3577412     -1503.2598     -1196.5101     -2360.3302      47.100743      1.7605028    
   1200000   2728.4168      417.29153      2311.1253      307.67618     -74.223224      0.40101743     18421.214      348.39559     -4.3577412     -1497.8477     -1196.2103     -2345.6624      37.91909       1.7052525    
   1201000   2678.232       390.13851      2288.0935      287.65579      93.051187      0.40101743     18421.214      345.60161     -4.3577412     -1510.8682     -1197.47       -2362.7366      40.260538      1.7280867    
   1202000   2746.0827      426.37996      2319.7028      314.37723     -282.75617      0.40101743     18421.214      342.82621     -4.3577412     -1495.4414     -1197.446      -2350.0611      40.284643      1.9818413    
   1203000   2768.2109      445.405        2322.8059      328.40472     -282.53088      0.40101743     18421.214      346.8897      -4.3577412     -1493.4882     -1196.0195     -2342.6181      38.534922      1.6310202    
   1204000   2727.2712      394.24966      2333.0216      290.68702      825.75433      0.40101743     18421.214      367.90491     -4.3577412     -1505.3481     -1197.6277     -2335.0709      38.296414      2.0661693    
   1205000   2715.0844      416.79923      2298.2852      307.3132       702.73758      0.40101743     18421.214      349.40315     -4.3577412     -1490.7695     -1197.0523     -2338.4186      43.718926      1.5817594    
   1206000   2727.3985      409.27164      2318.1269      301.76297      110.54124      0.40101743     18421.214      346.36824     -4.3577412     -1497.0865     -1198.2519     -2348.9702      40.275134      2.2313105    
   1207000   2715.4249      401.02688      2314.398       295.68398     -243.42524      0.40101743     18421.214      352.50672     -4.3577412     -1486.1752     -1196.1915     -2329.86        40.727188      2.5108143    
   1208000   2722.9254      407.79374      2315.1317      300.67329     -892.7241       0.40101743     18421.214      346.0549      -4.3577412     -1504.0408     -1197.3587     -2355.3446      42.506493      1.8175487    
   1209000   2729.7838      416.83701      2312.9467      307.34105     -670.18033      0.40101743     18421.214      346.59971     -4.3577412     -1503.1666     -1197.1171     -2353.684       38.062539      1.8674644    
   1210000   2735.398       428.38406      2307.014       315.85489     -469.62756      0.40101743     18421.214      352.03818     -4.3577412     -1501.3491     -1196.3308     -2345.6417      41.998875      2.3069938    
   1211000   2724.9759      414.20311      2310.7728      305.39903     -272.22838      0.40101743     18421.214      337.55363     -4.3577412     -1485.0397     -1196.8459     -2344.332       36.576808      2.2597575    
   1212000   2706.0143      401.81427      2304.2         296.26453     -56.730263      0.40101743     18421.214      342.45539     -4.3577412     -1502.4041     -1198.5043     -2358.453       36.67026       1.8384521    
   1213000   2716.8926      403.67838      2313.2142      297.63897      105.88476      0.40101743     18421.214      350.49772     -4.3577412     -1501.4947     -1197.7266     -2348.7236      42.82286       1.8942995    
   1214000   2724.7041      417.14257      2307.5616      307.56635     -55.62599       0.40101743     18421.214      353.97983     -4.3577412     -1499.2313     -1197.227      -2342.4785      40.757022      2.0455771    
   1215000   2759.9165      430.803        2329.1135      317.63842     -514.82379      0.40101743     18421.214      361.0622      -4.3577412     -1497.8202     -1197.6551     -2334.4131      39.72561       1.8430581    
   1216000   2710.1185      404.23849      2305.88        298.05195     -1490.158       0.40101743     18421.214      336.17991     -4.3577412     -1501.7994     -1196.986      -2362.6055      43.349935      1.6676907    
   1217000   2688.0653      402.63557      2285.4297      296.87009     -448.60696      0.40101743     18421.214      342.02585     -4.3577412     -1519.5559     -1198.1887     -2375.7187      35.325174      2.0909405    
   1218000   2713.8623      408.42206      2305.4402      301.13656     -153.32155      0.40101743     18421.214      343.43458     -4.3577412     -1504.5971     -1197.2454     -2358.4079      40.517236      2.1360947    
   1219000   2738.5162      434.13483      2304.3814      320.09503     -1389.6565      0.40101743     18421.214      334.83344     -4.3577412     -1503.4184     -1198.5185     -2367.1034      38.970708      2.49719      
   1220000   2687.1707      392.24657      2294.9242      289.2101      -635.38286      0.40101743     18421.214      335.44306     -4.3577412     -1500.2949     -1196.8584     -2361.7102      39.481382      1.7219621    
   1221000   2682.1076      385.37626      2296.7313      284.1445       189.36115      0.40101743     18421.214      358.72018     -4.3577412     -1497.8407     -1198.0751     -2337.1957      37.487092      2.7574911    
   1222000   2713.6067      405.37915      2308.2276      298.89298     -1631.731       0.40101743     18421.214      340.01959     -4.3577412     -1499.8432     -1197.1196     -2356.9433      44.129068      1.9770831    
   1223000   2698.437       396.28062      2302.1564      292.18448      273.96125      0.40101743     18421.214      348.1461      -4.3577412     -1494.0859     -1197.7924     -2343.7322      41.932471      1.8121286    
   1224000   2726.0079      420.61305      2305.3949      310.12519      716.5598       0.40101743     18421.214      349.01726     -4.3577412     -1484.5273     -1197.3997     -2332.9098      43.758733      2.1966412    
   1225000   2686.8079      385.46378      2301.3441      284.20904     -338.1158       0.40101743     18421.214      347.66837     -4.3577412     -1505.7002     -1197.2        -2355.2318      36.725365      2.2912743    
   1226000   2699.0027      423.62264      2275.38        312.34422      289.4658       0.40101743     18421.214      346.49725     -4.3577412     -1492.7598     -1196.9793     -2343.2419      33.480259      1.6103268    
   1227000   2718.605       411.13933      2307.4657      303.14006      935.64282      0.40101743     18421.214      356.38137     -4.3577412     -1507.9246     -1196.7693     -2348.3125      40.176262      1.8037366    
   1228000   2726.9449      419.03909      2307.9058      308.96468      536.2196       0.40101743     18421.214      351.16564     -4.3577412     -1499.4496     -1197.698      -2345.9819      39.791471      2.2171073    
   1229000   2726.2549      419.41981      2306.8351      309.2454       45.517331      0.40101743     18421.214      342.14687     -4.3577412     -1490.1177     -1197.74       -2345.7109      42.664005      1.7354337    
   1230000   2727.1508      414.09359      2313.0573      305.31828      351.70465      0.40101743     18421.214      357.81856     -4.3577412     -1498.4357     -1196.975      -2337.5922      47.101631      1.8669165    
   1231000   2712.6159      400.78711      2311.8288      295.50719     -1269.7263      0.40101743     18421.214      352.82402     -4.3577412     -1495.7639     -1197.5321     -2340.4719      41.001033      1.8576356    
   1232000   2701.301       407.96508      2293.3359      300.79962      366.51724      0.40101743     18421.214      361.34074     -4.3577412     -1498.4911     -1198.0765     -2335.2268      40.932743      2.3063112    
   1233000   2707.6491      383.92827      2323.7208      283.07688     -1127.4586      0.40101743     18421.214      340.02464     -4.3577412     -1500.5272     -1197.8112     -2358.3137      40.454628      2.3865905    
   1234000   2709.6678      399.65862      2310.0092      294.67513     -462.55068      0.40101743     18421.214      353.9397      -4.3577412     -1495.9289     -1197.7361     -2339.7254      32.861357      1.8055761    
   1235000   2717.758       407.30484      2310.4531      300.31282     -286.82259      0.40101743     18421.214      356.25358     -4.3577412     -1489.6683     -1197.1606     -2330.5753      43.729628      1.9752092    
   1236000   2736.0002      397.53633      2338.4639      293.11033      654.11292      0.40101743     18421.214      359.88445     -4.3577412     -1500.2164     -1197.9767     -2338.3087      44.877485      1.9078247    
   1237000   2744.6622      439.7385       2304.9237      324.22672      115.76256      0.40101743     18421.214      349.24291     -4.3577412     -1497.1257     -1196.6949     -2344.5777      38.835178      1.8583159    
   1238000   2715.8835      422.13945      2293.744       311.25063      1132.7136      0.40101743     18421.214      353.56213     -4.3577412     -1502.9099     -1197.009      -2346.3567      34.4931        2.1371955    
   1239000   2715.5522      408.39145      2307.1607      301.114        1111.0626      0.40101743     18421.214      357.89778     -4.3577412     -1511.2755     -1197.3117     -2350.6895      39.511156      1.8327347    
   1240000   2714.3916      441.22505      2273.1665      325.32277      986.27649      0.40101743     18421.214      361.23254     -4.3577412     -1499.5166     -1197.6337     -2335.9178      36.380426      2.4830023    
   1241000   2711.722       412.77378      2298.9482      304.34516     -61.798536      0.40101743     18421.214      340.83717     -4.3577412     -1499.2872     -1198.4822     -2356.9323      38.428983      1.8650911    
   1242000   2712.269       417.14189      2295.1272      307.56585      818.39275      0.40101743     18421.214      349.97138     -4.3577412     -1481.1728     -1196.9537     -2328.1551      38.48351       2.2076205    
   1243000   2713.5282      405.78821      2307.74        299.19458      1050.083       0.40101743     18421.214      346.84667     -4.3577412     -1497.0747     -1197.049      -2347.277       35.964508      2.8901334    
   1244000   2708.5495      406.70517      2301.8443      299.87067      1036.1601      0.40101743     18421.214      351.10191     -4.3577412     -1509.9184     -1197.0711     -2355.8876      33.579436      1.81219      
   1245000   2709.8575      426.85705      2283.0005      314.729        235.58675      0.40101743     18421.214      352.65315     -4.3577412     -1480.4673     -1197.0834     -2324.8975      35.92667       2.3269958    
   1246000   2723.0313      418.08759      2304.9437      308.26313      376.99053      0.40101743     18421.214      349.25059     -4.3577412     -1481.1957     -1196.9701     -2328.9152      41.039346      1.918585     
   1247000   2688.1763      405.5706       2282.6057      299.03414      301.91126      0.40101743     18421.214      341.49307     -4.3577412     -1497.2129     -1197.0159     -2352.7357      33.939923      1.9779604    
   1248000   2737.6523      408.49657      2329.1557      301.1915       193.55248      0.40101743     18421.214      349.37611     -4.3577412     -1479.9051     -1196.7708     -2327.2998      42.648901      1.816564     
   1249000   2733.8854      428.24775      2305.6376      315.75438      702.43357      0.40101743     18421.214      357.59965     -4.3577412     -1501.9787     -1197.0925     -2341.4716      37.961686      2.0159341    
   1250000   2740.0185      410.42249      2329.596       302.61152     -677.03621      0.40101743     18421.214      338.00747     -4.3577412     -1509.6707     -1198.5251     -2370.1883      36.548901      2.1940695    
   1251000   2682.2353      389.76311      2292.4722      287.379        295.90217      0.40101743     18421.214      355.32748     -4.3577412     -1506.6313     -1197.7031     -2349.0069      40.548705      1.9459723    
   1252000   2709.1941      426.96122      2282.2329      314.8058       321.88647      0.40101743     18421.214      345.91519     -4.3577412     -1497.6307     -1197.2173     -2348.9329      36.567075      1.8276514    
   1253000   2700.5924      396.95143      2303.6409      292.67907      211.90223      0.40101743     18421.214      357.96974     -4.3577412     -1485.6194     -1196.2384     -2323.888       42.249501      1.9218747    
   1254000   2689.7605      380.52757      2309.2329      280.56948     -308.44674      0.40101743     18421.214      341.15008     -4.3577412     -1490.0568     -1197.03       -2345.9368      41.224435      1.8028551    
   1255000   2735.3798      419.55651      2315.8233      309.34619     -381.01082      0.40101743     18421.214      345.03789     -4.3577412     -1498.9315     -1197.2075     -2351.1011      38.555195      1.6279201    
   1256000   2674.9651      393.52128      2281.4438      290.14997     -1302.6665      0.40101743     18421.214      356.25179     -4.3577412     -1507.7267     -1198.8249     -2350.2998      38.125934      1.9592518    
   1257000   2713.1698      417.65293      2295.5169      307.94264     -297.45858      0.40101743     18421.214      346.18        -4.3577412     -1501.4188     -1195.5515     -2350.7903      45.261788      2.1332552    
   1258000   2752.8271      422.7776       2330.0495      311.72115      678.65591      0.40101743     18421.214      350.17408     -4.3577412     -1494.7017     -1197.4953     -2342.0229      43.638732      2.3708079    
   1259000   2774.7752      450.36097      2324.4142      332.05884     -1712.4437      0.40101743     18421.214      334.82668     -4.3577412     -1501.1674     -1197.7123     -2364.0531      40.19661       1.9906278    
   1260000   2712.9036      419.9674       2292.9362      309.64914      598.44917      0.40101743     18421.214      358.95445     -4.3577412     -1488.5048     -1197.1604     -2326.7107      34.964972      2.014642     
   1261000   2707.9559      424.58006      2283.3759      313.05013     -2060.8314      0.40101743     18421.214      334.77449     -4.3577412     -1490.4405     -1197.3148     -2352.9808      40.897613      2.170766     
   1262000   2706.6849      379.45763      2327.2273      279.7806      -201.71367      0.40101743     18421.214      353.01454     -4.3577412     -1487.504      -1196.8636     -2331.3531      40.863465      1.8968132    
   1263000   2686.6256      389.47704      2297.1485      287.16808      69.055148      0.40101743     18421.214      350.5778      -4.3577412     -1500.7382     -1197.0651     -2347.2255      39.955885      1.9637308    
   1264000   2708.1846      398.43383      2309.7508      293.77207     -1132.8204      0.40101743     18421.214      347.24194     -4.3577412     -1500.3638     -1197.2918     -2350.4136      41.424947      2.4824855    
   1265000   2668.3693      358.31006      2310.0593      264.18813     -257.33392      0.40101743     18421.214      349.15899     -4.3577412     -1498.316      -1196.6329     -2345.7899      39.219327      1.6602734    
   1266000   2709.9734      406.34875      2303.6247      299.60788     -1247.2804      0.40101743     18421.214      332.26781     -4.3577412     -1502.3332     -1196.5997     -2366.6651      40.501103      1.7928408    
   1267000   2746.7082      419.92382      2326.7844      309.61701     -407.13708      0.40101743     18421.214      340.79701     -4.3577412     -1492.0468     -1196.5591     -2347.809       46.440792      2.6568936    
   1268000   2739.4602      418.15554      2321.3046      308.31323     -222.09976      0.40101743     18421.214      345.33306     -4.3577412     -1499.9908     -1196.6914     -2351.3492      40.537812      2.2138135    
   1269000   2717.1161      411.35425      2305.7619      303.29852     -638.13632      0.40101743     18421.214      345.37861     -4.3577412     -1474.7548     -1196.342      -2325.7182      36.223772      2.3493073    
   1270000   2703.4907      399.15965      2304.331       294.30723      1268.101       0.40101743     18421.214      355.28352     -4.3577412     -1497.6533     -1196.8819     -2339.2517      41.984216      2.4825144    
   1271000   2666.1778      397.96679      2268.211       293.42772      1497.9419      0.40101743     18421.214      358.49117     -4.3577412     -1492.4365     -1196.4065     -2330.3518      35.061719      2.1209613    
   1272000   2698.3386      395.19669      2303.1419      291.38528      524.91623      0.40101743     18421.214      346.40394     -4.3577412     -1489.5333     -1196.2359     -2339.3653      31.922775      1.9531186    
   1273000   2740.579       411.6035       2328.9755      303.48229      683.65145      0.40101743     18421.214      354.05929     -4.3577412     -1493.928      -1196.0007     -2335.8695      43.486024      2.0090192    
   1274000   2693.1534      423.88866      2269.2647      312.54036     -258.70671      0.40101743     18421.214      337.17135     -4.3577412     -1490.258      -1197.2553     -2350.342       35.322272      2.2608703    
   1275000   2735.7463      416.76158      2318.9847      307.28543     -103.96469      0.40101743     18421.214      359.6847      -4.3577412     -1491.3175     -1198.1404     -2329.7732      38.775893      2.4972278    
   1276000   2718.9675      430.55058      2288.417       317.4523      -409.07511      0.40101743     18421.214      349.54272     -4.3577412     -1494.3539     -1197.6983     -2342.5095      41.971427      2.1403927    
   1277000   2674.0021      381.19606      2292.806       281.06237     -966.13234      0.40101743     18421.214      335.68369     -4.3577412     -1495.5803     -1197.0021     -2356.8987      40.420073      2.0410209    
   1278000   2726.5877      420.73227      2305.8555      310.2131       1110.5946      0.40101743     18421.214      350.97074     -4.3577412     -1500.4783     -1196.7686     -2346.2762      37.490297      2.5797386    
   1279000   2713.1939      409.63814      2303.5558      302.0332      -339.41114      0.40101743     18421.214      344.44708     -4.3577412     -1492.7389     -1197.4995     -2345.7914      37.062361      1.2722309    
   1280000   2716.897       429.93672      2286.9603      316.99969     -243.29665      0.40101743     18421.214      342.63463     -4.3577412     -1490.5907     -1195.9354     -2343.8915      39.316431      1.1664954    
   1281000   2699.9474      416.82464      2283.1228      307.33193     -579.38879      0.40101743     18421.214      346.4179      -4.3577412     -1479.6865     -1197.5827     -2330.8513      38.649475      2.0491283    
   1282000   2777.1279      425.22757      2351.9003      313.52756      420.98197      0.40101743     18421.214      354.9494      -4.3577412     -1489.7859     -1195.5079     -2330.3443      37.778422      1.2108271    
   1283000   2730.0581      439.41379      2290.6443      323.98729      233.5197       0.40101743     18421.214      356.90603     -4.3577412     -1498.5449     -1197.0188     -2338.6577      36.832512      1.6393709    
   1284000   2717.4613      404.09485      2313.3665      297.94604     -1211.3373      0.40101743     18421.214      339.22322     -4.3577412     -1498.9706     -1198.053      -2357.8004      35.43034       1.7215202    
   1285000   2728.8295      422.91912      2305.9104      311.8255       146.7699       0.40101743     18421.214      359.65384     -4.3577412     -1496.2536     -1193.9303     -2330.5301      36.477575      1.3263204    
   1286000   2682.5179      367.81013      2314.7077      271.1927       1557.0293      0.40101743     18421.214      357.45182     -4.3577412     -1493.5714     -1195.9005     -2332.0201      43.947387      1.1626031    
   1287000   2687.6119      383.90012      2303.7118      283.05612     -343.25344      0.40101743     18421.214      341.7208      -4.3577412     -1490.9445     -1196.6187     -2345.8425      35.97722       0.81226438   
   1288000   2696.125       387.57947      2308.5455      285.76897      184.07911      0.40101743     18421.214      348.77276     -4.3577412     -1489.0692     -1194.8868     -2335.1833      41.678511      1.3009996    
   1289000   2713.6435      418.54715      2295.0964      308.60197     -81.133864      0.40101743     18421.214      347.5306      -4.3577412     -1495.4065     -1195.3979     -2343.2739      39.114468      1.5890628    
   1290000   2724.7625      409.58889      2315.1736      301.99689      52.884866      0.40101743     18421.214      352.0257      -4.3577412     -1485.6566     -1196.4429     -2330.0738      38.402389      2.472095     
   1291000   2736.1718      421.46324      2314.7085      310.75205     -76.105684      0.40101743     18421.214      343.70306     -4.3577412     -1485.7746     -1194.6962     -2336.7678      37.584904      1.7126063    
   1292000   2691.2175      393.80707      2297.4104      290.36068      341.7778       0.40101743     18421.214      344.7404      -4.3577412     -1499.7163     -1195.9678     -2350.9437      46.884319      2.1484097    
   1293000   2718.3032      416.45672      2301.8465      307.06066     -819.093        0.40101743     18421.214      337.10712     -4.3577412     -1489.9331     -1196.2988     -2349.1249      38.006579      2.0150314    
   1294000   2760.2352      441.41188      2318.8233      325.46053      279.53832      0.40101743     18421.214      350.69572     -4.3577412     -1488.0829     -1196.2694     -2333.6566      41.907415      1.7555162    
   1295000   2745.541       423.78695      2321.7541      312.46536      371.59298      0.40101743     18421.214      349.65495     -4.3577412     -1487.0594     -1193.4281     -2330.8325      39.42559       1.3619972    
   1296000   2677.9262      364.8608       2313.0654      269.0181       659.31914      0.40101743     18421.214      369.84095     -4.3577412     -1502.4536     -1197.7951     -2330.4078      36.947573      2.2338689    
   1297000   2717.0486      404.4532       2312.5954      298.21025      913.42545      0.40101743     18421.214      354.81898     -4.3577412     -1493.388      -1196.403      -2334.972       37.759203      1.6351135    
   1298000   2720.1271      425.08332      2295.0438      313.4212       138.86173      0.40101743     18421.214      337.48754     -4.3577412     -1485.0028     -1195.8261     -2343.3413      36.073171      1.4276393    
   1299000   2711.5484      405.36341      2306.185       298.88137     -733.67564      0.40101743     18421.214      342.06583     -4.3577412     -1482.5155     -1196.4149     -2336.8646      40.577513      1.7580253    
   1300000   2715.591       392.85037      2322.7406      289.65529      414.50337      0.40101743     18421.214      346.76722     -4.3577412     -1492.8836     -1197.3091     -2343.4255      41.802494      1.7619638    
   1301000   2728.9716      435.55675      2293.4148      321.14344      145.92124      0.40101743     18421.214      354.68934     -4.3577412     -1493.5824     -1197.0441     -2335.9372      36.673997      2.2639677    
   1302000   2696.0672      417.17243      2278.8947      307.58836     -385.28282      0.40101743     18421.214      350.69404     -4.3577412     -1497.9115     -1197.9812     -2345.1986      35.47385       1.6672486    
   1303000   2718.0485      414.32621      2303.7223      305.4898      -335.30911      0.40101743     18421.214      336.418       -4.3577412     -1487.5749     -1196.8105     -2347.9674      34.711095      2.1615562    
   1304000   2742.2536      432.23751      2310.0161      318.69611      499.26126      0.40101743     18421.214      351.16484     -4.3577412     -1494.5368     -1198.0713     -2341.4432      44.328085      2.3473356    
   1305000   2707.8657      393.5278       2314.3379      290.15477     -661.92027      0.40101743     18421.214      337.51341     -4.3577412     -1481.6052     -1195.8643     -2339.9561      36.611878      2.4321841    
   1306000   2697.2152      384.75738      2312.4578      283.6882       870.99512      0.40101743     18421.214      349.44198     -4.3577412     -1505.3529     -1195.454      -2351.3649      46.410379      1.972253     
   1307000   2711.7418      420.87917      2290.8626      310.32141      1126.1877      0.40101743     18421.214      363.20528     -4.3577412     -1496.2395     -1197.4193     -2330.4536      37.023389      2.1896237    
   1308000   2676.4949      395.0463       2281.4486      291.27439     -106.62938      0.40101743     18421.214      338.55461     -4.3577412     -1488.6325     -1196.5695     -2346.6474      40.215772      2.18704      
   1309000   2712.2634      401.49365      2310.7697      296.02813     -20.961994      0.40101743     18421.214      349.49714     -4.3577412     -1481.4134     -1195.3215     -2327.2377      38.508043      1.7080327    
   1310000   2745.059       410.24287      2334.8161      302.47908     -196.15839      0.40101743     18421.214      351.50722     -4.3577412     -1504.158      -1197.1958     -2349.8466      42.387347      2.2298659    
   1311000   2701.697       413.12886      2288.5682      304.60697     -189.92676      0.40101743     18421.214      359.9359      -4.3577412     -1492.3897     -1196.5039     -2328.9577      41.557149      2.3533401    
   1312000   2707.6879      404.36233      2303.3256      298.14326     -128.58614      0.40101743     18421.214      346.84365     -4.3577412     -1482.992      -1197.9152     -2334.0635      41.634816      1.9669667    
   1313000   2694.3769      388.17887      2306.198       286.21092     -673.22282      0.40101743     18421.214      340.74437     -4.3577412     -1487.8963     -1196.1703     -2343.3222      34.941457      1.8641765    
   1314000   2724.7603      410.78867      2313.9717      302.88151      824.1471       0.40101743     18421.214      362.45752     -4.3577412     -1511.0831     -1197.1351     -2345.7607      43.959347      1.9754448    
   1315000   2688.2494      391.86396      2296.3855      288.92799     -832.17854      0.40101743     18421.214      349.74851     -4.3577412     -1498.2504     -1197.0515     -2345.5534      44.151844      1.9390143    
   1316000   2726.8588      407.25987      2319.5989      300.27967     -1092.986       0.40101743     18421.214      347.08386     -4.3577412     -1510.3145     -1197.4266     -2360.6573      42.081385      1.8601603    
   1317000   2735.0293      413.292        2321.7373      304.72725     -1806.8846      0.40101743     18421.214      329.13629     -4.3577412     -1494.1044     -1196.9557     -2361.9237      43.102547      1.5560027    
   1318000   2739.6869      424.41912      2315.2678      312.93147      49.0564        0.40101743     18421.214      345.47715     -4.3577412     -1488.1801     -1197.5618     -2340.2647      43.102518      2.0345935    
   1319000   2680.3695      374.79663      2305.5728      276.34396     -990.49587      0.40101743     18421.214      333.01791     -4.3577412     -1483.7546     -1196.1826     -2346.9193      38.761144      2.3262997    
   1320000   2698.4282      386.15191      2312.2763      284.7164      -1071.7234      0.40101743     18421.214      347.5396      -4.3577412     -1484.8474     -1196.9871     -2334.2949      33.13201       1.9703636    
   1321000   2715.2116      417.73716      2297.4745      308.00475      613.13594      0.40101743     18421.214      339.26383     -4.3577412     -1511.0931     -1197.3783     -2369.2076      44.82235       1.9502849    
   1322000   2695.1885      414.36232      2280.8261      305.51642     -654.47716      0.40101743     18421.214      341.5963      -4.3577412     -1495.945      -1196.7915     -2351.1402      30.184135      1.9798115    
   1323000   2742.2012      418.95891      2323.2423      308.90556     -421.68772      0.40101743     18421.214      339.42072     -4.3577412     -1497.9239     -1197.4536     -2355.9568      44.850027      1.6126349    
   1324000   2720.6328      417.55794      2303.0748      307.8726       896.34462      0.40101743     18421.214      346.94335     -4.3577412     -1511.6212     -1197.1002     -2361.778       42.436028      1.5005824    
   1325000   2740.93        429.49733      2311.4326      316.67573     -1447.1367      0.40101743     18421.214      345.59324     -4.3577412     -1480.8277     -1197.2413     -2332.4758      35.086537      1.8155091    
   1326000   2694.2164      415.76491      2278.4515      306.55057     -216.95876      0.40101743     18421.214      344.96606     -4.3577412     -1500.1844     -1197.7532     -2352.9715      41.881483      1.7287732    
   1327000   2734.3239      431.19958      2303.1243      317.93082     -724.33509      0.40101743     18421.214      343.30166     -4.3577412     -1489.3816     -1195.8686     -2341.9485      39.137726      2.4417583    
   1328000   2731.3089      389.80162      2341.5073      287.4074      -291.03486      0.40101743     18421.214      342.86824     -4.3577412     -1501.8352     -1197.6741     -2356.6411      40.891856      2.5898488    
   1329000   2710.0878      398.88961      2311.1982      294.10813      9.1304922      0.40101743     18421.214      348.68237     -4.3577412     -1512.2226     -1197.303      -2360.8432      33.130678      2.0025781    
   1330000   2777.697       456.3164       2321.3806      336.44988     -1479.5675      0.40101743     18421.214      341.68348     -4.3577412     -1499.1004     -1197.3674     -2354.7842      36.837193      1.845367     
   1331000   2738.3628      430.85228      2307.5105      317.67475     -504.88663      0.40101743     18421.214      348.24866     -4.3577412     -1506.741      -1196.9039     -2355.3962      38.335286      1.5811533    
   1332000   2684.753       394.60831      2290.1447      290.95145      1362.5253      0.40101743     18421.214      354.33983     -4.3577412     -1504.4959     -1197.5343     -2347.6904      45.053975      2.3061986    
   1333000   2725.8982      403.71505      2322.1832      297.666       -78.559611      0.40101743     18421.214      368.48041     -4.3577412     -1490.8025     -1197.5944     -2319.9164      38.790253      2.4317252    
   1334000   2718.6801      405.86314      2312.817       299.24983     -525.14052      0.40101743     18421.214      337.53362     -4.3577412     -1476.2278     -1196.1557     -2334.8499      38.474719      1.9455597    
   1335000   2698.0877      381.99733      2316.0904      281.65316      544.18155      0.40101743     18421.214      353.90664     -4.3577412     -1505.9632     -1197.822      -2349.8786      35.595738      1.7204807    
   1336000   2726.3889      423.42947      2302.9594      312.20179     -820.14668      0.40101743     18421.214      338.4497      -4.3577412     -1487.9105     -1197.3382     -2346.7991      33.760477      2.1455577    
   1337000   2742.5897      435.58539      2307.0043      321.16455     -730.76646      0.40101743     18421.214      334.62579     -4.3577412     -1503.9841     -1196.6715     -2366.0298      45.170129      1.8991687    
   1338000   2711.1991      396.24889      2314.9502      292.16108      470.80128      0.40101743     18421.214      354.19058     -4.3577412     -1493.4838     -1197.6259     -2336.9191      38.806822      1.9199305    
   1339000   2719.2972      431.48599      2287.8112      318.14199     -533.43005      0.40101743     18421.214      338.69552     -4.3577412     -1480.3491     -1196.1775     -2337.8311      33.396519      1.8218365    
   1340000   2733.898       404.75059      2329.1474      298.42953      1290.8253      0.40101743     18421.214      359.12661     -4.3577412     -1488.2734     -1196.9218     -2326.0686      37.119521      2.0559422    
   1341000   2719.4816      419.29504      2300.1865      309.1534      -919.86915      0.40101743     18421.214      340.41838     -4.3577412     -1497.3565     -1196.3266     -2353.2647      41.339826      2.0043277    
   1342000   2750.9483      421.81161      2329.1367      311.00891     -404.83834      0.40101743     18421.214      345.11715     -4.3577412     -1498.9384     -1197.245      -2351.0663      37.413697      1.6153087    
   1343000   2709.3359      403.57466      2305.7612      297.5625       794.44558      0.40101743     18421.214      354.96576     -4.3577412     -1485.1639     -1197.1604     -2327.3586      40.606528      1.573616     
   1344000   2704.3561      397.30014      2307.0559      292.93619     -372.97984      0.40101743     18421.214      350.21712     -4.3577412     -1496.4138     -1197.5216     -2343.7183      39.102621      1.6620124    
   1345000   2712.7491      406.14718      2306.6019      299.45926      1463.6196      0.40101743     18421.214      368.37736     -4.3577412     -1480.8849     -1197.8667     -2310.3742      37.831917      2.0152804    
   1346000   2748.6249      415.38817      2333.2367      306.2728       323.10502      0.40101743     18421.214      358.02474     -4.3577412     -1485.7613     -1197.5756     -2325.3122      46.968064      2.3028714    
   1347000   2717.8974      399.38669      2318.5107      294.47463      735.09707      0.40101743     18421.214      338.15412     -4.3577412     -1489.0486     -1197.2441     -2348.1387      33.894062      1.9316318    
   1348000   2693.4103      385.83377      2307.5766      284.48183     -486.03891      0.40101743     18421.214      345.22181     -4.3577412     -1492.4562     -1196.8814     -2344.1157      35.873967      1.7106689    
   1349000   2690.7568      402.70806      2288.0487      296.92353     -165.71358      0.40101743     18421.214      348.28221     -4.3577412     -1499.8898     -1196.6532     -2348.2609      33.847534      2.5929859    
   1350000   2682.8562      396.35172      2286.5045      292.2369      -104.80574      0.40101743     18421.214      344.67882     -4.3577412     -1495.7958     -1197.5378     -2348.6548      36.774328      2.6506771    
   1351000   2679.3861      405.77259      2273.6135      299.18307     -103.53243      0.40101743     18421.214      343.23973     -4.3577412     -1488.0669     -1197.6179     -2342.445       38.406197      1.7893666    
   1352000   2712.5677      406.33668      2306.231       299.59898      464.27346      0.40101743     18421.214      344.64616     -4.3577412     -1507.1173     -1196.478      -2358.9492      38.943345      2.6310323    
   1353000   2721.0665      404.47286      2316.5937      298.22475     -290.79693      0.40101743     18421.214      351.55269     -4.3577412     -1492.2996     -1196.82       -2337.5669      42.822205      2.3984185    
   1354000   2721.609       411.3577       2310.2513      303.30107      148.24494      0.40101743     18421.214      347.26146     -4.3577412     -1508.9115     -1197.9648     -2359.6148      40.847977      1.8590894    
   1355000   2722.5374      415.64311      2306.8943      306.46077      1096.7899      0.40101743     18421.214      358.68192     -4.3577412     -1497.3206     -1196.2949     -2334.9336      39.265083      1.9871686    
   1356000   2726.7187      404.30282      2322.4159      298.09938     -317.08175      0.40101743     18421.214      343.3952      -4.3577412     -1496.3093     -1196.8527     -2349.7668      45.379294      2.0058729    
   1357000   2718.079       413.54155      2304.5375      304.91126      542.81661      0.40101743     18421.214      354.65955     -4.3577412     -1491.8431     -1198.2133     -2335.3969      35.667174      2.1183945    
   1358000   2707.8792      401.91697      2305.9622      296.34025      559.33292      0.40101743     18421.214      337.16609     -4.3577412     -1489.8214     -1195.2814     -2347.9367      36.899771      1.4521608    
   1359000   2723.5825      418.77596      2304.8066      308.77067      112.2743       0.40101743     18421.214      351.25428     -4.3577412     -1504.4303     -1196.9394     -2350.1154      40.87054       1.894662     
   1360000   2717.4989      410.5626       2306.9363      302.71482     -151.39113      0.40101743     18421.214      349.68803     -4.3577412     -1486.7313     -1197.2281     -2334.2714      38.930813      2.3610598    
   1361000   2681.6038      396.23569      2285.3681      292.15134      522.92419      0.40101743     18421.214      349.39144     -4.3577412     -1498.6302     -1198.7944     -2348.0331      38.87734       1.8442395    
   1362000   2689.4566      392.10614      2297.3504      289.10656      454.75242      0.40101743     18421.214      349.14739     -4.3577412     -1498.5608     -1198.6841     -2348.0975      35.232978      2.0146037    
   1363000   2676.8386      382.98043      2293.8581      282.37802      498.56532      0.40101743     18421.214      347.62233     -4.3577412     -1485.4318     -1196.786      -2334.5955      40.00119       1.6114426    
   1364000   2744.2607      419.52719      2324.7335      309.32457     -658.27948      0.40101743     18421.214      339.80695     -4.3577412     -1498.2524     -1197.0922     -2355.5376      36.71611       2.0873294    
   1365000   2700.1646      411.05895      2289.1056      303.08079      873.43377      0.40101743     18421.214      356.75968     -4.3577412     -1495.4875     -1196.8974     -2335.6252      38.503954      2.0560077    
   1366000   2703.9686      400.39881      2303.5698      295.22089      379.14116      0.40101743     18421.214      353.28062     -4.3577412     -1509.2093     -1197.7401     -2353.6687      34.957011      1.3352442    
   1367000   2695.9898      400.02546      2295.9644      294.94561      235.25996      0.40101743     18421.214      340.18305     -4.3577412     -1487.8508     -1196.4539     -2344.1217      33.317863      2.0298331    
   1368000   2720.9399      421.31986      2299.6201      310.64633      970.8738       0.40101743     18421.214      350.20814     -4.3577412     -1493.8825     -1196.7811     -2340.4554      39.496344      1.5312644    
   1369000   2714.0653      416.54799      2297.5173      307.12796      38.502383      0.40101743     18421.214      355.09744     -4.3577412     -1489.6541     -1196.065      -2330.6217      38.78605       2.2191833    
   1370000   2710.4025      394.46519      2315.9373      290.84593      667.46433      0.40101743     18421.214      353.01978     -4.3577412     -1491.9538     -1197.1147     -2336.0488      47.013026      1.9104919    
   1371000   2726.994       418.7447       2308.2493      308.74763     -1644.0092      0.40101743     18421.214      336.85775     -4.3577412     -1498.2825     -1196.5228     -2357.9476      36.636815      1.5700919    
   1372000   2701.5586      392.57257      2308.986       289.45046     -6.2033724      0.40101743     18421.214      346.76114     -4.3577412     -1494.558      -1197.3259     -2345.1227      37.1513        1.5383787    
   1373000   2720.8825      409.27095      2311.6116      301.76247     -216.97567      0.40101743     18421.214      360.86218     -4.3577412     -1505.6193     -1197.6701     -2342.4272      38.594587      1.8025473    
   1374000   2715.831       412.04254      2303.7884      303.806        258.35946      0.40101743     18421.214      346.52919     -4.3577412     -1496.9142     -1197.0926     -2347.4775      41.036227      1.4719203    
   1375000   2714.3165      394.5642       2319.7523      290.91892      446.065        0.40101743     18421.214      347.4716      -4.3577412     -1500.9259     -1195.777      -2349.2313      33.614309      1.9923865    
   1376000   2715.5625      417.9267       2297.6358      308.1445      -867.79293      0.40101743     18421.214      347.40302     -4.3577412     -1513.2322     -1197.0667     -2362.8959      32.473012      1.8634129    
   1377000   2728.6371      414.69913      2313.938       305.76475     -345.57876      0.40101743     18421.214      340.82746     -4.3577412     -1474.228      -1196.147      -2329.5476      33.440313      2.0406106    
   1378000   2678.9661      394.91201      2284.0541      291.17537      715.95568      0.40101743     18421.214      358.92771     -4.3577412     -1499.9073     -1196.6728     -2337.6524      37.002663      2.0215019    
   1379000   2727.8934      408.12951      2319.7639      300.92087      580.79158      0.40101743     18421.214      363.06852     -4.3577412     -1487.404      -1197.9062     -2322.2416      39.826531      1.5090765    
   1380000   2717.8146      427.71099      2290.1036      315.35862      283.19249      0.40101743     18421.214      356.78229     -4.3577412     -1505.274      -1197.424      -2345.9157      38.762209      1.6467433    
   1381000   2683.6605      395.42361      2288.2369      291.55258     -1089.614       0.40101743     18421.214      340.71834     -4.3577412     -1492.4138     -1197.6469     -2349.3424      41.732032      1.9216712    
   1382000   2715.445       396.41357      2319.0314      292.2825      -939.01838      0.40101743     18421.214      340.19374     -4.3577412     -1493.3619     -1195.5293     -2348.6974      41.471901      1.5630005    
   1383000   2728.0496      410.4917       2317.5579      302.66255      372.15704      0.40101743     18421.214      349.04557     -4.3577412     -1496.173      -1196.1452     -2343.2726      37.14824       1.8115336    
   1384000   2700.4177      401.4129       2299.0048      295.96859     -997.69674      0.40101743     18421.214      343.54423     -4.3577412     -1493.7508     -1196.6585     -2346.8651      38.671748      1.8458071    
   1385000   2729.8141      430.97895      2298.8351      317.76814      732.93555      0.40101743     18421.214      363.63685     -4.3577412     -1494.3527     -1196.9786     -2327.6945      38.399143      1.6116894    
   1386000   2694.0975      404.89938      2289.1981      298.53924      91.616157      0.40101743     18421.214      342.15664     -4.3577412     -1513.0674     -1197.8267     -2368.7375      38.448672      1.6550803    
   1387000   2744.4338      426.38332      2318.0504      314.37971      46.315954      0.40101743     18421.214      346.38724     -4.3577412     -1502.1042     -1196.2887     -2352.0057      41.039328      1.8833475    
   1388000   2716.737       409.63287      2307.1042      302.02932     -880.97203      0.40101743     18421.214      333.02731     -4.3577412     -1501.6274     -1196.2703     -2364.8704      41.177348      2.2604757    
   1389000   2712.6304      408.40448      2304.2259      301.1236       13.962718      0.40101743     18421.214      364.70342     -4.3577412     -1502.0315     -1196.7613     -2334.0894      38.783273      1.4834185    
   1390000   2720.4782      403.07239      2317.4058      297.19216      860.89978      0.40101743     18421.214      361.2027      -4.3577412     -1493.07       -1197.4494     -2329.3167      37.835893      1.5676552    
   1391000   2712.1388      404.7933       2307.3455      298.46102      501.04993      0.40101743     18421.214      348.30055     -4.3577412     -1505.1274     -1197.8196     -2354.6465      41.584357      1.9791051    
   1392000   2749.1313      424.38532      2324.746       312.90655     -722.95313      0.40101743     18421.214      337.63138     -4.3577412     -1484.0127     -1197.5134     -2343.8947      38.001356      2.0419051    
   1393000   2726.4237      420.7814       2305.6423      310.24932     -456.41606      0.40101743     18421.214      349.31081     -4.3577412     -1486.6022     -1197.5924     -2334.8838      38.111239      2.0650778    
   1394000   2730.7575      409.12117      2321.6363      301.65203      98.549349      0.40101743     18421.214      357.04895     -4.3577412     -1501.7122     -1195.9789     -2340.6422      40.078885      1.7903166    
   1395000   2742.4942      422.15488      2320.3393      311.26201      114.85806      0.40101743     18421.214      344.22524     -4.3577412     -1501.3982     -1194.6655     -2351.8384      35.532822      1.9196841    
   1396000   2691.5115      391.2428       2300.2687      288.47        -716.47016      0.40101743     18421.214      345.44082     -4.3577412     -1488.6365     -1198.1972     -2341.3929      37.410333      1.6864425    
   1397000   2702.9148      379.92916      2322.9857      280.12826     -1217.5769      0.40101743     18421.214      348.26854     -4.3577412     -1506.8751     -1197.3385     -2355.9451      38.553388      2.1733162    
   1398000   2727.4248      428.92187      2298.503       316.25142      19.580652      0.40101743     18421.214      349.73004     -4.3577412     -1493.6241     -1197.2068     -2341.1009      38.007896      1.7935007    
   1399000   2721.605       411.40154      2310.2034      303.33339      158.34229      0.40101743     18421.214      360.06026     -4.3577412     -1494.7247     -1197.5956     -2332.2601      47.290571      2.2806839    
   1400000   2709.2144      411.14605      2298.0684      303.14501     -449.17841      0.40101743     18421.214      350.76331     -4.3577412     -1486.4452     -1196.864      -2332.5458      37.466702      1.857044     
   1401000   2691.6766      415.38106      2276.2955      306.26756     -363.31374      0.40101743     18421.214      340.11807     -4.3577412     -1479.6478     -1197.5833     -2337.113       33.590993      2.6024737    
   1402000   2707.9717      404.27903      2303.6927      298.08184      1448.4554      0.40101743     18421.214      342.32086     -4.3577412     -1491.5361     -1196.0667     -2345.2819      32.847705      1.9559661    
   1403000   2709.8631      417.21224      2292.6508      307.61772     -344.0402       0.40101743     18421.214      355.51137     -4.3577412     -1505.6693     -1198.4399     -2348.5978      39.0678        2.2099585    
   1404000   2725.0623      402.72103      2322.3413      296.9331       555.51928      0.40101743     18421.214      355.60792     -4.3577412     -1506.0528     -1197.5467     -2347.9916      38.469803      2.030415     
   1405000   2718.7468      405.11642      2313.6304      298.69926     -1014.0046      0.40101743     18421.214      352.09505     -4.3577412     -1498.0458     -1197.1792     -2343.13        39.354914      2.1453258    
   1406000   2710.2716      405.27605      2304.9956      298.81696      132.28909      0.40101743     18421.214      345.70562     -4.3577412     -1513.8398     -1197.6926     -2365.8268      38.054204      1.9658094    
   1407000   2737.8366      420.62374      2317.2128      310.13307     -144.56868      0.40101743     18421.214      349.62943     -4.3577412     -1498.5682     -1196.6029     -2345.5417      36.452064      2.6834664    
   1408000   2695.6785      406.08088      2289.5976      299.41037     -873.89205      0.40101743     18421.214      340.87656     -4.3577412     -1510.24       -1197.5522     -2366.9157      34.310063      1.7877714    
   1409000   2747.2699      421.6083       2325.6616      310.85901     -514.26477      0.40101743     18421.214      348.24697     -4.3577412     -1493.7139     -1197.7569     -2343.2238      39.68479       2.3198331    
   1410000   2710.3082      411.47863      2298.8295      303.39023     -265.87294      0.40101743     18421.214      353.58884     -4.3577412     -1482.2067     -1196.9203     -2325.5381      37.719567      1.7031388    
   1411000   2724.3046      425.41511      2298.8895      313.66583      1725.5882      0.40101743     18421.214      362.99959     -4.3577412     -1489.1775     -1195.8959     -2322.0738      38.190121      2.2456551    
   1412000   2713.7232      410.71527      2303.0079      302.82739      640.73823      0.40101743     18421.214      343.80039     -4.3577412     -1493.9133     -1197.4944     -2347.6073      38.132173      2.0538354    
   1413000   2727.4482      425.97573      2301.4725      314.07919      1535.4991      0.40101743     18421.214      360.58542     -4.3577412     -1495.4911     -1197.7536     -2332.6593      36.924781      1.8073326    
   1414000   2690.8154      405.79343      2285.022       299.19843     -828.8281       0.40101743     18421.214      335.46755     -4.3577412     -1503.4094     -1198.1228     -2366.0646      36.925587      1.8114639    
   1415000   2703.369       405.28531      2298.0837      298.82378      319.13229      0.40101743     18421.214      351.36134     -4.3577412     -1475.527      -1196.5406     -2320.7063      41.011663      1.6147471    
   1416000   2718.2585      402.8157       2315.4428      297.0029       771.72027      0.40101743     18421.214      350.00113     -4.3577412     -1494.5751     -1197.0472     -2341.6211      36.937106      2.3269443    
   1417000   2735.7342      413.67109      2322.0631      305.00676     -267.39639      0.40101743     18421.214      360.35629     -4.3577412     -1485.4698     -1197.2607     -2322.3741      43.231679      2.1291261    
   1418000   2722.2479      416.01393      2306.2339      306.73418      404.14324      0.40101743     18421.214      345.1554      -4.3577412     -1487.6897     -1196.1461     -2338.6804      37.505223      2.1742968    
   1419000   2696.183       410.9535       2285.2295      303.00304      94.016213      0.40101743     18421.214      357.36423     -4.3577412     -1509.878      -1196.9374     -2349.4512      39.332641      1.6895668    
   1420000   2693.9327      398.70394      2295.2288      293.97123      695.55111      0.40101743     18421.214      345.59199     -4.3577412     -1479.2846     -1196.7778     -2330.4704      35.450873      1.6029003    
   1421000   2694.2653      400.10741      2294.1578      295.00603     -482.67001      0.40101743     18421.214      338.39694     -4.3577412     -1488.6515     -1197.2868     -2347.5413      34.667774      1.9654839    
   1422000   2665.692       382.45245      2283.2396      281.98872      121.96392      0.40101743     18421.214      357.98582     -4.3577412     -1497.4318     -1199.07       -2338.516       39.481712      1.8689646    
   1423000   2750.7378      416.28044      2334.4574      306.93068     -182.73597      0.40101743     18421.214      351.4034      -4.3577412     -1493.6457     -1196.7473     -2338.9896      35.897857      2.7986408    
   1424000   2711.5457      406.92059      2304.6251      300.0295      -1223.69        0.40101743     18421.214      338.99781     -4.3577412     -1496.9583     -1195.5858     -2353.5463      41.20536       2.2678905    
   1425000   2711.1903      399.18653      2312.0038      294.32705     -1780.8463      0.40101743     18421.214      341.03181     -4.3577412     -1490.2694     -1197.2704     -2346.508       36.92949       1.8901973    
   1426000   2696.9867      395.33448      2301.6522      291.48687      13.036196      0.40101743     18421.214      345.52514     -4.3577412     -1503.711      -1196.4416     -2354.6274      36.604417      1.7836629    
   1427000   2742.6642      431.76744      2310.8967      318.34952     -87.865523      0.40101743     18421.214      342.39891     -4.3577412     -1492.0864     -1196.3059     -2345.9934      36.649484      1.6032746    
   1428000   2721.5233      405.89851      2315.6247      299.27591     -368.39393      0.40101743     18421.214      340.48835     -4.3577412     -1499.9174     -1197.928      -2357.357       42.047938      1.8234255    
   1429000   2723.813       417.5229       2306.2901      307.84677      950.8205       0.40101743     18421.214      349.89386     -4.3577412     -1492.2019     -1198.1406     -2340.4486      37.05447       1.9850728    
   1430000   2738.036       409.6229       2328.4131      302.02197     -666.02865      0.40101743     18421.214      349.20144     -4.3577412     -1494.2387     -1198.5146     -2343.5519      44.241105      2.1308557    
   1431000   2732.8982      409.8042       2323.094       302.15564      387.5425       0.40101743     18421.214      345.40597     -4.3577412     -1498.0882     -1197.765      -2350.4472      39.500343      1.822335     
   1432000   2733.4691      431.36329      2302.1058      318.05153      1450.1306      0.40101743     18421.214      350.77827     -4.3577412     -1496.663      -1197.6249     -2343.5096      37.977586      1.7446634    
   1433000   2739.35        426.81389      2312.5361      314.69718     -731.31438      0.40101743     18421.214      329.52436     -4.3577412     -1490.4412     -1196.3207     -2357.2375      44.450528      1.5608513    
   1434000   2725.0581      411.91712      2313.141       303.71353     -1594.207       0.40101743     18421.214      339.89545     -4.3577412     -1487.4701     -1195.1925     -2342.7671      36.185937      2.6153039    
   1435000   2723.0549      409.72072      2313.3342      302.09409      1837.4035      0.40101743     18421.214      370.79307     -4.3577412     -1507.4872     -1197.8213     -2334.5154      35.900001      1.9832027    
   1436000   2734.8459      413.367        2321.4789      304.78256      257.8671       0.40101743     18421.214      354.73594     -4.3577412     -1492.3373     -1197.0727     -2334.674       45.121174      2.060906     
   1437000   2715.4711      398.77087      2316.7002      294.02058      665.708        0.40101743     18421.214      356.53748     -4.3577412     -1492.4337     -1197.5683     -2333.4645      34.185933      2.0753948    
   1438000   2690.5988      401.26594      2289.3329      295.86023      145.24988      0.40101743     18421.214      356.00571     -4.3577412     -1492.2        -1197.5512     -2333.7455      30.906899      1.8648779    
   1439000   2691.9625      412.60128      2279.3612      304.21798     -149.19457      0.40101743     18421.214      352.61785     -4.3577412     -1505.5817     -1197.9552     -2350.919       39.160764      2.0692762    
   1440000   2746.5236      426.61403      2319.9095      314.54981      96.387244      0.40101743     18421.214      348.11775     -4.3577412     -1499.1152     -1197.042      -2348.0395      35.88726       1.8889127    
   1441000   2742.4905      419.30156      2323.1889      309.15821      960.66652      0.40101743     18421.214      350.69231     -4.3577412     -1504.4744     -1198.0849     -2351.867       43.447026      2.3846632    
   1442000   2722.1483      416.25838      2305.89        306.91442     -756.33276      0.40101743     18421.214      338.01986     -4.3577412     -1493.6474     -1196.704      -2352.3316      33.743409      1.9709347    
   1443000   2677.7669      385.83102      2291.9359      284.47981      1196.9983      0.40101743     18421.214      362.62484     -4.3577412     -1484.2576     -1196.738      -2318.3707      36.122186      2.1794792    
   1444000   2696.3911      388.43524      2307.9559      286.39994      759.09481      0.40101743     18421.214      355.12403     -4.3577412     -1513.9522     -1196.918      -2355.7462      40.676729      1.5698434    
   1445000   2726.1842      401.93548      2324.2487      296.3539      -436.62169      0.40101743     18421.214      337.81831     -4.3577412     -1487.2257     -1196.2763     -2345.6837      43.095886      2.9320044    
   1446000   2720.8553      426.4111       2294.4442      314.40019     -1653.5201      0.40101743     18421.214      336.47782     -4.3577412     -1493.3418     -1196.8862     -2353.7501      37.278315      2.4762828    
   1447000   2720.2051      425.58535      2294.6198      313.79136      7.3012113      0.40101743     18421.214      350.5939      -4.3577412     -1509.2401     -1195.8563     -2354.5025      37.482229      1.7999141    
   1448000   2736.416       415.00979      2321.4062      305.99381      1155.7955      0.40101743     18421.214      354.8046      -4.3577412     -1502.8307     -1197.1175     -2345.1436      41.659392      1.7452739    
   1449000   2725.4768      419.73801      2305.7388      309.48001      733.66574      0.40101743     18421.214      349.21337     -4.3577412     -1486.6908     -1196.5187     -2333.9961      36.327661      1.9922913    
   1450000   2712.3396      413.82978      2298.5098      305.12377     -217.18309      0.40101743     18421.214      350.16871     -4.3577412     -1512.3371     -1198.0824     -2360.2508      36.595959      1.9087789    
   1451000   2680.4395      376.90862      2303.5309      277.90117     -62.315743      0.40101743     18421.214      348.86339     -4.3577412     -1495.2546     -1196.3767     -2342.768       36.831912      1.8210827    
   1452000   2686.0121      405.66516      2280.347       299.10386     -45.142434      0.40101743     18421.214      338.12502     -4.3577412     -1488.4293     -1196.325      -2346.6293      34.393729      2.500524     
   1453000   2674.1213      364.85096      2309.2704      269.01085      151.07627      0.40101743     18421.214      344.18874     -4.3577412     -1502.6753     -1196.3881     -2354.8747      39.50322       2.3837898    
   1454000   2710.6146      422.76751      2287.8471      311.71371      720.07379      0.40101743     18421.214      351.92432     -4.3577412     -1510.4667     -1198.2267     -2356.7691      36.36922       2.1202684    
   1455000   2698.2221      397.20992      2301.0122      292.86966      1135.6234      0.40101743     18421.214      353.35226     -4.3577412     -1496.5528     -1196.1949     -2339.3955      41.990057      1.9026747    
   1456000   2717.2574      413.99975      2303.2577      305.24909      275.08992      0.40101743     18421.214      355.17333     -4.3577412     -1512.3213     -1198.4916     -2355.6396      34.615621      2.3794978    
   1457000   2725.3082      412.73833      2312.5699      304.31903      1264.8203      0.40101743     18421.214      343.90802     -4.3577412     -1483.9762     -1197.0526     -2337.1208      35.489408      1.852949     
   1458000   2685.1361      385.98868      2299.1474      284.59605      413.43565      0.40101743     18421.214      347.1476      -4.3577412     -1492.5713     -1196.3425     -2341.7662      38.648369      2.1183466    
   1459000   2715.8239      407.75564      2308.0683      300.6452      -626.65049      0.40101743     18421.214      337.27232     -4.3577412     -1506.1893     -1198.4466     -2367.3636      43.478545      1.9100212    
   1460000   2718.6285      404.44401      2314.1845      298.20348     -2247.7021      0.40101743     18421.214      324.23276     -4.3577412     -1485.5882     -1195.5334     -2356.8889      40.205334      2.0221158    
   1461000   2697.2945      404.18499      2293.1095      298.0125      -116.24602      0.40101743     18421.214      342.18549     -4.3577412     -1483.6056     -1196.488      -2337.9081      32.451583      1.9204723    
   1462000   2701.458       398.73758      2302.7204      293.99603     -617.12895      0.40101743     18421.214      352.18993     -4.3577412     -1500.803      -1197.847      -2346.4601      31.520831      1.6631513    
   1463000   2733.3325      415.64781      2317.6847      306.46423     -615.30967      0.40101743     18421.214      339.1955      -4.3577412     -1498.8664     -1197.8106     -2357.4815      38.0958        1.8195074    
   1464000   2737.1409      421.41159      2315.7293      310.71397      61.086145      0.40101743     18421.214      354.67679     -4.3577412     -1512.3478     -1197.9249     -2355.5959      34.885369      2.2107255    
   1465000   2729.7423      409.952        2319.7903      302.26461     -1260.9683      0.40101743     18421.214      334.97152     -4.3577412     -1503.2117     -1197.1833     -2365.4235      37.173593      1.6881326    
   1466000   2684.931       414.58786      2270.3432      305.68272     -103.61936      0.40101743     18421.214      351.47898     -4.3577412     -1487.7812     -1197.7249     -2334.0271      36.662824      1.9329298    
   1467000   2700.7638      412.26716      2288.4966      303.97162      60.776226      0.40101743     18421.214      365.32691     -4.3577412     -1509.2779     -1199.0714     -2343.0223      36.387896      1.9335456    
   1468000   2689.6605      399.76696      2289.8936      294.75501      151.42794      0.40101743     18421.214      344.13618     -4.3577412     -1528.7904     -1198.7185     -2383.3728      40.242181      2.2823132    
   1469000   2717.5376      392.76364      2324.7739      289.59134     -855.10994      0.40101743     18421.214      349.85385     -4.3577412     -1489.5734     -1196.5771     -2336.2966      45.797613      2.1338903    
   1470000   2745.3652      419.75425      2325.6109      309.49198      172.15486      0.40101743     18421.214      348.86791     -4.3577412     -1506.1087     -1196.8357     -2354.0765      42.589469      1.8574918    
   1471000   2732.4799      421.03771      2311.4422      310.4383      -1925.1683      0.40101743     18421.214      346.85197     -4.3577412     -1496.3016     -1196.53       -2345.9796      33.563056      1.8739335    
   1472000   2705.7165      418.95749      2286.759       308.90452      840.67253      0.40101743     18421.214      343.91557     -4.3577412     -1490.9708     -1196.8771     -2343.9323      35.490117      2.0851561    
   1473000   2716.3419      408.03301      2308.3089      300.84971     -1252.9764      0.40101743     18421.214      330.42247     -4.3577412     -1508.626      -1197.4733     -2375.6768      42.190483      2.1300596    
   1474000   2690.0494      380.79348      2309.2559      280.76554      228.91475      0.40101743     18421.214      344.93199     -4.3577412     -1495.4732     -1196.9668     -2347.508       40.663351      1.8952916    
   1475000   2722.862       417.93468      2304.9273      308.15038     -145.40326      0.40101743     18421.214      354.07122     -4.3577412     -1509.6896     -1198.8852     -2354.5036      38.657003      2.0278554    
   1476000   2704.5652      385.64635      2318.9189      284.34364     -919.3022       0.40101743     18421.214      355.60022     -4.3577412     -1502.2495     -1198.7929     -2345.4422      36.98549       2.2301349    
   1477000   2742.5674      440.21084      2302.3566      324.57497     -592.65756      0.40101743     18421.214      344.47765     -4.3577412     -1491.4851     -1197.2063     -2344.2137      31.673721      2.4721679    
   1478000   2699.6689      396.53499      2303.1339      292.37202     -194.34948      0.40101743     18421.214      345.54803     -4.3577412     -1504.907      -1197.1354     -2356.4943      38.085719      2.2884658    
   1479000   2700.7491      413.9882       2286.7609      305.24057      418.81024      0.40101743     18421.214      344.27831     -4.3577412     -1490.7108     -1195.6952     -2342.1278      42.520888      2.4468289    
   1480000   2729.1777      407.52436      2321.6534      300.47468      1064.02        0.40101743     18421.214      360.09284     -4.3577412     -1513.5654     -1197.2064     -2350.679       36.248771      2.0681218    
   1481000   2745.7871      414.39152      2331.3955      305.53795     -677.55501      0.40101743     18421.214      350.76529     -4.3577412     -1498.5969     -1197.8308     -2345.6625      49.010148      2.1129269    
   1482000   2695.4376      405.77602      2289.6616      299.1856      -1242.2095      0.40101743     18421.214      328.74546     -4.3577412     -1506.4459     -1196.161      -2373.8615      38.325575      2.0101108    
   1483000   2703.9692      398.04951      2305.9197      293.48871     -123.0918       0.40101743     18421.214      346.94117     -4.3577412     -1507.9541     -1197.1258     -2358.1387      34.417291      1.7115334    
   1484000   2727.8762      422.37169      2305.5045      311.42187     -1051.0263      0.40101743     18421.214      338.89071     -4.3577412     -1505.5649     -1196.8821     -2363.5564      38.334518      1.9094032    
   1485000   2716.8407      420.04397      2296.7968      309.7056      -184.98255      0.40101743     18421.214      344.87778     -4.3577412     -1503.3746     -1195.9512     -2354.4481      38.621384      1.8336515    
   1486000   2750.5809      430.881        2319.6999      317.69593      320.57553      0.40101743     18421.214      343.33781     -4.3577412     -1509.4504     -1196.1316     -2362.2443      46.351729      1.6788189    
   1487000   2726.0637      400.88751      2325.1761      295.58121     -384.59545      0.40101743     18421.214      353.59254     -4.3577412     -1489.2092     -1196.131      -2331.7476      38.602975      1.6543222    
   1488000   2677.6313      404.46785      2273.1635      298.22106     -184.7941       0.40101743     18421.214      352.32749     -4.3577412     -1499.2693     -1197.3594     -2344.3013      30.478053      1.824246     
   1489000   2721.0662      424.65227      2296.4139      313.10337      258.77758      0.40101743     18421.214      346.26885     -4.3577412     -1489.6884     -1197.0466     -2340.4662      33.792121      1.8032396    
   1490000   2713.0151      412.05131      2300.9638      303.81248     -89.183017      0.40101743     18421.214      363.07929     -4.3577412     -1495.941      -1198.5749     -2331.4366      36.010614      1.7483109    
   1491000   2713.2365      416.92797      2296.3085      307.40812      387.20408      0.40101743     18421.214      351.40977     -4.3577412     -1485.6609     -1195.4388     -2329.6899      40.017042      3.3804306    
   1492000   2689.7042      409.11712      2280.5871      301.64905     -196.47147      0.40101743     18421.214      348.53985     -4.3577412     -1505.0875     -1198.1534     -2354.701       36.512924      2.0655403    
   1493000   2761.1401      443.14837      2317.9918      326.74087     -239.73158      0.40101743     18421.214      349.49373     -4.3577412     -1510.1175     -1197.4507     -2358.0745      42.840733      1.8991604    
   1494000   2696.9885      403.06373      2293.9248      297.18578      1360.0559      0.40101743     18421.214      357.81456     -4.3577412     -1499.2021     -1196.7651     -2338.1527      43.615205      1.9065164    
   1495000   2735.3427      418.80149      2316.5413      308.7895       906.43785      0.40101743     18421.214      352.26879     -4.3577412     -1488.4426     -1197.9635     -2334.1374      35.216769      1.7325911    
   1496000   2727.1268      429.72418      2297.4027      316.84298     -1307.2913      0.40101743     18421.214      344.79472     -4.3577412     -1512.6177     -1196.8796     -2364.7026      34.110104      1.9027338    
   1497000   2728.469       398.31103      2330.158       293.68153     -316.48055      0.40101743     18421.214      344.99906     -4.3577412     -1498.4677     -1195.9611     -2349.4298      35.225266      1.9553735    
   1498000   2692.5362      422.47722      2270.059       311.49968     -309.18261      0.40101743     18421.214      361.3252      -4.3577412     -1499.7595     -1198.9886     -2337.4229      42.732559      2.0483135    
   1499000   2690.6119      386.1568       2304.4551      284.72001     -900.21094      0.40101743     18421.214      343.59171     -4.3577412     -1489.7451     -1197.8632     -2344.0166      36.331683      2.0059454    
   1500000   2749.7141      437.29481      2312.4193      322.42494     -885.2224       0.40101743     18421.214      351.44168     -4.3577412     -1506.1546     -1197.9703     -2352.6832      37.576773      1.5500607    
Loop time of 264.782 on 4 procs for 1000001 steps with 456 atoms

Performance: 326.306 ns/day, 0.074 hours/ns, 3776.692 timesteps/s
99.4% CPU use with 4 MPI tasks x no OpenMP threads

MPI task timing breakdown:
Section |  min time  |  avg time  |  max time  |%varavg| %total
---------------------------------------------------------------
Pair    | 66.763     | 75.39      | 84.803     |  85.7 | 28.47
Bond    | 9.2701     | 9.4735     | 9.6877     |   5.8 |  3.58
Kspace  | 135.59     | 144.09     | 151.81     |  63.9 | 54.42
Neigh   | 6.2682     | 6.2721     | 6.2756     |   0.1 |  2.37
Comm    | 18.096     | 20.101     | 21.769     |  34.4 |  7.59
Output  | 0.0093981  | 0.01047    | 0.010843   |   0.6 |  0.00
Modify  | 6.5833     | 7.178      | 8.8746     |  36.6 |  2.71
Other   |            | 2.27       |            |       |  0.86

Nlocal:            114 ave         120 max         111 min
Histogram: 1 1 1 0 0 0 0 0 0 1
Nghost:           2294 ave        2330 max        2243 min
Histogram: 1 0 0 0 1 0 0 0 1 1
Neighs:        18138.2 ave       19980 max       15695 min
Histogram: 1 0 0 0 1 0 0 0 1 1

Total # of neighbors = 72553
Ave neighs/atom = 159.10746
Ave special neighs/atom = 6.3157895
Neighbor list builds = 17730
Dangerous builds = 0
unfix           f4

### backward integration, save to backward.dat

run             ${t_eq}
run             499999
Ewald initialization ...
  using 12-bit tables for long-range coulomb (../kspace.cpp:342)
  G vector (1/distance) = 0.23481561
  estimated absolute RMS force accuracy = 0.00037577262
  estimated relative force accuracy = 1.1316281e-06
  KSpace vectors: actual max1d max3d = 458 6 1098
                  kxmax kymax kzmax  = 6 6 6
Generated 0 of 21 mixed pair_coeff terms from arithmetic mixing rule
WARNING: Inconsistent image flags (../domain.cpp:819)
Per MPI rank memory allocation (min/avg/max) = 30.6 | 30.6 | 30.61 Mbytes
   Step         TotEng         KinEng         PotEng          Temp          Press         Density         Volume         E_vdwl         E_tail         E_coul         E_long         E_pair         f_fs1          f_fs2     
   1500000   2749.7141      437.29481      2312.4193      322.42494     -885.2224       0.40101743     18421.214      351.44168     -4.3577412     -1506.1546     -1197.9703     -2352.6832      37.576773      1.5500607    
   1501000   2712.9229      413.91003      2299.0128      305.18294     -1586.8532      0.40101743     18421.214      350.75761     -4.3577412     -1490.7855     -1197.9767     -2338.0046      39.107345      2.2070047    
   1502000   2746.2015      438.70409      2307.4975      323.46403     -294.60015      0.40101743     18421.214      336.77649     -4.3577412     -1487.4493     -1197.3021     -2347.9749      40.366126      2.2763913    
   1503000   2747.947       435.59241      2312.3546      321.16973      89.95579       0.40101743     18421.214      353.86443     -4.3577412     -1479.843      -1196.95       -2322.9286      36.9943        1.6009908    
   1504000   2680.3018      386.18383      2294.118       284.73994      60.292102      0.40101743     18421.214      352.72708     -4.3577412     -1496.2677     -1197.3464     -2340.887       34.56666       1.7205534    
   1505000   2722.5256      415.41485      2307.1108      306.29247      218.93039      0.40101743     18421.214      339.35703     -4.3577412     -1503.8949     -1195.4287     -2359.9666      40.579562      1.5904805    
   1506000   2714.4847      399.31218      2315.1725      294.4197       692.60227      0.40101743     18421.214      345.46721     -4.3577412     -1493.8525     -1196.8927     -2345.2779      40.160434      2.3183655    
   1507000   2725.9143      414.66837      2311.2459      305.74208      794.51139      0.40101743     18421.214      350.2768      -4.3577412     -1494.5063     -1196.4274     -2340.657       31.011331      2.1350119    
   1508000   2704.5531      389.71073      2314.8424      287.34039     -431.71551      0.40101743     18421.214      346.53087     -4.3577412     -1485.9122     -1196.0083     -2335.3896      37.527876      1.8715584    
   1509000   2746.0914      436.03281      2310.0586      321.49444      373.99648      0.40101743     18421.214      349.79751     -4.3577412     -1489.2226     -1197.8927     -2337.3179      37.88025       2.1803778    
   1510000   2739.1877      410.69588      2328.4918      302.81309      412.76358      0.40101743     18421.214      346.34061     -4.3577412     -1503.9971     -1196.5771     -2354.2336      40.260318      2.3215563    
   1511000   2704.0115      397.54937      2306.4621      293.11994      810.4595       0.40101743     18421.214      345.35252     -4.3577412     -1497.1212     -1196.5189     -2348.2876      45.534924      1.9406552    
   1512000   2720.2935      406.67957      2313.614       299.8518      -496.94211      0.40101743     18421.214      354.15515     -4.3577412     -1493.7991     -1197.3945     -2337.0385      43.540551      1.9655219    
   1513000   2730.8607      420.33432      2310.5264      309.91968      88.10588       0.40101743     18421.214      345.19878     -4.3577412     -1492.6141     -1196.5861     -2344.0013      38.403187      1.6640634    
   1514000   2672.8259      383.47283      2289.3531      282.74107      181.72905      0.40101743     18421.214      356.03356     -4.3577412     -1491.9919     -1197.8819     -2333.8403      35.185009      2.0101445    
   1515000   2706.2613      418.53746      2287.7238      308.59483      173.97184      0.40101743     18421.214      360.60699     -4.3577412     -1493.7185     -1198.2669     -2331.3784      33.312446      1.7097299    
   1516000   2719.7428      410.40749      2309.3353      302.60046     -931.123        0.40101743     18421.214      339.30801     -4.3577412     -1487.9024     -1196.1828     -2344.7772      36.177309      1.8601404    
   1517000   2723.4096      411.47291      2311.9367      303.38601     -209.61938      0.40101743     18421.214      350.60197     -4.3577412     -1499.876      -1197.7311     -2347.0052      42.381347      2.3399528    
   1518000   2695.4892      392.94382      2302.5454      289.72419     -667.45966      0.40101743     18421.214      339.96334     -4.3577412     -1498.7232     -1197.4232     -2356.183       38.055993      2.3378751    
   1519000   2688.5361      407.05412      2281.4819      300.12796      528.10496      0.40101743     18421.214      356.05007     -4.3577412     -1497.4483     -1197.9716     -2339.3698      37.704447      2.2435458    
   1520000   2695.1534      392.07738      2303.076       289.08535     -182.76666      0.40101743     18421.214      344.76156     -4.3577412     -1500.9788     -1197.3007     -2353.518       39.838103      1.3891719    
   1521000   2708.0831      417.76566      2290.3175      308.02576      466.18673      0.40101743     18421.214      363.38783     -4.3577412     -1505.5506     -1196.5589     -2338.7216      37.884436      2.4093814    
   1522000   2712.7113      409.4103       2303.301       301.86521      942.27286      0.40101743     18421.214      345.34099     -4.3577412     -1490.5891     -1197.2792     -2342.5273      42.290013      1.7739696    
   1523000   2717.0863      400.16771      2316.9186      295.05049     -342.20776      0.40101743     18421.214      356.24344     -4.3577412     -1503.9782     -1197.7669     -2345.5016      37.010393      1.6819857    
   1524000   2700.2847      409.40245      2290.8823      301.85943     -337.51172      0.40101743     18421.214      350.45802     -4.3577412     -1515.7814     -1198.2526     -2363.576       38.698959      2.2843172    
   1525000   2697.1417      408.10584      2289.0359      300.90341     -329.8884       0.40101743     18421.214      351.00582     -4.3577412     -1504.1151     -1198.2952     -2351.4045      39.379943      2.5168458    
   1526000   2730.8872      431.96138      2298.9258      318.49251      265.55343      0.40101743     18421.214      341.51461     -4.3577412     -1479.9054     -1196.0763     -2334.4671      35.984185      1.6804819    
   1527000   2693.8474      386.59154      2307.2558      285.04055     -574.15348      0.40101743     18421.214      336.05915     -4.3577412     -1497.2481     -1194.9977     -2356.1867      34.569142      2.3695068    
   1528000   2716.0932      415.75938      2300.3339      306.5465       70.038942      0.40101743     18421.214      348.71214     -4.3577412     -1488.4082     -1197.2838     -2336.9799      34.176772      2.2117016    
   1529000   2757.6527      414.42504      2343.2277      305.56266     -2554.9235      0.40101743     18421.214      327.43389     -4.3577412     -1472.8108     -1196.5538     -2341.9307      45.037143      1.8539414    
   1530000   2727.6537      420.0858       2307.5679      309.73644     -232.20193      0.40101743     18421.214      349.08691     -4.3577412     -1492.746      -1196.2087     -2339.8678      42.447308      1.9699824    
   1531000   2715.4333      401.30186      2314.1315      295.88672     -1826.941       0.40101743     18421.214      337.96993     -4.3577412     -1502.3604     -1195.8515     -2360.242       37.508702      1.4805532    
   1532000   2731.7896      427.20062      2304.589       314.98232     -1049.5589      0.40101743     18421.214      350.47041     -4.3577412     -1481.3959     -1196.7635     -2327.689       38.916464      1.8385279    
   1533000   2687.9971      397.39553      2290.6016      293.00652     -1157.1787      0.40101743     18421.214      344.31459     -4.3577412     -1492.2477     -1197.2885     -2345.2216      41.281672      2.0889368    
   1534000   2698.5444      392.95219      2305.5922      289.73037      829.07651      0.40101743     18421.214      353.16084     -4.3577412     -1490.7781     -1196.7893     -2334.4065      39.730564      2.0654432    
   1535000   2736.5679      412.00922      2324.5587      303.78144      689.82004      0.40101743     18421.214      353.12798     -4.3577412     -1488.6012     -1196.8949     -2332.3681      37.005829      1.9922803    
   1536000   2743.8367      434.61631      2309.2204      320.45004     -663.63313      0.40101743     18421.214      351.88347     -4.3577412     -1491.9782     -1196.5834     -2336.678       38.380544      1.669865     
   1537000   2689.9921      409.78331      2280.2088      302.14024      598.39855      0.40101743     18421.214      349.43544     -4.3577412     -1504.8062     -1197.0913     -2352.4621      36.732382      1.6805596    
   1538000   2699.8096      391.58453      2308.2251      288.72197      901.50211      0.40101743     18421.214      348.83413     -4.3577412     -1510.7669     -1197.5014     -2359.4342      40.916962      2.1965807    
   1539000   2712.3762      410.32274      2302.0534      302.53797     -333.095        0.40101743     18421.214      345.08453     -4.3577412     -1492.0837     -1197.2978     -2344.297       43.955919      1.8634332    
   1540000   2745.6952      429.59985      2316.0954      316.75131      823.64468      0.40101743     18421.214      360.1354      -4.3577412     -1495.4586     -1197.0145     -2332.3378      36.989862      1.8336327    
   1541000   2701.8933      370.89763      2330.9956      273.46916      100.13664      0.40101743     18421.214      354.51794     -4.3577412     -1484.0896     -1195.5245     -2325.0962      39.62153       1.7896647    
   1542000   2724.612       410.19164      2314.4204      302.44131     -34.29298       0.40101743     18421.214      348.97107     -4.3577412     -1483.2997     -1194.4481     -2328.7767      28.752289      1.1384212    
   1543000   2696.3335      382.62155      2313.712       282.11341      258.18663      0.40101743     18421.214      353.21875     -4.3577412     -1498.9221     -1196.077      -2341.7803      39.065163      1.863272     
   1544000   2728.6016      417.67062      2310.931       307.95569     -479.60449      0.40101743     18421.214      351.00987     -4.3577412     -1498.6572     -1198.0121     -2345.6595      39.147123      1.8929365    
   1545000   2719.7678      423.04302      2296.7248      311.91685      2522.6792      0.40101743     18421.214      357.59672     -4.3577412     -1491.3877     -1196.868      -2330.6591      47.799303      2.210626     
   1546000   2695.8767      400.43767      2295.4391      295.24954      78.71128       0.40101743     18421.214      348.76282     -4.3577412     -1508.4556     -1197.9924     -2357.6852      37.310056      2.1424472    
   1547000   2747.4106      403.19888      2344.2117      297.28542      42.744095      0.40101743     18421.214      355.71709     -4.3577412     -1502.3797     -1198.6348     -2345.2973      34.633879      1.9688351    
   1548000   2707.7135      384.76168      2322.9518      283.69136     -1047.8768      0.40101743     18421.214      338.45622     -4.3577412     -1498.0743     -1196.4153     -2356.0334      40.15891       2.4760432    
   1549000   2713.716       410.3237       2303.3923      302.53868      30.603661      0.40101743     18421.214      354.29429     -4.3577412     -1492.4223     -1196.7224     -2334.8504      36.005164      1.7711671    
   1550000   2728.7438      416.64467      2312.0991      307.19924      162.07407      0.40101743     18421.214      344.78328     -4.3577412     -1503.5652     -1197.2782     -2356.0602      40.938973      1.7853705    
   1551000   2685.0892      391.92491      2293.1643      288.97294      415.50743      0.40101743     18421.214      354.15059     -4.3577412     -1496.4599     -1196.9421     -2339.2513      33.241523      1.823653     
   1552000   2756.4531      427.11852      2329.3346      314.92178     -238.78854      0.40101743     18421.214      351.54384     -4.3577412     -1487.9185     -1197.0844     -2333.4591      41.931871      2.4778868    
   1553000   2681.4378      393.47102      2287.9668      290.11291      547.23019      0.40101743     18421.214      355.59397     -4.3577412     -1498.2253     -1196.5729     -2339.2042      38.141541      2.1190113    
   1554000   2704.423       399.55856      2304.8644      294.60136     -2125.8912      0.40101743     18421.214      342.78951     -4.3577412     -1483.6139     -1198.0155     -2338.8399      37.618841      1.756606     
   1555000   2682.2335      401.05125      2281.1823      295.70194     -233.70213      0.40101743     18421.214      340.8087      -4.3577412     -1486.0997     -1196.3651     -2341.6562      31.463557      1.7546982    
   1556000   2713.527       427.205        2286.322       314.98555     -987.54739      0.40101743     18421.214      337.81683     -4.3577412     -1500.2103     -1197.5577     -2359.9511      41.517596      1.6208311    
   1557000   2760.9753      429.96648      2331.0088      317.02163      468.45808      0.40101743     18421.214      348.20007     -4.3577412     -1500.3323     -1198.0853     -2350.2175      41.411883      2.0627602    
   1558000   2754.4172      411.03724      2343.3799      303.06478     -444.88066      0.40101743     18421.214      346.29726     -4.3577412     -1487.4147     -1196.3484     -2337.4658      39.985746      1.8386458    
   1559000   2699.7227      416.51551      2283.2072      307.104       -740.44854      0.40101743     18421.214      342.06626     -4.3577412     -1508.7706     -1197.1507     -2363.855       35.409838      1.7770121    
   1560000   2719.3057      402.00417      2317.3015      296.40455     -1823.5305      0.40101743     18421.214      351.61857     -4.3577412     -1493.5961     -1198.1535     -2340.1311      41.053791      2.0210465    
   1561000   2736.4574      421.46531      2314.9921      310.75358     -504.31996      0.40101743     18421.214      344.06184     -4.3577412     -1485.172      -1196.9357     -2338.0458      43.824352      1.7533744    
   1562000   2716.804       399.38066      2317.4234      294.47019     -414.47186      0.40101743     18421.214      337.40366     -4.3577412     -1489.4231     -1196.5635     -2348.583       39.02242       1.9703531    
   1563000   2717.3818      401.61231      2315.7695      296.11562     -1695.4226      0.40101743     18421.214      336.0279      -4.3577412     -1503.3228     -1198.5783     -2365.8732      35.05894       2.2598279    
   1564000   2704.7469      401.96724      2302.7796      296.37731      260.97217      0.40101743     18421.214      343.26784     -4.3577412     -1486.389      -1197.0232     -2340.1444      37.621906      2.0437302    
   1565000   2708.048       403.36008      2304.688       297.40428      1137.9114      0.40101743     18421.214      359.96305     -4.3577412     -1495.472      -1196.863      -2332.372       41.076184      2.015243     
   1566000   2739.7458      396.4088       2343.337       292.27898     -988.28606      0.40101743     18421.214      347.96153     -4.3577412     -1489.5634     -1197.2632     -2338.8651      36.833624      2.2014298    
   1567000   2720.5897      423.98468      2296.605       312.61115     -300.43828      0.40101743     18421.214      350.194       -4.3577412     -1487.4332     -1197.4615     -2334.7007      36.302468      1.5247407    
   1568000   2691.9075      391.73276      2300.1747      288.83126     -586.88221      0.40101743     18421.214      344.9303      -4.3577412     -1496.3232     -1197.2051     -2348.598       43.5991        2.1985609    
   1569000   2704.5542      398.90603      2305.6481      294.12024      920.86571      0.40101743     18421.214      346.80669     -4.3577412     -1489.4022     -1195.3434     -2337.9389      36.759922      2.2590661    
   1570000   2730.2448      429.33457      2300.9102      316.55572      206.34525      0.40101743     18421.214      353.84395     -4.3577412     -1501.1959     -1198.4185     -2345.7705      38.500826      1.7901044    
   1571000   2709.5116      396.3531       2313.1585      292.23792      489.4154       0.40101743     18421.214      349.09909     -4.3577412     -1496.3892     -1195.8883     -2343.1784      40.612476      1.4723388    
   1572000   2718.1181      405.98921      2312.1289      299.34278     -561.38727      0.40101743     18421.214      340.94341     -4.3577412     -1488.9673     -1197.1702     -2345.1941      38.397491      2.3923006    
   1573000   2748.1308      435.6944       2312.4364      321.24493      1483.0709      0.40101743     18421.214      354.34689     -4.3577412     -1494.6973     -1196.4254     -2336.7758      38.145187      1.7620092    
   1574000   2782.1466      455.18689      2326.9597      335.61708      565.18406      0.40101743     18421.214      348.83462     -4.3577412     -1505.8211     -1196.7697     -2353.7562      33.74685       1.9972751    
   1575000   2701.7496      401.76183      2299.9878      296.22586     -1044.1358      0.40101743     18421.214      339.70544     -4.3577412     -1507.3275     -1197.546      -2365.1681      39.103021      2.1595923    
   1576000   2712.8293      420.50495      2292.3244      310.04549      437.98992      0.40101743     18421.214      357.64116     -4.3577412     -1497.2798     -1197.7766     -2337.4153      33.806994      2.4922991    
   1577000   2692.6051      410.46475      2282.1404      302.64267     -992.28813      0.40101743     18421.214      331.92435     -4.3577412     -1503.6121     -1197.8913     -2369.5791      42.668809      1.9897842    
   1578000   2728.6553      387.18062      2341.4747      285.47489     -608.73802      0.40101743     18421.214      348.58792     -4.3577412     -1509.3595     -1197.4337     -2358.2053      40.880188      2.2634428    
   1579000   2700.8054      403.83894      2296.9664      297.75735     -406.78227      0.40101743     18421.214      347.8091      -4.3577412     -1499.9447     -1196.952      -2349.0876      37.646682      2.0033843    
   1580000   2686.7502      397.61498      2289.1352      293.16832     -359.42635      0.40101743     18421.214      340.3635      -4.3577412     -1511.2703     -1197.6536     -2368.5604      40.517403      1.9288701    
   1581000   2725.8547      396.07626      2329.7785      292.0338       571.06932      0.40101743     18421.214      369.19608     -4.3577412     -1487.123      -1197.7688     -2315.6957      36.312901      2.6934135    
   1582000   2711.5524      399.37388      2312.1786      294.46519     -961.78346      0.40101743     18421.214      356.62922     -4.3577412     -1493.5933     -1198.0836     -2335.0477      35.789566      2.6751191    
   1583000   2702.9195      415.21134      2287.7082      306.14242      16.96761       0.40101743     18421.214      343.61531     -4.3577412     -1492.0128     -1196.8914     -2345.2889      45.169752      2.3733141    
   1584000   2727.3907      403.51116      2323.8795      297.51567     -1383.1567      0.40101743     18421.214      337.82633     -4.3577412     -1492.9595     -1197.6145     -2352.7476      35.813042      2.5075411    
   1585000   2726.1457      403.95624      2322.1895      297.84384      370.35373      0.40101743     18421.214      356.82803     -4.3577412     -1485.5022     -1197.044      -2325.7182      42.221985      1.8621394    
   1586000   2696.7957      412.68321      2284.1125      304.27838     -871.28658      0.40101743     18421.214      346.24034     -4.3577412     -1489.9505     -1196.2861     -2339.9963      31.894531      1.7925684    
   1587000   2725.8481      415.1112       2310.7369      306.06858      248.37597      0.40101743     18421.214      352.04712     -4.3577412     -1502.8118     -1197.5312     -2348.2959      41.996947      2.0105229    
   1588000   2719.215       408.90769      2310.3073      301.49463     -617.55426      0.40101743     18421.214      346.91876     -4.3577412     -1491.9115     -1196.8472     -2341.8399      42.47841       1.8464121    
   1589000   2755.6899      431.8732       2323.8167      318.42749      707.71312      0.40101743     18421.214      356.36096     -4.3577412     -1494.8772     -1196.1207     -2334.637       37.05953       2.8257763    
   1590000   2696.242       389.8226       2306.4194      287.42286      173.49346      0.40101743     18421.214      348.20693     -4.3577412     -1490.0675     -1195.6572     -2337.5178      34.117595      1.647821     
   1591000   2696.4517      385.62339      2310.8283      284.32672     -239.54385      0.40101743     18421.214      354.78488     -4.3577412     -1492.4964     -1197.0254     -2334.7369      41.114176      2.1321138    
   1592000   2715.9957      418.89681      2297.0989      308.85978      887.66981      0.40101743     18421.214      369.33383     -4.3577412     -1495.9599     -1197.1947     -2323.8208      35.081123      1.9876774    
   1593000   2708.6452      412.5328       2296.1124      304.16749      721.87729      0.40101743     18421.214      350.95514     -4.3577412     -1482.8122     -1196.1389     -2327.996       41.03508       1.9990222    
   1594000   2676.6951      392.51358      2284.1815      289.40697     -2072.9064      0.40101743     18421.214      325.91273     -4.3577412     -1509.12       -1197.4436     -2380.6509      37.689638      1.9941365    
   1595000   2727.4202      409.55438      2317.8659      301.97144      538.44586      0.40101743     18421.214      362.0966      -4.3577412     -1493.371      -1197.1239     -2328.3984      33.905102      1.4610229    
   1596000   2738.7089      415.00038      2323.7085      305.98688      972.02897      0.40101743     18421.214      354.29203     -4.3577412     -1492.4264     -1197.0329     -2335.1672      37.266318      1.7975895    
   1597000   2723.862       418.94666      2304.9153      308.89653     -940.13382      0.40101743     18421.214      345.59155     -4.3577412     -1503.727      -1197.5804     -2355.7158      41.637975      1.9709764    
   1598000   2716.3587      416.64066      2299.718       307.19628     -617.70707      0.40101743     18421.214      341.94821     -4.3577412     -1489.5908     -1196.4597     -2344.1023      40.387536      1.8997318    
   1599000   2738.4602      424.37429      2314.0859      312.89842      351.54069      0.40101743     18421.214      343.40251     -4.3577412     -1496.9471     -1196.5401     -2350.0847      32.994436      1.7158464    
   1600000   2744.4078      435.4001       2309.0077      321.02793     -541.25699      0.40101743     18421.214      352.1909      -4.3577412     -1511.2404     -1197.7264     -2356.776       41.072975      1.6759223    
   1601000   2679.4921      397.85948      2281.6326      293.3486       926.80056      0.40101743     18421.214      359.50238     -4.3577412     -1493.2051     -1197.8988     -2331.6016      39.122686      1.8888663    
   1602000   2706.1641      399.81929      2306.3448      294.7936      -61.895382      0.40101743     18421.214      351.45001     -4.3577412     -1505.1953     -1198.3883     -2352.1336      39.661448      1.404856     
   1603000   2701.3976      410.77714      2290.6205      302.873        231.42375      0.40101743     18421.214      348.07594     -4.3577412     -1485.5485     -1196.5656     -2334.0382      37.753414      1.9397022    
   1604000   2680.3316      389.65956      2290.6721      287.30265      198.5477       0.40101743     18421.214      355.6192      -4.3577412     -1493.5462     -1197.3514     -2335.2785      38.660983      1.7744171    
   1605000   2748.2777      425.56336      2322.7144      313.77514      502.82574      0.40101743     18421.214      349.6618      -4.3577412     -1492.9032     -1197.0797     -2340.3211      35.522893      1.9510898    
   1606000   2725.7999      425.9468       2299.8531      314.05785     -1295.2479      0.40101743     18421.214      351.97317     -4.3577412     -1504.6822     -1197.5612     -2350.2702      40.968572      1.9822623    
   1607000   2707.2278      408.99         2298.2378      301.55532      1185.3397      0.40101743     18421.214      353.39765     -4.3577412     -1504.3071     -1197.0816     -2347.9911      36.814598      2.1805688    
   1608000   2698.8533      408.66057      2290.1927      301.31242      752.99627      0.40101743     18421.214      354.62378     -4.3577412     -1499.6469     -1198.3636     -2343.3867      39.343855      1.9647603    
   1609000   2719.3179      409.14352      2310.1744      301.66851      1355.3051      0.40101743     18421.214      358.05017     -4.3577412     -1497.9956     -1197.9893     -2337.9347      33.66475       1.9066112    
   1610000   2742.0892      419.98993      2322.0993      309.66575      490.98531      0.40101743     18421.214      366.64922     -4.3577412     -1507.03       -1197.6886     -2338.0694      39.098542      2.025543     
   1611000   2698.4642      405.08987      2293.3743      298.67968      761.34166      0.40101743     18421.214      344.48989     -4.3577412     -1502.811      -1195.8548     -2354.1759      42.152409      2.7647307    
   1612000   2714.8576      400.4043       2314.4533      295.22494     -585.18837      0.40101743     18421.214      348.97501     -4.3577412     -1487.5085     -1197.3478     -2335.8813      39.049832      2.4717848    
   1613000   2704.0293      390.72354      2313.3058      288.08714     -550.22205      0.40101743     18421.214      350.62599     -4.3577412     -1499.8944     -1198.343      -2347.6114      38.527792      2.0339386    
   1614000   2747.4745      413.86992      2333.6046      305.15337     -39.962422      0.40101743     18421.214      349.51524     -4.3577412     -1481.0268     -1196.8857     -2328.3973      36.048781      1.6143524    
   1615000   2707.3634      395.27586      2312.0875      291.44365      756.17158      0.40101743     18421.214      350.27596     -4.3577412     -1493.2305     -1196.9937     -2339.9482      37.855908      1.7686264    
   1616000   2708.0929      409.83122      2298.2617      302.17556      547.55622      0.40101743     18421.214      347.87585     -4.3577412     -1504.5555     -1196.9144     -2353.5941      34.176177      1.5038849    
   1617000   2705.9736      402.50399      2303.4696      296.77307     -609.27899      0.40101743     18421.214      352.10917     -4.3577412     -1484.1471     -1197.7106     -2329.7486      45.746047      1.7495341    
   1618000   2725.9248      382.85033      2343.0744      282.28209     -2033.5579      0.40101743     18421.214      336.22495     -4.3577412     -1502.3015     -1196.1245     -2362.201       34.742271      2.1220138    
   1619000   2710.3824      403.87218      2306.5102      297.78186     -79.181019      0.40101743     18421.214      343.23097     -4.3577412     -1502.8214     -1197.6756     -2357.266       35.815058      1.9241042    
   1620000   2714.5054      384.91871      2329.5867      283.80714     -506.88122      0.40101743     18421.214      349.8083      -4.3577412     -1480.688      -1197.5634     -2328.4431      37.365417      2.0320035    
   1621000   2714.6814      407.37779      2307.3036      300.36661     -148.35639      0.40101743     18421.214      344.35832     -4.3577412     -1484.6895     -1196.5769     -2336.9081      36.537584      1.9268427    
   1622000   2689.0481      397.42496      2291.6231      293.02822     -213.07977      0.40101743     18421.214      349.06552     -4.3577412     -1493.5489     -1195.4454     -2339.9288      33.48594       1.2194637    
   1623000   2709.8124      424.4863       2285.3261      312.981       -680.18169      0.40101743     18421.214      347.86942     -4.3577412     -1484.4515     -1195.9641     -2332.5462      37.849161      1.7148086    
   1624000   2741.4321      429.17329      2312.2588      316.4368      -1081.0751      0.40101743     18421.214      343.6577      -4.3577412     -1477.8703     -1195.7988     -2330.0114      40.510564      1.8707698    
   1625000   2731.2663      442.69484      2288.5714      326.40647     -217.32877      0.40101743     18421.214      343.69517     -4.3577412     -1495.1398     -1194.8236     -2346.2682      32.327229      1.0488852    
   1626000   2675.0569      385.50506      2289.5519      284.23947      362.01795      0.40101743     18421.214      342.66732     -4.3577412     -1479.5936     -1196.4314     -2333.3577      36.729188      1.1918268    
   1627000   2707.8315      403.69819      2304.1333      297.65358     -1073.2231      0.40101743     18421.214      351.48564     -4.3577412     -1499.5742     -1196.59       -2344.6785      42.20765       2.0193926    
   1628000   2704.6628      413.78529      2290.8775      305.09096      586.03661      0.40101743     18421.214      345.54598     -4.3577412     -1490.2069     -1197.6138     -2342.2747      38.795611      1.8954057    
   1629000   2708.4881      396.13645      2312.3517      292.07818     -612.76974      0.40101743     18421.214      345.25754     -4.3577412     -1499.9943     -1198.0534     -2352.7901      39.340173      2.4384751    
   1630000   2691.554       386.8645       2304.6895      285.24181      190.18146      0.40101743     18421.214      358.0727      -4.3577412     -1496.8825     -1197.2044     -2336.0142      33.376881      2.3248344    
   1631000   2733.5559      434.0017       2299.5542      319.99687     -597.00608      0.40101743     18421.214      339.19112     -4.3577412     -1508.9633     -1197.351      -2367.1232      40.497786      1.4034102    
   1632000   2750.7651      427.48402      2323.281       315.19128     -627.12078      0.40101743     18421.214      350.52256     -4.3577412     -1494.3401     -1197.1236     -2340.9411      38.832157      1.8473357    
   1633000   2710.1356      419.0818       2291.0538      308.99617     -768.41728      0.40101743     18421.214      337.91445     -4.3577412     -1485.9009     -1196.7777     -2344.7642      36.009895      2.2694742    
   1634000   2680.6099      391.07018      2289.5398      288.34273      433.12803      0.40101743     18421.214      342.36312     -4.3577412     -1499.5624     -1197.3075     -2354.5067      38.899987      1.9769117    
   1635000   2714.3511      426.09532      2288.2558      314.16736      624.93235      0.40101743     18421.214      349.26673     -4.3577412     -1510.7088     -1197.7567     -2359.1988      40.061457      1.8104529    
   1636000   2709.9084      403.41588      2306.4925      297.44542      824.66352      0.40101743     18421.214      362.70177     -4.3577412     -1479.7918     -1197.9833     -2315.0732      42.829982      1.7531426    
   1637000   2706.2687      418.13909      2288.1296      308.3011      -254.52392      0.40101743     18421.214      345.95934     -4.3577412     -1499.7443     -1197.0479     -2350.8328      35.595536      2.099865     
   1638000   2750.9183      435.94235      2314.976       321.42775      1554.5649      0.40101743     18421.214      360.64864     -4.3577412     -1505.7958     -1197.5025     -2342.6497      37.71215       2.0628499    
   1639000   2746.1621      426.43318      2319.7289      314.41647      442.82984      0.40101743     18421.214      338.53437     -4.3577412     -1496.7652     -1196.6484     -2354.8792      36.882796      1.7601274    
   1640000   2733.6209      417.80748      2315.8134      308.0566       1184.6724      0.40101743     18421.214      355.12188     -4.3577412     -1489.4591     -1197.2139     -2331.5511      41.808236      1.7518839    
   1641000   2707.1999      405.05293      2302.1469      298.65245      392.70448      0.40101743     18421.214      351.10468     -4.3577412     -1491.5317     -1196.7575     -2337.1846      36.751051      2.0304001    
   1642000   2695.4698      407.89848      2287.5713      300.75052      229.67143      0.40101743     18421.214      351.93141     -4.3577412     -1483.7823     -1196.2278     -2328.0787      40.505526      1.7642781    
   1643000   2684.835       378.84856      2305.9865      279.33152     -157.98349      0.40101743     18421.214      349.62241     -4.3577412     -1500.0725     -1197.46       -2347.9101      39.354926      2.3485542    
   1644000   2728.7901      425.25485      2303.5352      313.54767     -299.34373      0.40101743     18421.214      331.63777     -4.3577412     -1492.2817     -1197.3795     -2358.0235      38.115333      2.0867454    
   1645000   2702.1317      381.32499      2320.8067      281.15744      696.88089      0.40101743     18421.214      354.47661     -4.3577412     -1486.883      -1197.7014     -2330.1078      40.754076      2.1855866    
   1646000   2708.0152      398.93568      2309.0795      294.1421       545.81817      0.40101743     18421.214      358.13131     -4.3577412     -1499.7711     -1197.3679     -2339.0076      45.633212      2.4413161    
   1647000   2693.4587      404.76993      2288.6888      298.44379      1146.4541      0.40101743     18421.214      368.33183     -4.3577412     -1503.5537     -1197.0596     -2332.2815      34.201794      2.0361951    
   1648000   2717.9006      399.9648       2317.9358      294.90088     -1383.6799      0.40101743     18421.214      336.33272     -4.3577412     -1491.8855     -1197.4658     -2353.0185      51.101689      1.9791347    
   1649000   2735.6007      439.9388       2295.6619      324.3744      -673.91632      0.40101743     18421.214      343.23877     -4.3577412     -1506.1234     -1198.7668     -2361.6514      36.989413      2.2099232    
   1650000   2716.0934      391.49113      2324.6023      288.6531      -669.76967      0.40101743     18421.214      347.65697     -4.3577412     -1502.2196     -1197.7458     -2352.3084      40.907891      1.5905318    
   1651000   2719.3693      423.77292      2295.5964      312.45502      277.83669      0.40101743     18421.214      355.05138     -4.3577412     -1494.1437     -1197.7484     -2336.8408      30.379896      2.4069242    
   1652000   2683.5557      375.24537      2308.3104      276.67482     -624.9809       0.40101743     18421.214      348.61488     -4.3577412     -1491.844      -1195.1624     -2338.3915      46.909213      2.4236485    
   1653000   2715.7719      408.90012      2306.8718      301.48905      854.44137      0.40101743     18421.214      355.57326     -4.3577412     -1481.6439     -1196.6831     -2322.7537      38.148667      2.2450018    
   1654000   2696.5762      402.18173      2294.3944      296.53546     -251.97379      0.40101743     18421.214      345.61648     -4.3577412     -1495.1139     -1196.353      -2345.8504      40.553141      1.7534235    
   1655000   2718.9777      392.13987      2326.8378      289.13143     -189.04973      0.40101743     18421.214      352.33139     -4.3577412     -1493.7401     -1196.1853     -2337.594       38.144932      2.0695341    
   1656000   2737.9802      409.23586      2328.7443      301.7366       751.78507      0.40101743     18421.214      356.50651     -4.3577412     -1508.2397     -1197.2949     -2349.0281      33.996408      1.7721552    
   1657000   2728.7256      408.07945      2320.6461      300.88395      175.79422      0.40101743     18421.214      349.93986     -4.3577412     -1492.0332     -1197.3563     -2339.4496      39.073728      2.1338176    
   1658000   2731.4815      430.22956      2301.2519      317.21561     -325.53851      0.40101743     18421.214      343.02863     -4.3577412     -1487.8608     -1197.6672     -2342.4993      40.481309      2.0711137    
   1659000   2737.5009      430.09542      2307.4055      317.1167       450.29184      0.40101743     18421.214      354.73975     -4.3577412     -1487.4003     -1197.3612     -2330.0217      40.213751      2.2425226    
   1660000   2703.1084      415.4802       2287.6282      306.34065     -303.68458      0.40101743     18421.214      333.01292     -4.3577412     -1485.6069     -1196.3844     -2348.9784      33.4277        2.134387     
   1661000   2736.4085      435.70877      2300.6998      321.25552     -1242.603       0.40101743     18421.214      346.19553     -4.3577412     -1491.9811     -1196.9939     -2342.7794      34.875383      1.8821993    
   1662000   2734.442       401.72487      2332.7171      296.19861      795.9766       0.40101743     18421.214      349.7103      -4.3577412     -1493.4554     -1196.6496     -2340.3946      38.482249      2.0070626    
   1663000   2701.7923      396.36489      2305.4274      292.24661     -96.17765       0.40101743     18421.214      346.67583     -4.3577412     -1495.0396     -1196.8735     -2345.2372      37.426129      1.7971759    
   1664000   2732.3226      428.09199      2304.2306      315.63954     -322.8          0.40101743     18421.214      353.34334     -4.3577412     -1498.0017     -1198.0804     -2342.7387      37.450172      2.4716946    
   1665000   2686.7578      384.89081      2301.867       283.78657      1125.2116      0.40101743     18421.214      351.79352     -4.3577412     -1511.1824     -1196.2936     -2355.6826      37.546862      2.2630972    
   1666000   2714.9591      404.44676      2310.5123      298.20551     -196.86682      0.40101743     18421.214      345.5046      -4.3577412     -1502.8663     -1197.602      -2354.9637      31.827972      1.7485148    
   1667000   2692.5137      414.36937      2278.1443      305.52162      631.23267      0.40101743     18421.214      348.0599      -4.3577412     -1499.1238     -1198.0688     -2349.1327      35.42364       2.0747704    
   1668000   2720.6478      399.33009      2321.3178      294.4329      -527.13762      0.40101743     18421.214      351.30898     -4.3577412     -1503.5176     -1197.5677     -2349.7763      38.489934      1.9224359    
   1669000   2738.2847      425.69038      2312.5944      313.86879      467.17079      0.40101743     18421.214      339.25612     -4.3577412     -1499.5399     -1196.5363     -2356.8201      33.00815       2.3939651    
   1670000   2682.0259      388.45697      2293.569       286.41596      162.59397      0.40101743     18421.214      354.9887      -4.3577412     -1499.2387     -1196.4708     -2340.7207      39.219418      2.3893662    
   1671000   2715.3491      398.94423      2316.4049      294.1484      -159.3189       0.40101743     18421.214      356.00035     -4.3577412     -1485.9722     -1197.6901     -2327.6619      38.089191      2.0826832    
   1672000   2729.1746      426.5156       2302.659       314.47724     -489.59701      0.40101743     18421.214      345.28537     -4.3577412     -1482.9395     -1197.2941     -2334.9482      39.134075      1.7631034    
   1673000   2742.4682      403.6546       2338.8136      297.62144      110.91847      0.40101743     18421.214      349.96066     -4.3577412     -1502.4327     -1197.0175     -2349.4895      45.080542      2.1686146    
   1674000   2726.3596      421.75028      2304.6093      310.96369     -13.739839      0.40101743     18421.214      344.77286     -4.3577412     -1494.939      -1198.0534     -2348.2195      36.010493      2.2908276    
   1675000   2722.5277      399.75228      2322.7754      294.74419     -905.01528      0.40101743     18421.214      343.85454     -4.3577412     -1500.0993     -1195.7192     -2351.9639      37.943435      1.9363553    
   1676000   2747.4748      403.71838      2343.7565      297.66846     -9.5441398      0.40101743     18421.214      357.68638     -4.3577412     -1506.3408     -1196.0628     -2344.7172      46.718586      1.9024357    
   1677000   2720.1501      423.31558      2296.8345      312.11781      723.83921      0.40101743     18421.214      352.29252     -4.3577412     -1490.5392     -1197.0679     -2335.3146      42.540878      1.6784836    
   1678000   2700.6995      392.57492      2308.1246      289.4522      -1318.8537      0.40101743     18421.214      332.78632     -4.3577412     -1479.8562     -1196.8724     -2343.9423      41.220516      1.7715243    
   1679000   2730.2275      427.29225      2302.9352      315.04988     -1283.6714      0.40101743     18421.214      343.45983     -4.3577412     -1502.3376     -1197.8186     -2356.6965      34.611001      2.2401943    
   1680000   2712.765       414.30106      2298.4639      305.47126      328.69798      0.40101743     18421.214      348.05582     -4.3577412     -1501.2981     -1196.7903     -2350.0326      40.659305      1.7152904    
   1681000   2723.3967      419.18448      2304.2122      309.07188     -777.17072      0.40101743     18421.214      351.47685     -4.3577412     -1501.8844     -1196.9201     -2347.3277      38.56519       1.5323813    
   1682000   2720.5589      410.18425      2310.3746      302.43586      370.46792      0.40101743     18421.214      353.31832     -4.3577412     -1491.0499     -1197.4058     -2335.1374      35.462913      2.1415676    
   1683000   2709.2412      404.26109      2304.9801      298.06861      153.10445      0.40101743     18421.214      344.31123     -4.3577412     -1500.5563     -1197.4196     -2353.6647      38.447547      1.9738521    
   1684000   2675.3067      389.85867      2285.4481      287.44946     -860.807        0.40101743     18421.214      334.56979     -4.3577412     -1493.4402     -1197.0729     -2355.9433      34.104495      1.8355105    
   1685000   2677.7318      398.74298      2278.9889      294.00001      410.68252      0.40101743     18421.214      350.53567     -4.3577412     -1511.7679     -1197.3494     -2358.5816      37.464048      1.8762376    
   1686000   2740.252       404.31171      2335.9403      298.10593     -57.586473      0.40101743     18421.214      356.20152     -4.3577412     -1473.0627     -1195.3631     -2312.2242      44.519457      2.1136137    
   1687000   2714.977       412.85622      2302.1208      304.40595     -393.77185      0.40101743     18421.214      349.51856     -4.3577412     -1484.7363     -1197.4168     -2332.6346      35.827203      1.7782341    
   1688000   2748.0895      425.44717      2322.6424      313.68947     -427.81247      0.40101743     18421.214      354.1575      -4.3577412     -1501.3596     -1197.4822     -2344.6842      34.044587      1.4712491    
   1689000   2704.3885      391.09045      2313.2981      288.35767     -726.43126      0.40101743     18421.214      344.12386     -4.3577412     -1504.5594     -1196.3585     -2356.794       34.553163      2.6176797    
   1690000   2709.2966      426.4889       2282.8077      314.45755      355.08062      0.40101743     18421.214      350.57515     -4.3577412     -1485.9754     -1198.023      -2333.4232      39.201061      2.2404269    
   1691000   2731.8513      428.55802      2303.2933      315.98315     -560.24652      0.40101743     18421.214      342.55537     -4.3577412     -1496.9667     -1196.5578     -2350.9692      42.519545      1.4046098    
   1692000   2721.0695      416.53201      2304.5375      307.11617      291.92774      0.40101743     18421.214      343.04837     -4.3577412     -1499.4649     -1196.4452     -2352.8618      36.91353       1.8676846    
   1693000   2741.665       418.56065      2323.1043      308.61192      752.68414      0.40101743     18421.214      363.12456     -4.3577412     -1488.1058     -1197.671      -2322.6522      34.485834      1.9963866    
   1694000   2762.5357      440.29861      2322.2371      324.63969      632.94346      0.40101743     18421.214      350.02878     -4.3577412     -1492.1216     -1197.3731     -2339.4659      39.741582      1.6684602    
   1695000   2731.3458      434.10383      2297.242       320.07218      551.04071      0.40101743     18421.214      346.23532     -4.3577412     -1485.9934     -1197.8037     -2337.5617      36.873124      2.0929629    
   1696000   2706.6349      413.21576      2293.4191      304.67104      250.61467      0.40101743     18421.214      333.28725     -4.3577412     -1498.7918     -1197.4337     -2362.9383      38.824066      1.58486      
   1697000   2701.8707      385.59658      2316.2741      284.30695     -1337.5565      0.40101743     18421.214      340.24937     -4.3577412     -1503.4565     -1195.4108     -2358.6179      40.437216      1.483024     
   1698000   2712.5304      411.60813      2300.9222      303.48571     -932.75728      0.40101743     18421.214      341.72317     -4.3577412     -1501.9975     -1197.4941     -2357.7684      38.859506      1.9643079    
   1699000   2716.2371      398.08611      2318.151       293.51569      1120.2448      0.40101743     18421.214      353.01987     -4.3577412     -1491.6454     -1195.1283     -2333.7538      38.084608      1.8812211    
   1700000   2722.1196      424.17738      2297.9422      312.75323     -1081.2352      0.40101743     18421.214      356.33252     -4.3577412     -1503.6198     -1197.4564     -2344.7437      37.813486      1.9749344    
   1701000   2691.8384      406.43601      2285.4024      299.67222      913.93678      0.40101743     18421.214      332.72443     -4.3577412     -1500.5583     -1195.4674     -2363.3012      43.905093      2.4084212    
   1702000   2704.8658      392.60993      2312.2558      289.47801     -729.07868      0.40101743     18421.214      339.79627     -4.3577412     -1500.3154     -1196.7997     -2357.3188      38.804711      2.22225      
   1703000   2709.0436      399.59084      2309.4528      294.62516     -153.02689      0.40101743     18421.214      347.40253     -4.3577412     -1504.1606     -1197.1636     -2353.9218      43.499661      1.6163145    
   1704000   2723.7632      433.04149      2290.7217      319.28889      825.49653      0.40101743     18421.214      347.08984     -4.3577412     -1499.4824     -1195.7798     -2348.1724      33.302379      2.4952579    
   1705000   2702.8429      394.85034      2307.9925      291.12991      190.94694      0.40101743     18421.214      352.84141     -4.3577412     -1522.4929     -1196.9077     -2366.5592      38.386554      1.7893851    
   1706000   2706.9559      431.94771      2275.0082      318.48243     -187.80003      0.40101743     18421.214      344.02236     -4.3577412     -1500.9606     -1197.3192     -2354.2574      41.227489      2.0162556    
   1707000   2700.5122      404.16321      2296.349       297.99644      225.87609      0.40101743     18421.214      363.24315     -4.3577412     -1499.827      -1199.1877     -2335.7716      37.122483      2.2599464    
   1708000   2716.1892      427.85726      2288.3319      315.46647     -751.07377      0.40101743     18421.214      347.05676     -4.3577412     -1510.3143     -1198.3098     -2361.5673      44.548051      2.0234793    
   1709000   2726.1094      413.40391      2312.7055      304.80977     -524.62674      0.40101743     18421.214      347.9436      -4.3577412     -1484.8587     -1196.5221     -2333.4372      37.425782      2.2609875    
   1710000   2723.6979      424.22224      2299.4756      312.78631      659.2526       0.40101743     18421.214      351.97332     -4.3577412     -1491.1105     -1196.9419     -2336.0791      35.907607      1.783708     
   1711000   2691.8313      417.10689      2274.7244      307.54004      173.41096      0.40101743     18421.214      348.58917     -4.3577412     -1506.8451     -1196.7091     -2354.965       33.916622      1.5862522    
   1712000   2703.7557      410.63599      2293.1197      302.76893      471.86355      0.40101743     18421.214      344.6508      -4.3577412     -1505.2099     -1196.9865     -2357.5456      40.709545      1.862399     
   1713000   2718.6716      386.86011      2331.8114      285.23857      10.655489      0.40101743     18421.214      353.55335     -4.3577412     -1510.1612     -1197.4834     -2354.0913      36.506004      1.3682975    
   1714000   2696.5404      396.01093      2300.5294      291.98563     -1002.1651      0.40101743     18421.214      341.55682     -4.3577412     -1505.8611     -1197.0292     -2361.3335      33.099782      2.0357221    
   1715000   2722.9147      400.22246      2322.6922      295.09086     -240.10165      0.40101743     18421.214      338.13831     -4.3577412     -1488.9186     -1197.3598     -2348.14        35.204856      2.101007     
   1716000   2695.6928      401.79439      2293.8984      296.24987      263.08387      0.40101743     18421.214      355.79934     -4.3577412     -1491.3118     -1196.6947     -2332.2072      36.6262        2.0503659    
   1717000   2704.4198      428.5612       2275.8586      315.9855       1190.272       0.40101743     18421.214  